 Compiled for linux_x86_64_ifort16 on Sat, 23 Jul 2016 23:44:54 +0100
 from code version
 203e84763863+ Castep161_branch Fri, 04 Mar 2016 19:21:07 +0000
 Compiler: Intel Fortran 16.0.3.210; Optimisation: fast
 MATHLIBS: Intel MKL(11.3.3) (LAPACK version 3.6.0)
 FFT Lib : mkl
 Fundamental constants values: CODATA 2010

 Run started: Sat, 09 Dec 2017 13:02:33 +0000
 |           N   N    M   M    RRRR                |
 |           NN  N    MM MM    R   R               |
 |           N N N    M M M    RRRR                |
 |           N  NN    M   M    R  R                |
 |           N   N    M   M    R   R               |
 | Welcome to Materials Studio CASTEP-NMR          |
 | Authors:                                        |
 | J.R. Yates, C.J. Pickard, F. Mauri              |
 | Contributors:                                   |
 | T.F.G. Green, S.A. Joyce                        |
 | Copyright (c) 2004 - 2015                       |
 | Please cite the appropriate publications in all |
 | work arising from your use of CASTEP NMR.       |
 | For NMR Shielding Tensors cite:                 |
 |    "All-electron magnetic response with         |
 |    pseudopotentials: NMR chemical shifts",      |
 |    C. J. Pickard, F. Mauri;                     |
 |    Physical Review B63 245101 (2001), and       |
 |    "Calculation of NMR Chemical Shifts          |
 |    for extended systems using                   |
 |    Ultrasoft Pseudopotentials",                 |
 |    J. R. Yates, C. J. Pickard and F. Mauri      |
 |    Physical Review B76 024401 (2007)            |
 | For Electric Field Gradients cite:              |
 |   "Accurate First Principles Prediction of 17O  |
 |    NMR Parameters in SiO2: Assignment of the    |
 |    Zeolite Ferrierite Spectrum"                 |
 |    M. Profeta, F. Mauri and C. J. Pickard       |
 |    J. Amer. Chem. Soc. 125 541 (2003)           |
 | For Spin-Spin (J) Couplings cite:               |
 |   "A first principles theory of NMR J-coupling  |
 |   in solid-state systems"                       |
 |   S.A. Joyce, J.R. Yates, C.J. Pickard, F. Mauri|
 |   J. Chem. Phys. 127 204107 (2007)              |
 |   "Relativistic NMR J-coupling with ultrasoft   |
 |   pseudopotentials and the zeroth-order regular |
 |   approximation"                                |
 |   T.F.G. Green and J.R. Yates                   |
 |   J. Chem. Phys. 140 234106 (2014)              |

 Atomic calculation performed for O: 1s2 2s2 2p4

 Converged in 44 iterations to an ae energy of -2040.855 eV

 Atomic calculation performed for O: 1s2 2s2 2p4

 Exceeded max iterations: converged to 0.000000062 eV

   | Pseudopotential Report - Date of generation  9-12-2017   |
   | Element: O Ionic charge:  6.00 Level of theory: PBE      |
   | Atomic Solver: ZORA (scalar)                             |
   |               Reference Electronic Structure             |
   |         Orbital         Occupation         Energy        |
   |            2s              2.000           -0.881        |
   |            2p              4.000           -0.332        |
   |                 Pseudopotential Definition               |
   |        Beta     l      e      Rc     scheme   norm       |
   |          1      0   -0.881   1.100     qc      0         |
   |          2      0    0.250   1.100     qc      0         |
   |          3      1   -0.332   1.100     qc      0         |
   |          4      1    0.250   1.100     qc      0         |
   |         loc     2    0.000   1.100     pn      0         |
   | Augmentation charge Rinner = 0.769                       |
   | Partial core correction Rc = 0.769                       |
   | "2|1.1|15|18|20|20:21(qc=7)"                             |
   |      Author: Chris J. Pickard, Cambridge University      |

 Atomic calculation performed for Sn:

[...]

 Atomic calculation performed for Sn:

[...]

   | Pseudopotential Report - Date of generation  9-12-2017   |
   | Element: Sn Ionic charge: 14.00 Level of theory: PBE     |
   | Atomic Solver: ZORA (scalar)                             |
   |               Reference Electronic Structure             |
   |         Orbital         Occupation         Energy        |
   |            4d             10.000           -0.950        |
   |            5s              2.000           -0.388        |
   |            5p              2.000           -0.136        |
   |                 Pseudopotential Definition               |
   |        Beta     l      e      Rc     scheme   norm       |
   |          1      0   -0.388   2.199     qc      0         |
   |          2      0    0.250   2.199     qc      0         |
   |          3      1   -0.136   2.199     qc      0         |
   |          4      1    0.250   2.199     qc      0         |
   |          5      2   -0.950   2.199     qc      0         |
   |          6      2    0.250   2.199     qc      0         |
   |         loc     3    0.000   2.199     pn      0         |
   | Augmentation charge Rinner = 1.537                       |
   | Partial core correction Rc = 1.537                       |
   | "3|2.2|7|8|9|50:51:42"                                   |
   |      Author: Chris J. Pickard, Cambridge University      |

 Atomic calculation performed for La:

 Converged in 56 iterations to an ae energy of -230121.495 eV

 Atomic calculation performed for La:

 Exceeded max iterations: converged to 0.000000907 eV

 Warning: ion_atom_descreen_psp: negative charge density encountered
   | Pseudopotential Report - Date of generation  9-12-2017   |
   | Element: La Ionic charge: 11.00 Level of theory: PBE     |
   | Atomic Solver: ZORA (scalar)                             |
   |               Reference Electronic Structure             |
   |         Orbital         Occupation         Energy        |
   |            5s              2.000           -1.430        |
   |            5p              6.000           -0.823        |
   |            6s              2.000           -0.135        |
   |            5d              1.000           -0.114        |
   |                 Pseudopotential Definition               |
   |        Beta     l      e      Rc     scheme   norm       |
   |          1      0   -1.430   2.298     qc      0         |
   |          2      0   -0.135   2.298     qc      0         |
   |          3      0    0.250   2.298     qc      0         |
   |          4      1   -0.823   2.298     qc      0         |
   |          5      1    0.250   2.298     qc      0         |
   |          6      2   -0.114   2.298     qc      0         |
   |          7      2    0.250   2.298     qc      0         |
   |         loc     2    0.000   2.298     pn      0         |
   | Augmentation charge Rinner = 1.606                       |
   | Partial core correction Rc = 1.606                       |
   | "2|2.3|5|6|7|50U:60:51:52(qc=4.5)"                       |
   |      Author: Chris J. Pickard, Cambridge University      |

 Pseudo atomic calculation performed for O 2s2 2p4

 Converged in 39 iterations to a total energy of -432.6554 eV

[...]

 Pseudo atomic calculation performed for La 5s2 5p6 5d1 6s2

[...]

 Calculation parallelised over 56 processes.
 Data is distributed by G-vector(4-way) and k-point(14-way)

 ************************************ Title ************************************
 nmr testing

 ***************************** General Parameters ******************************

 output verbosity                               : normal  (1)
 write checkpoint data to                       : La2Sn2O7.check
 type of calculation                            : Magnetic Resonance
 stress calculation                             : on
 density difference calculation                 : off
 electron localisation func (ELF) calculation   : off
 Hirshfeld analysis                             : off
 unlimited duration calculation
 timing information                             : on
 write final potential to formatted file        : off
 write final density to formatted file          : off
 write structure in CIF formatted file          : on
 write structure in CELL formatted file         : on
 write BibTeX reference list                    : on
 write OTFG pseudopotential files               : on
 checkpoint writing                             : both castep_bin and check files

 output         length unit                     : A
 output           mass unit                     : amu
 output           time unit                     : ps
 output         charge unit                     : e
 output           spin unit                     : hbar/2
 output         energy unit                     : eV
 output          force unit                     : eV/A
 output       velocity unit                     : A/ps
 output       pressure unit                     : GPa
 output     inv_length unit                     : 1/A
 output      frequency unit                     : cm-1
 output force constant unit                     : eV/A**2
 output         volume unit                     : A**3
 output   IR intensity unit                     : (D/A)**2/amu
 output         dipole unit                     : D
 output         efield unit                     : eV/A/e
 output        entropy unit                     : J/mol/K

 wavefunctions paging                           : none
 random number generator seed                   : randomised (130235945)
 data distribution                              : optimal for this architecture
 optimization strategy                          : maximize speed(+++)

 *********************** Exchange-Correlation Parameters ***********************

 using functional                               : Perdew Burke Ernzerhof
 relativistic treatment                         : ZORA
 DFT+D: Semi-empirical dispersion correction    : off

 ************************* Pseudopotential Parameters **************************

 pseudopotential representation                 : reciprocal space
 <beta|phi> representation                      : reciprocal space
 spin-orbit coupling                            : off

 **************************** Basis Set Parameters *****************************

 plane wave basis set cut-off                   :   816.3416   eV
 size of standard grid                          :     1.7500
 size of   fine   gmax                          :    25.6161   1/A
 finite basis set correction                    : automatic
 number of sample energies                      :          3
           sample  spacing                      :     5.0000   eV

 **************************** Electronic Parameters ****************************

 number of  electrons                           :  736.0
 net charge of system                           :  0.000
 treating system as non-spin-polarized
 number of bands                                :        442

 ********************* Electronic Minimization Parameters **********************

 Method: Treating system as metallic with density mixing treatment of electrons,
         and number of  SD  steps               :          1
         and number of  CG  steps               :          4

[...]
  |    O          42      -11.05     -46.53      0.32   3.790E+00   0.99 |
  |    O          43      -11.02     -46.49      0.32   3.791E+00   0.99 |
  |    O          44      -11.05     -46.53      0.32   3.790E+00   0.99 |
  |    O          45      -11.02     -46.49      0.32   3.791E+00   0.99 |
  |    O          46      -11.05     -46.53      0.32   3.790E+00   0.99 |
  |    O          47      -11.05     -46.53      0.32   3.790E+00   0.99 |
  |    O          48      -11.01     -46.49      0.32   3.791E+00   0.99 |
  |    O          49      -11.05     -46.53      0.32   3.790E+00   0.99 |
  |    O          50      -11.01     -46.49      0.32   3.791E+00   0.99 |
  |    O          51      -11.05     -46.53      0.32   3.790E+00   0.99 |
  |    O          52      -11.02     -46.49      0.32   3.791E+00   0.99 |
  |    O          53      -11.05     -46.53      0.32   3.790E+00   0.99 |
  |    O          54      -11.02     -46.49      0.32   3.791E+00   0.99 |
  |    O          55      -11.05     -46.53      0.32   3.790E+00   0.99 |
  |    O          56      -11.02     -46.50      0.32   3.791E+00   0.99 |
  |    Sn          1     3238.55     -60.81      0.00   1.111E+02   0.00 |
  |    Sn          2     3238.52     -60.79      0.00   1.112E+02   0.00 |
  |    Sn          3     3238.53     -60.79      0.00   1.112E+02   0.00 |
  |    Sn          4     3238.52     -60.78      0.00   1.112E+02   0.00 |
[...]
  |    La          2     4501.44     246.77      0.00  -7.628E+01   0.00 |
  |    La          3     4501.44     246.76      0.00  -7.628E+01   0.00 |
  |    La          4     4501.44     246.77      0.00  -7.628E+01   0.00 |
  |    La          5     4501.44     246.77      0.00  -7.628E+01   0.00 |
  |    La          6     4501.44     246.76      0.00  -7.628E+01   0.00 |
  |    La          7     4501.44     246.77      0.00  -7.628E+01   0.00 |
  |    La          8     4501.42     246.62      0.00  -7.622E+01   0.00 |
  |    La          9     4501.44     246.76      0.00  -7.628E+01   0.00 |
  |    La         10     4501.44     246.76      0.00  -7.628E+01   0.00 |
  |    La         11     4501.44     246.77      0.00  -7.628E+01   0.00 |
  |    La         12     4501.44     246.76      0.00  -7.628E+01   0.00 |
  |    La         13     4501.42     246.61      0.00  -7.622E+01   0.00 |
  |    La         14     4501.44     246.77      0.00  -7.628E+01   0.00 |
  |    La         15     4501.44     246.78      0.00  -7.628E+01   0.00 |
  |    La         16     4501.42     246.61      0.00  -7.622E+01   0.00 |

 *********************** Forces ***********************
 *            Cartesian components (eV/A)             *
 *                   x            y            z      *
 * O         1     -0.00029     -0.00029     -0.00029 *
 * O         2     -0.00029     -0.00029     -0.00029 *
 * O         3     -0.00029     -0.00029     -0.00029 *
 * O         4     -0.00029     -0.00029     -0.00029 *
 * O         5      0.00029      0.00029      0.00029 *
 * O         6      0.00029      0.00029      0.00029 *
 * O         7      0.00029      0.00029      0.00029 *
 * O         8      0.00029      0.00029      0.00029 *
 * O         9     -0.00004     -0.00020     -0.00020 *
 * O        10     -0.00001      0.00011      0.00011 *
 * O        11     -0.00001      0.00012      0.00010 *
 * O        12     -0.00004     -0.00019     -0.00019 *
 * O        13     -0.00020     -0.00005     -0.00019 *
 * O        14      0.00011     -0.00001      0.00011 *
 * O        15      0.00011     -0.00002      0.00011 *
 * O        16     -0.00019     -0.00003     -0.00019 *
 * O        17     -0.00018     -0.00018     -0.00004 *
 * O        18      0.00011      0.00011     -0.00003 *
 * O        19      0.00011      0.00011     -0.00003 *
 * O        20     -0.00019     -0.00019     -0.00004 *
 * O        21     -0.00012      0.00001     -0.00010 *
 * O        22      0.00018      0.00004      0.00018 *
 * O        23      0.00019      0.00003      0.00019 *
 * O        24     -0.00012      0.00002     -0.00010 *
 * O        25      0.00001     -0.00011     -0.00011 *
 * O        26      0.00004      0.00019      0.00018 *
 * O        27      0.00004      0.00019      0.00019 *
 * O        28      0.00001     -0.00011     -0.00011 *
 * O        29      0.00020      0.00020      0.00003 *
 * O        30     -0.00012     -0.00011      0.00003 *
 * O        31     -0.00010     -0.00012      0.00002 *
 * O        32      0.00018      0.00018      0.00004 *
 * O        33      0.00002     -0.00012     -0.00010 *
 * O        34      0.00004      0.00019      0.00020 *
 * O        35     -0.00010      0.00001     -0.00011 *
 * O        36      0.00020      0.00004      0.00020 *
 * O        37     -0.00012     -0.00010      0.00002 *
 * O        38      0.00018      0.00018      0.00003 *
 * O        39      0.00011     -0.00002      0.00011 *
 * O        40     -0.00020     -0.00004     -0.00019 *
 * O        41     -0.00004     -0.00019     -0.00019 *
 * O        42     -0.00002      0.00012      0.00010 *
 * O        43     -0.00019     -0.00019     -0.00003 *
 * O        44      0.00010      0.00012     -0.00002 *
 * O        45     -0.00004     -0.00018     -0.00018 *
 * O        46     -0.00001      0.00011      0.00011 *
 * O        47      0.00011      0.00011     -0.00002 *
 * O        48     -0.00019     -0.00019     -0.00003 *
 * O        49     -0.00011      0.00002     -0.00011 *
 * O        50      0.00020      0.00004      0.00020 *
 * O        51      0.00002     -0.00012     -0.00010 *
 * O        52      0.00004      0.00019      0.00019 *
 * O        53     -0.00010     -0.00012      0.00002 *
 * O        54      0.00019      0.00019      0.00003 *
 * O        55      0.00011     -0.00000      0.00010 *
 * O        56     -0.00019     -0.00003     -0.00019 *
 * Sn        1      0.00000     -0.00000     -0.00001 *
 * Sn        2     -0.00000      0.00001      0.00001 *
 * Sn        3      0.00001      0.00001     -0.00001 *
 * Sn        4      0.00001     -0.00001      0.00000 *
[...]
 * La        2     -0.00000     -0.00000      0.00000 *
 * La        3     -0.00001      0.00000     -0.00001 *
 * La        4     -0.00001      0.00000      0.00001 *
 * La        5     -0.00001     -0.00000      0.00000 *
 * La        6     -0.00000      0.00001      0.00001 *
 * La        7     -0.00001     -0.00000     -0.00000 *
 * La        8      0.00002      0.00001      0.00000 *
 * La        9     -0.00000      0.00000      0.00000 *
 * La       10      0.00000     -0.00000      0.00001 *
 * La       11     -0.00000      0.00000     -0.00000 *
 * La       12      0.00000     -0.00000     -0.00001 *
 * La       13     -0.00001     -0.00000     -0.00000 *
 * La       14      0.00002      0.00000     -0.00001 *
 * La       15      0.00001     -0.00000      0.00001 *
 * La       16     -0.00001      0.00000     -0.00000 *

 ***************** Stress Tensor *****************
 *          Cartesian components (GPa)           *
 *             x             y             z     *
 *  x      0.000080     -0.000141     -0.000120  *
 *  y     -0.000141      0.000079     -0.000125  *
 *  z     -0.000120     -0.000125      0.000066  *
 *  Pressure:   -0.0001                          *

[...]

 Pseudo atomic calculation performed for Sn 4d10 5s2 5p2

[...]

 Pseudo atomic calculation performed for La 5s2 5p6 5d1 6s2

 Converged in 34 iterations to a total energy of -968.0372 eV

Charge spilling parameter for spin component 1 = 0.28%

     Atomic Populations (Mulliken)
Species   Ion     s      p      d      f     Total  Charge (e)
  O        1     1.87   5.00   0.00   0.00   6.88    -0.88
  O        2     1.87   5.00   0.00   0.00   6.88    -0.88
  O        3     1.87   5.00   0.00   0.00   6.88    -0.88
  O        4     1.87   5.00   0.00   0.00   6.88    -0.88
  O        5     1.87   5.00   0.00   0.00   6.88    -0.88
  O        6     1.87   5.00   0.00   0.00   6.88    -0.88
  O        7     1.87   5.00   0.00   0.00   6.88    -0.88
  O        8     1.87   5.00   0.00   0.00   6.88    -0.88
  O        9     1.89   5.03   0.00   0.00   6.92    -0.92
  O       10     1.89   5.03   0.00   0.00   6.92    -0.92
  O       11     1.89   5.03   0.00   0.00   6.92    -0.92
  O       12     1.89   5.03   0.00   0.00   6.92    -0.92
  O       13     1.89   5.03   0.00   0.00   6.92    -0.92
  O       14     1.89   5.03   0.00   0.00   6.92    -0.92
  O       15     1.89   5.03   0.00   0.00   6.92    -0.92
  O       16     1.89   5.03   0.00   0.00   6.92    -0.92
  O       17     1.89   5.03   0.00   0.00   6.92    -0.92
  O       18     1.89   5.03   0.00   0.00   6.92    -0.92
  O       19     1.89   5.03   0.00   0.00   6.92    -0.92
  O       20     1.89   5.03   0.00   0.00   6.92    -0.92
  O       21     1.89   5.03   0.00   0.00   6.92    -0.92
  O       22     1.89   5.03   0.00   0.00   6.92    -0.92
  O       23     1.89   5.03   0.00   0.00   6.92    -0.92
  O       24     1.89   5.03   0.00   0.00   6.92    -0.92
  O       25     1.89   5.03   0.00   0.00   6.92    -0.92
  O       26     1.89   5.03   0.00   0.00   6.92    -0.92
  O       27     1.89   5.03   0.00   0.00   6.92    -0.92
  O       28     1.89   5.03   0.00   0.00   6.92    -0.92
  O       29     1.89   5.03   0.00   0.00   6.92    -0.92
  O       30     1.89   5.03   0.00   0.00   6.92    -0.92
  O       31     1.89   5.03   0.00   0.00   6.92    -0.92
  O       32     1.89   5.03   0.00   0.00   6.92    -0.92
  O       33     1.89   5.03   0.00   0.00   6.92    -0.92
  O       34     1.89   5.03   0.00   0.00   6.92    -0.92
  O       35     1.89   5.03   0.00   0.00   6.92    -0.92
  O       36     1.89   5.03   0.00   0.00   6.92    -0.92
  O       37     1.89   5.03   0.00   0.00   6.92    -0.92
  O       38     1.88   5.03   0.00   0.00   6.92    -0.92
  O       39     1.89   5.03   0.00   0.00   6.92    -0.92
  O       40     1.89   5.03   0.00   0.00   6.92    -0.92
  O       41     1.89   5.03   0.00   0.00   6.92    -0.92
  O       42     1.89   5.03   0.00   0.00   6.92    -0.92
  O       43     1.89   5.03   0.00   0.00   6.92    -0.92
  O       44     1.89   5.03   0.00   0.00   6.92    -0.92
  O       45     1.89   5.03   0.00   0.00   6.92    -0.92
  O       46     1.89   5.03   0.00   0.00   6.92    -0.92
  O       47     1.89   5.03   0.00   0.00   6.92    -0.92
  O       48     1.89   5.03   0.00   0.00   6.92    -0.92
  O       49     1.89   5.03   0.00   0.00   6.92    -0.92
  O       50     1.89   5.03   0.00   0.00   6.92    -0.92
  O       51     1.89   5.03   0.00   0.00   6.92    -0.92
  O       52     1.89   5.03   0.00   0.00   6.92    -0.92
  O       53     1.89   5.03   0.00   0.00   6.92    -0.92
  O       54     1.89   5.03   0.00   0.00   6.92    -0.92
  O       55     1.89   5.03   0.00   0.00   6.92    -0.92
  O       56     1.89   5.03   0.00   0.00   6.92    -0.92
  Sn       1     1.04   1.30  10.00   0.00  12.34     1.66
  Sn       2     1.04   1.30  10.00   0.00  12.34     1.66
  Sn       3     1.04   1.30  10.00   0.00  12.34     1.66
  Sn       4     1.04   1.30  10.00   0.00  12.34     1.66
[...]
  La       2     2.09   6.19   1.20   0.00   9.48     1.52
  La       3     2.09   6.19   1.20   0.00   9.48     1.52
  La       4     2.09   6.19   1.20   0.00   9.48     1.52
  La       5     2.09   6.19   1.20   0.00   9.48     1.52
  La       6     2.09   6.19   1.20   0.00   9.48     1.52
  La       7     2.09   6.19   1.20   0.00   9.48     1.52
  La       8     2.09   6.19   1.20   0.00   9.48     1.52
  La       9     2.09   6.19   1.20   0.00   9.48     1.52
  La      10     2.09   6.19   1.20   0.00   9.48     1.52
  La      11     2.09   6.19   1.20   0.00   9.48     1.52
  La      12     2.09   6.19   1.20   0.00   9.48     1.52
  La      13     2.09   6.19   1.20   0.00   9.48     1.52
  La      14     2.09   6.19   1.20   0.00   9.48     1.52
  La      15     2.09   6.19   1.20   0.00   9.48     1.52
  La      16     2.09   6.19   1.20   0.00   9.48     1.52

            Bond              Population      Length (A)
         O 50 -- Sn 12             0.33        2.11189
         O 9  -- Sn 14             0.33        2.11189
         O 13 -- Sn 12             0.33        2.11189
         O 52 -- Sn 14             0.33        2.11189
         O 41 -- Sn 4              0.33        2.11189
         O 34 -- Sn 4              0.33        2.11189
         O 54 -- Sn 9              0.33        2.11189
         O 40 -- Sn 3              0.33        2.11189
         O 48 -- Sn 11             0.33        2.11189
         O 36 -- Sn 3              0.33        2.11189
         O 56 -- Sn 10             0.33        2.11189
         O 43 -- Sn 2              0.33        2.11189
         O 29 -- Sn 5              0.33        2.11189
         O 22 -- Sn 10             0.33        2.11189
         O 16 -- Sn 6              0.33        2.11189
         O 26 -- Sn 7              0.33        2.11189
         O 27 -- Sn 15             0.33        2.11189
         O 45 -- Sn 15             0.33        2.11190
         O 12 -- Sn 7              0.33        2.11190
         O 32 -- Sn 11             0.33        2.11190
         O 23 -- Sn 6              0.33        2.11190
         O 20 -- Sn 5              0.33        2.11190
         O 38 -- Sn 2              0.33        2.11190
         O 17 -- Sn 9              0.33        2.11190
         O 22 -- Sn 13             0.33        2.11195
         O 45 -- Sn 1              0.33        2.11195
         O 32 -- Sn 16             0.33        2.11195
         O 17 -- Sn 16             0.33        2.11195
         O 12 -- Sn 13             0.33        2.11195
         O 20 -- Sn 8              0.33        2.11195
         O 38 -- Sn 8              0.33        2.11195
         O 27 -- Sn 8              0.33        2.11195
         O 26 -- Sn 16             0.33        2.11195
         O 56 -- Sn 1              0.33        2.11195
         O 16 -- Sn 16             0.33        2.11195
         O 13 -- Sn 13             0.33        2.11195
         O 23 -- Sn 8              0.33        2.11195
         O 54 -- Sn 1              0.33        2.11195
         O 34 -- Sn 13             0.33        2.11195
         O 52 -- Sn 1              0.33        2.11195
         O 50 -- Sn 1              0.33        2.11195
         O 9  -- Sn 8              0.33        2.11195
         O 40 -- Sn 8              0.33        2.11195
         O 41 -- Sn 16             0.33        2.11195
         O 43 -- Sn 13             0.33        2.11195
         O 29 -- Sn 13             0.33        2.11195
         O 48 -- Sn 1              0.33        2.11195
         O 36 -- Sn 16             0.33        2.11195
         O 21 -- Sn 7              0.33        2.11197
         O 35 -- Sn 2              0.33        2.11197
         O 42 -- Sn 12             0.33        2.11197
         O 11 -- Sn 10             0.33        2.11197
         O 55 -- Sn 7              0.33        2.11197
         O 33 -- Sn 3              0.33        2.11197
         O 51 -- Sn 6              0.33        2.11197
         O 10 -- Sn 9              0.33        2.11197
         O 15 -- Sn 11             0.33        2.11197
         O 46 -- Sn 5              0.33        2.11197
         O 31 -- Sn 6              0.33        2.11197
         O 14 -- Sn 14             0.33        2.11197
[...]
         O 27 -- O 40             -0.05        2.80464
         O 38 -- O 40             -0.05        2.80464
         O 54 -- O 56             -0.05        2.80464
         O 34 -- O 43             -0.05        2.80464
         O 9  -- O 23             -0.05        2.80464
         O 32 -- O 41             -0.05        2.80464
         O 45 -- O 50             -0.05        2.80464
         O 9  -- O 38             -0.05        2.80464
         O 17 -- O 36             -0.05        2.80464
         O 52 -- O 56             -0.05        2.80464
         O 13 -- O 29             -0.05        2.80464
         O 36 -- O 41             -0.05        2.80464
         O 48 -- O 52             -0.05        2.80464
         O 13 -- O 34             -0.05        2.80464
         O 48 -- O 50             -0.05        2.80464

Writing analysis data to La2Sn2O7.castep_bin

Writing model to La2Sn2O7.check

 A BibTeX formatted list of references used in this run has been written to
 La2Sn2O7.bib

Initialisation time =     41.74 s
Calculation time    =  31252.95 s
Finalisation time   =     33.49 s
Total time          =  31328.17 s

Overall parallel efficiency rating: Good (78%)

Data was distributed by:-
G-vector (4-way); efficiency rating: Good (79%)
k-point (14-way); efficiency rating: Excellent (97%)