 Run started: Tue, 29 Mar 2022 10:37:21 -0100
 |           N   N    M   M    RRRR                |
 |           NN  N    MM MM    R   R               |
 |           N N N    M M M    RRRR                |
 |           N  NN    M   M    R  R                |
 |           N   N    M   M    R   R               |
 | Welcome to Materials Studio CASTEP-NMR          |
 | Authors:                                        |
 | J.R. Yates, C.J. Pickard, F. Mauri              |
 | Contributors:                                   |
 | T.F.G. Green, S.A. Joyce                        |
 | Copyright (c) 2004 - 2015                       |
 | Please cite the appropriate publications in all |
 | work arising from your use of CASTEP NMR.       |
 | For NMR Shielding Tensors cite:                 |
 |    "All-electron magnetic response with         |
 |    pseudopotentials: NMR chemical shifts",      |
 |    C. J. Pickard, F. Mauri;                     |
 |    Physical Review B63 245101 (2001), and       |
 |    "Calculation of NMR Chemical Shifts          |
 |    for extended systems using                   |
 |    Ultrasoft Pseudopotentials",                 |
 |    J. R. Yates, C. J. Pickard and F. Mauri      |
 |    Physical Review B76 024401 (2007)            |
 | For Electric Field Gradients cite:              |
 |   "Accurate First Principles Prediction of 17O  |
 |    NMR Parameters in SiO2: Assignment of the    |
 |    Zeolite Ferrierite Spectrum"                 |
 |    M. Profeta, F. Mauri and C. J. Pickard       |
 |    J. Amer. Chem. Soc. 125 541 (2003)           |
 | For Spin-Spin (J) Couplings cite:               |
 |   "A first principles theory of NMR J-coupling  |
 |   in solid-state systems"                       |
 |   S.A. Joyce, J.R. Yates, C.J. Pickard, F. Mauri|
 |   J. Chem. Phys. 127 204107 (2007)              |
 |   "Relativistic NMR J-coupling with ultrasoft   |
 |   pseudopotentials and the zeroth-order regular |
 |   approximation"                                |
 |   T.F.G. Green and J.R. Yates                   |
 |   J. Chem. Phys. 140 234106 (2014)              |

 Atomic calculation performed for O: 1s2 2s2 2p4

 Converged in 44 iterations to an ae energy of -2040.855 eV

 Atomic calculation performed for O: 1s2 2s2 2p4

 Exceeded max iterations: converged to 0.000000062 eV

   | Pseudopotential Report - Date of generation 29-03-2022   |
   | Element: O Ionic charge:  6.00 Level of theory: PBE      |
   | Atomic Solver: ZORA (scalar)                             |
   |               Reference Electronic Structure             |
   |         Orbital         Occupation         Energy        |
   |            2s              2.000           -0.881        |
   |            2p              4.000           -0.332        |
   |                 Pseudopotential Definition               |
   |        Beta     l      e      Rc     scheme   norm       |
   |          1      0   -0.881   1.100     qc      0         |
   |          2      0    0.250   1.100     qc      0         |
   |          3      1   -0.332   1.100     qc      0         |
   |          4      1    0.250   1.100     qc      0         |
   |         loc     2    0.000   1.100     pn      0         |
   | Augmentation charge Rinner = 0.769                       |
   | Partial core correction Rc = 0.769                       |
   | "2|1.1|15|18|20|20:21(qc=7)"                             |
   |      Author: Chris J. Pickard, Cambridge University      |

 Atomic calculation performed for Zr: 1s2 2s2 2p6 3s2 3p6 3d10 4s2 4p6 4d2 5s2

[...]

 Atomic calculation performed for Zr: 1s2 2s2 2p6 3s2 3p6 3d10 4s2 4p6 4d2 5s2

[...]

 Warning: ion_atom_descreen_psp: negative charge density encountered
   | Pseudopotential Report - Date of generation 29-03-2022   |
   | Element: Zr Ionic charge: 12.00 Level of theory: PBE     |
   | Atomic Solver: ZORA (scalar)                             |
   |               Reference Electronic Structure             |
   |         Orbital         Occupation         Energy        |
   |            4s              2.000           -2.003        |
   |            4p              6.000           -1.193        |
   |            5s              2.000           -0.163        |
   |            4d              2.000           -0.132        |
   |                 Pseudopotential Definition               |
   |        Beta     l      e      Rc     scheme   norm       |
   |          1      0   -2.003   2.105     qc      0         |
   |          2      0   -0.163   2.105     qc      0         |
   |          3      0    0.250   2.105     qc      0         |
   |          4      1   -1.193   2.105     qc      0         |
   |          5      1    0.250   2.105     qc      0         |
   |          6      2   -0.132   2.105     qc      0         |
   |          7      2    0.250   2.105     qc      0         |
   |         loc     3    0.000   2.105     pn      0         |
   | Augmentation charge Rinner = 1.471                       |
   | Partial core correction Rc = 1.471                       |
   | "3|2.1|7|8|9|40U:50:41:42"                               |
   |      Author: Chris J. Pickard, Cambridge University      |

 Atomic calculation performed for Sn:

[...]

 Atomic calculation performed for Sn:

[...]

   | Pseudopotential Report - Date of generation 29-03-2022   |
   | Element: Sn Ionic charge: 14.00 Level of theory: PBE     |
   | Atomic Solver: ZORA (scalar)                             |
   |               Reference Electronic Structure             |
   |         Orbital         Occupation         Energy        |
   |            4d             10.000           -0.950        |
   |            5s              2.000           -0.388        |
   |            5p              2.000           -0.136        |
   |                 Pseudopotential Definition               |
   |        Beta     l      e      Rc     scheme   norm       |
   |          1      0   -0.388   2.199     qc      0         |
   |          2      0    0.250   2.199     qc      0         |
   |          3      1   -0.136   2.199     qc      0         |
   |          4      1    0.250   2.199     qc      0         |
   |          5      2   -0.950   2.199     qc      0         |
   |          6      2    0.250   2.199     qc      0         |
   |         loc     3    0.000   2.199     pn      0         |
   | Augmentation charge Rinner = 1.537                       |
   | Partial core correction Rc = 1.537                       |
   | "3|2.2|7|8|9|50:51:42"                                   |
   |      Author: Chris J. Pickard, Cambridge University      |

 Atomic calculation performed for La:

 Converged in 55 iterations to an ae energy of -230121.495 eV

 Atomic calculation performed for La:

 Exceeded max iterations: converged to 0.000001134 eV

 Warning: ion_atom_descreen_psp: negative charge density encountered
   | Pseudopotential Report - Date of generation 29-03-2022   |
   | Element: La Ionic charge: 11.00 Level of theory: PBE     |
   | Atomic Solver: ZORA (scalar)                             |
   |               Reference Electronic Structure             |
   |         Orbital         Occupation         Energy        |
   |            5s              2.000           -1.430        |
   |            5p              6.000           -0.823        |
   |            6s              2.000           -0.135        |
   |            5d              1.000           -0.114        |
   |                 Pseudopotential Definition               |
   |        Beta     l      e      Rc     scheme   norm       |
   |          1      0   -1.430   2.298     qc      0         |
   |          2      0   -0.135   2.298     qc      0         |
   |          3      0    0.250   2.298     qc      0         |
   |          4      1   -0.823   2.298     qc      0         |
   |          5      1    0.250   2.298     qc      0         |
   |          6      2   -0.114   2.298     qc      0         |
   |          7      2    0.250   2.298     qc      0         |
   |         loc     2    0.000   2.298     pn      0         |
   | Augmentation charge Rinner = 1.606                       |
   | Partial core correction Rc = 1.606                       |
   | "2|2.3|5|6|7|50U:60:51:52(qc=4.5)"                       |
   |      Author: Chris J. Pickard, Cambridge University      |

 Pseudo atomic calculation performed for O 2s2 2p4

 Converged in 39 iterations to a total energy of -432.6554 eV

 Pseudo atomic calculation performed for Zr 4s2 4p6 4d2 5s2

[...]

 Calculation parallelised over 896 processes.
 Data is distributed by G-vector(64-way) and k-point(14-way)

 ************************************ Title ************************************
 nmr testing

 ***************************** General Parameters ******************************

 output verbosity                               : normal  (1)
 write checkpoint data to                       : 19.check
 type of calculation                            : Magnetic Resonance
 stress calculation                             : on
 density difference calculation                 : off
 electron localisation func (ELF) calculation   : off
 Hirshfeld analysis                             : off
 unlimited duration calculation
 timing information                             : on
 write final potential to formatted file        : off
 write final density to formatted file          : off
 write BibTeX reference list                    : on
 write OTFG pseudopotential files               : on
 checkpoint writing                             : both castep_bin and check files

 output         length unit                     : A
 output           mass unit                     : amu
 output           time unit                     : ps
 output         charge unit                     : e
 output           spin unit                     : hbar/2
 output         energy unit                     : eV
 output          force unit                     : eV/A
 output       velocity unit                     : A/ps
 output       pressure unit                     : GPa
 output     inv_length unit                     : 1/A
 output      frequency unit                     : cm-1
 output force constant unit                     : eV/A**2
 output         volume unit                     : A**3
 output   IR intensity unit                     : (D/A)**2/amu
 output         dipole unit                     : D
 output         efield unit                     : eV/A/e
 output        entropy unit                     : J/mol/K

 wavefunctions paging                           : none
 random number generator seed                   : randomised (103721271)
 data distribution                              : optimal for this architecture
 optimization strategy                          : maximize speed(+++)

 *********************** Exchange-Correlation Parameters ***********************

 using functional                               : Perdew Burke Ernzerhof
 relativistic treatment                         : ZORA
 DFT+D: Semi-empirical dispersion correction    : off

 ************************* Pseudopotential Parameters **************************

[...]
  |    O          42     -161.64     152.85      0.84   1.100E+00   0.68 |
  |    O          43      -84.70      85.04      0.29  -3.209E+00   0.07 |
  |    O          44      -86.98      96.02      0.32  -3.168E+00   0.07 |
  |    O          45      -91.41      86.73      0.16  -3.274E+00   0.12 |
  |    O          46     -163.99     148.87      0.84   1.045E+00   0.65 |
  |    O          47      -87.39      86.06      0.14  -3.171E+00   0.08 |
  |    O          48      -89.36      83.18      0.08  -3.203E+00   0.10 |
  |    O          49      -86.50      87.14      0.10  -3.233E+00   0.07 |
  |    O          50     -161.36     151.54      0.78   1.037E+00   0.70 |
  |    O          51     -160.65     145.40      0.85   1.106E+00   0.61 |
  |    O          52      -86.75      95.44      0.35  -3.157E+00   0.07 |
  |    O          53      -86.50      87.14      0.10  -3.233E+00   0.07 |
  |    O          54     -161.36     151.54      0.78   1.037E+00   0.70 |
  |    O          55      -87.39      86.06      0.14  -3.171E+00   0.08 |
  |    O          56      -89.36      83.17      0.08  -3.203E+00   0.10 |
  |    Zr          1     1614.00    -118.45      0.03  -3.639E+01   0.03 |
  |    Zr          2     1622.11    -124.97      0.18  -3.599E+01   0.16 |
  |    Zr          3     1608.43    -117.73      0.13  -3.545E+01   0.05 |
  |    Zr          4     1608.43    -117.73      0.13  -3.545E+01   0.05 |
[...]
  |    La          2     4600.48     521.62      0.08  -7.768E+01   0.07 |
  |    La          3     4648.98     650.22      0.11  -8.039E+01   0.16 |
  |    La          4     4707.13     760.89      0.03  -8.650E+01   0.08 |
  |    La          5     4648.98     650.22      0.11  -8.039E+01   0.16 |
  |    La          6     4600.48     521.62      0.08  -7.768E+01   0.07 |
  |    La          7     4707.13     760.89      0.03  -8.650E+01   0.08 |
  |    La          8     4608.42     505.88      0.08  -7.816E+01   0.08 |
  |    La          9     4548.67     381.09      0.08  -7.417E+01   0.08 |
  |    La         10     4594.96     549.89      0.12  -7.634E+01   0.20 |
  |    La         11     4594.96     549.89      0.12  -7.634E+01   0.20 |
  |    La         12     4548.67     381.09      0.08  -7.417E+01   0.08 |
  |    La         13     4658.30     660.03      0.08  -8.176E+01   0.13 |
  |    La         14     4614.13     501.59      0.07  -8.047E+01   0.08 |
  |    La         15     4708.80     778.68      0.09  -8.666E+01   0.15 |
  |    La         16     4658.30     660.03      0.08  -8.176E+01   0.13 |

 *********************** Forces ***********************
 *            Cartesian components (eV/A)             *
 *                   x            y            z      *
 * O         1      0.02156      0.00233      0.00233 *
 * O         2     -0.01444     -0.00173     -0.00592 *
 * O         3      0.00706     -0.00686     -0.00686 *
 * O         4     -0.01444     -0.00592     -0.00173 *
 * O         5      0.00447      0.00329      0.00329 *
 * O         6      0.00257      0.00374      0.00374 *
 * O         7      0.00069      0.00038      0.01673 *
 * O         8      0.00069      0.01673      0.00038 *
 * O         9     -0.00816     -0.00285     -0.00285 *
 * O        10      0.01764     -0.01164     -0.00759 *
 * O        11      0.03876      0.00557      0.00557 *
 * O        12     -0.01622      0.00084      0.00468 *
 * O        13      0.02264      0.00559      0.00102 *
 * O        14     -0.00454     -0.00636     -0.01130 *
 * O        15      0.00823      0.01092      0.01992 *
 * O        16      0.01838      0.00161      0.01345 *
 * O        17      0.02264      0.00102      0.00559 *
 * O        18      0.00502     -0.01554     -0.00705 *
 * O        19      0.00823      0.01992      0.01092 *
 * O        20      0.01048      0.01029      0.00055 *
 * O        21      0.01069     -0.01687      0.00112 *
 * O        22     -0.00095      0.02636     -0.00021 *
 * O        23     -0.02212     -0.00143     -0.00460 *
 * O        24     -0.02495     -0.00207     -0.00618 *
 * O        25     -0.01933     -0.00421     -0.00421 *
 * O        26     -0.00811     -0.00815      0.00149 *
 * O        27      0.01313     -0.00484     -0.00484 *
 * O        28     -0.00269     -0.00314      0.01999 *
 * O        29     -0.02264      0.00367     -0.00649 *
 * O        30     -0.02495     -0.00618     -0.00207 *
 * O        31     -0.00025      0.01364      0.00409 *
 * O        32     -0.00095     -0.00021      0.02636 *
 * O        33     -0.00269      0.01999     -0.00314 *
 * O        34     -0.00811      0.00149     -0.00815 *
 * O        35     -0.00025      0.00409      0.01364 *
 * O        36     -0.02264     -0.00649      0.00367 *
 * O        37      0.01069      0.00112     -0.01687 *
 * O        38     -0.02212     -0.00460     -0.00143 *
 * O        39      0.00502     -0.00705     -0.01554 *
 * O        40      0.01048      0.00055      0.01029 *
 * O        41     -0.01622      0.00468      0.00084 *
 * O        42      0.01764     -0.00759     -0.01164 *
 * O        43      0.01838      0.01345      0.00161 *
 * O        44     -0.00454     -0.01130     -0.00636 *
 * O        45      0.03056     -0.01058     -0.01058 *
 * O        46      0.01534      0.00375      0.00375 *
 * O        47      0.02552      0.00279     -0.01051 *
 * O        48     -0.01177     -0.03568      0.01380 *
 * O        49     -0.01748      0.01421     -0.00913 *
 * O        50     -0.00594      0.00706      0.00198 *
 * O        51     -0.01264     -0.00056     -0.00056 *
 * O        52     -0.02062      0.00656      0.00656 *
 * O        53     -0.01748     -0.00913      0.01421 *
 * O        54     -0.00594      0.00198      0.00706 *
 * O        55      0.02552     -0.01051      0.00279 *
 * O        56     -0.01177      0.01380     -0.03568 *
 * Zr        1      0.00193      0.00858      0.00858 *
 * Zr        2     -0.00680      0.00441     -0.00961 *
 * Zr        3      0.02301     -0.00111     -0.00039 *
 * Zr        4      0.02302     -0.00039     -0.00111 *
[...]
 * La        2      0.00744      0.00552      0.00580 *
 * La        3     -0.00480      0.00613     -0.01013 *
 * La        4      0.01859     -0.01344     -0.00211 *
 * La        5     -0.00480     -0.01013      0.00613 *
 * La        6      0.00744      0.00580      0.00552 *
 * La        7      0.01859     -0.00211     -0.01344 *
 * La        8     -0.00496     -0.00601     -0.00601 *
 * La        9      0.01363      0.01391     -0.00254 *
 * La       10     -0.01195     -0.00814     -0.00352 *
 * La       11     -0.01195     -0.00352     -0.00814 *
 * La       12      0.01363     -0.00254      0.01391 *
 * La       13      0.01787      0.00396      0.01772 *
 * La       14     -0.00738      0.01462      0.01462 *
 * La       15     -0.01874      0.00652      0.00652 *
 * La       16      0.01787      0.01772      0.00396 *

 ***************** Stress Tensor *****************
 *          Cartesian components (GPa)           *
 *             x             y             z     *
 *  x      0.005051      0.032316      0.032316  *
 *  y      0.032316     -0.000510      0.022181  *
 *  z      0.032316      0.022181     -0.000510  *
 *  Pressure:   -0.0013                          *

[...]

 Pseudo atomic calculation performed for Sn 4d10 5s2 5p2

[...]

 Pseudo atomic calculation performed for La 5s2 5p6 5d1 6s2

 Converged in 34 iterations to a total energy of -968.0373 eV

Charge spilling parameter for spin component 1 = 0.25%

     Atomic Populations (Mulliken)
Species   Ion     s      p      d      f     Total  Charge (e)
  O        1     1.87   5.00   0.00   0.00   6.87    -0.87
  O        2     1.87   5.00   0.00   0.00   6.87    -0.87
  O        3     1.87   5.00   0.00   0.00   6.87    -0.87
  O        4     1.87   5.00   0.00   0.00   6.87    -0.87
  O        5     1.87   5.00   0.00   0.00   6.87    -0.87
  O        6     1.87   5.00   0.00   0.00   6.87    -0.87
  O        7     1.87   5.00   0.00   0.00   6.87    -0.87
  O        8     1.87   5.00   0.00   0.00   6.87    -0.87
  O        9     1.88   5.03   0.00   0.00   6.91    -0.91
  O       10     1.86   4.95   0.00   0.00   6.80    -0.80
  O       11     1.88   5.02   0.00   0.00   6.91    -0.91
  O       12     1.88   5.02   0.00   0.00   6.91    -0.91
  O       13     1.87   4.99   0.00   0.00   6.86    -0.86
  O       14     1.87   4.99   0.00   0.00   6.86    -0.86
  O       15     1.88   5.02   0.00   0.00   6.91    -0.91
  O       16     1.87   4.99   0.00   0.00   6.86    -0.86
  O       17     1.87   4.99   0.00   0.00   6.86    -0.86
  O       18     1.87   4.99   0.00   0.00   6.86    -0.86
  O       19     1.88   5.02   0.00   0.00   6.91    -0.91
  O       20     1.87   4.99   0.00   0.00   6.86    -0.86
  O       21     1.88   5.03   0.00   0.00   6.91    -0.91
  O       22     1.88   5.02   0.00   0.00   6.91    -0.91
  O       23     1.87   4.99   0.00   0.00   6.86    -0.86
  O       24     1.87   4.99   0.00   0.00   6.86    -0.86
  O       25     1.86   4.95   0.00   0.00   6.80    -0.80
  O       26     1.88   5.03   0.00   0.00   6.91    -0.91
  O       27     1.88   5.03   0.00   0.00   6.91    -0.91
  O       28     1.87   4.99   0.00   0.00   6.86    -0.86
  O       29     1.87   4.99   0.00   0.00   6.86    -0.86
  O       30     1.87   4.99   0.00   0.00   6.86    -0.86
  O       31     1.87   4.99   0.00   0.00   6.86    -0.86
  O       32     1.88   5.02   0.00   0.00   6.91    -0.91
  O       33     1.87   4.99   0.00   0.00   6.86    -0.86
  O       34     1.88   5.03   0.00   0.00   6.91    -0.91
  O       35     1.87   4.99   0.00   0.00   6.86    -0.86
  O       36     1.87   4.99   0.00   0.00   6.86    -0.86
  O       37     1.88   5.03   0.00   0.00   6.91    -0.91
  O       38     1.87   4.99   0.00   0.00   6.86    -0.86
  O       39     1.87   4.99   0.00   0.00   6.86    -0.86
  O       40     1.87   4.99   0.00   0.00   6.86    -0.86
  O       41     1.88   5.02   0.00   0.00   6.91    -0.91
  O       42     1.86   4.95   0.00   0.00   6.80    -0.80
  O       43     1.87   4.99   0.00   0.00   6.86    -0.86
  O       44     1.87   4.99   0.00   0.00   6.86    -0.86
  O       45     1.87   4.99   0.00   0.00   6.86    -0.86
  O       46     1.86   4.95   0.00   0.00   6.80    -0.80
  O       47     1.87   4.99   0.00   0.00   6.86    -0.86
  O       48     1.87   4.99   0.00   0.00   6.86    -0.86
  O       49     1.87   4.99   0.00   0.00   6.86    -0.86
  O       50     1.86   4.95   0.00   0.00   6.80    -0.80
  O       51     1.86   4.95   0.00   0.00   6.80    -0.80
  O       52     1.87   4.99   0.00   0.00   6.86    -0.86
  O       53     1.87   4.99   0.00   0.00   6.86    -0.86
  O       54     1.86   4.95   0.00   0.00   6.80    -0.80
  O       55     1.87   4.99   0.00   0.00   6.86    -0.86
  O       56     1.87   4.99   0.00   0.00   6.86    -0.86
  Zr       1     2.37   6.49   1.92   0.00  10.78     1.22
  Zr       2     2.37   6.49   1.92   0.00  10.77     1.23
  Zr       3     2.37   6.50   1.92   0.00  10.79     1.21
  Zr       4     2.37   6.50   1.92   0.00  10.79     1.21
[...]
  La       2     2.09   6.18   1.19   0.00   9.47     1.53
  La       3     2.07   6.17   1.19   0.00   9.43     1.57
  La       4     2.02   6.16   1.19   0.00   9.37     1.63
  La       5     2.07   6.17   1.19   0.00   9.43     1.57
  La       6     2.09   6.18   1.19   0.00   9.47     1.53
  La       7     2.02   6.16   1.19   0.00   9.37     1.63
  La       8     2.07   6.19   1.19   0.00   9.45     1.55
  La       9     2.12   6.20   1.19   0.00   9.51     1.49
  La      10     2.08   6.18   1.20   0.00   9.45     1.55
  La      11     2.08   6.18   1.20   0.00   9.45     1.55
  La      12     2.12   6.20   1.19   0.00   9.51     1.49
  La      13     2.04   6.17   1.19   0.00   9.41     1.59
  La      14     2.07   6.20   1.19   0.00   9.45     1.55
  La      15     2.02   6.16   1.20   0.00   9.38     1.62
  La      16     2.04   6.17   1.19   0.00   9.41     1.59

            Bond              Population      Length (A)
         O 45 -- Sn 8              0.34        2.09895
         O 39 -- Sn 1              0.35        2.10113
         O 18 -- Sn 2              0.35        2.10113
         O 49 -- Sn 1              0.35        2.10130
         O 53 -- Sn 2              0.35        2.10130
         O 29 -- Sn 6              0.35        2.10163
         O 36 -- Sn 9              0.35        2.10163
         O 56 -- Sn 4              0.35        2.10178
         O 48 -- Sn 5              0.35        2.10178
         O 44 -- Sn 7              0.34        2.10336
         O 14 -- Sn 7              0.34        2.10336
         O 38 -- Sn 3              0.35        2.10377
         O 23 -- Sn 3              0.35        2.10377
         O 43 -- Sn 6              0.35        2.10441
         O 16 -- Sn 9              0.35        2.10441
         O 20 -- Sn 3              0.35        2.10532
         O 40 -- Sn 3              0.35        2.10532
         O 24 -- Sn 7              0.34        2.10532
         O 30 -- Sn 7              0.34        2.10532
         O 9  -- Sn 7              0.34        2.10646
         O 17 -- Sn 9              0.34        2.10710
         O 13 -- Sn 6              0.34        2.10710
         O 33 -- Sn 5              0.34        2.10752
         O 28 -- Sn 4              0.34        2.10752
         O 52 -- Sn 7              0.34        2.10773
         O 34 -- Sn 6              0.33        2.10811
         O 26 -- Sn 9              0.33        2.10811
         O 55 -- Sn 2              0.34        2.10820
         O 47 -- Sn 1              0.34        2.10820
         O 31 -- Sn 8              0.34        2.10854
         O 35 -- Sn 8              0.34        2.10854
         O 9  -- Sn 3              0.33        2.10952
         O 26 -- Sn 2              0.33        2.11070
         O 34 -- Sn 1              0.33        2.11070
         O 27 -- Sn 8              0.34        2.11126
         O 19 -- Sn 4              0.33        2.11141
         O 15 -- Sn 5              0.33        2.11141
         O 32 -- Sn 5              0.34        2.11142
         O 22 -- Sn 4              0.34        2.11142
         O 37 -- Sn 4              0.33        2.11199
         O 21 -- Sn 5              0.33        2.11199
         O 10 -- Zr 5              0.41        2.11243
         O 42 -- Zr 2              0.41        2.11243
         O 42 -- Zr 7              0.41        2.11271
         O 10 -- Zr 6              0.41        2.11271
         O 19 -- Sn 8              0.34        2.11324
         O 15 -- Sn 8              0.34        2.11324
         O 37 -- Sn 1              0.34        2.11341
         O 21 -- Sn 2              0.34        2.11341
         O 32 -- Sn 9              0.33        2.11502
         O 22 -- Sn 6              0.33        2.11502
         O 12 -- Sn 6              0.33        2.11536
         O 41 -- Sn 9              0.33        2.11536
         O 27 -- Sn 3              0.32        2.11580
         O 51 -- Zr 2              0.41        2.11599
         O 51 -- Zr 5              0.41        2.11599
         O 44 -- Zr 3              0.45        2.11630
         O 14 -- Zr 4              0.45        2.11630
         O 11 -- Sn 4              0.34        2.11692
         O 11 -- Sn 5              0.34        2.11692
[...]
         O 51 -- O 55             -0.03        2.82836
         O 48 -- O 52             -0.03        2.82849
         O 52 -- O 56             -0.03        2.82849
         O 38 -- O 42             -0.03        2.82884
         O 10 -- O 23             -0.03        2.82884
         O 43 -- O 51             -0.03        2.82963
         O 16 -- O 51             -0.03        2.82963
         O 17 -- O 25             -0.03        2.83080
         O 13 -- O 25             -0.03        2.83080
         O 48 -- O 50             -0.03        2.83193
         O 54 -- O 56             -0.03        2.83193
         O 35 -- O 43             -0.03        2.83236
         O 16 -- O 31             -0.03        2.83236
         O 33 -- O 40             -0.03        2.83550
         O 20 -- O 28             -0.03        2.83550

Writing analysis data to 19.castep_bin

Writing model to 19.check

 A BibTeX formatted list of references used in this run has been written to
 19.bib

Initialisation time =     25.46 s
Calculation time    =   2698.66 s
Finalisation time   =      8.94 s
Total time          =   2733.06 s

Overall parallel efficiency rating: Good (74%)

Data was distributed by:-
G-vector (64-way); efficiency rating: Good (75%)
k-point (14-way); efficiency rating: Excellent (97%)