 Run started: Tue, 29 Mar 2022 10:59:06 -0100
 |           N   N    M   M    RRRR                |
 |           NN  N    MM MM    R   R               |
 |           N N N    M M M    RRRR                |
 |           N  NN    M   M    R  R                |
 |           N   N    M   M    R   R               |
 | Welcome to Materials Studio CASTEP-NMR          |
 | Authors:                                        |
 | J.R. Yates, C.J. Pickard, F. Mauri              |
 | Contributors:                                   |
 | T.F.G. Green, S.A. Joyce                        |
 | Copyright (c) 2004 - 2015                       |
 | Please cite the appropriate publications in all |
 | work arising from your use of CASTEP NMR.       |
 | For NMR Shielding Tensors cite:                 |
 |    "All-electron magnetic response with         |
 |    pseudopotentials: NMR chemical shifts",      |
 |    C. J. Pickard, F. Mauri;                     |
 |    Physical Review B63 245101 (2001), and       |
 |    "Calculation of NMR Chemical Shifts          |
 |    for extended systems using                   |
 |    Ultrasoft Pseudopotentials",                 |
 |    J. R. Yates, C. J. Pickard and F. Mauri      |
 |    Physical Review B76 024401 (2007)            |
 | For Electric Field Gradients cite:              |
 |   "Accurate First Principles Prediction of 17O  |
 |    NMR Parameters in SiO2: Assignment of the    |
 |    Zeolite Ferrierite Spectrum"                 |
 |    M. Profeta, F. Mauri and C. J. Pickard       |
 |    J. Amer. Chem. Soc. 125 541 (2003)           |
 | For Spin-Spin (J) Couplings cite:               |
 |   "A first principles theory of NMR J-coupling  |
 |   in solid-state systems"                       |
 |   S.A. Joyce, J.R. Yates, C.J. Pickard, F. Mauri|
 |   J. Chem. Phys. 127 204107 (2007)              |
 |   "Relativistic NMR J-coupling with ultrasoft   |
 |   pseudopotentials and the zeroth-order regular |
 |   approximation"                                |
 |   T.F.G. Green and J.R. Yates                   |
 |   J. Chem. Phys. 140 234106 (2014)              |

 Atomic calculation performed for O: 1s2 2s2 2p4

 Converged in 44 iterations to an ae energy of -2040.855 eV

[...]

 Exceeded max iterations: converged to 0.000000062 eV

   | Pseudopotential Report - Date of generation 29-03-2022   |
   | Element: O Ionic charge:  6.00 Level of theory: PBE      |
   | Atomic Solver: ZORA (scalar)                             |
   |               Reference Electronic Structure             |
   |         Orbital         Occupation         Energy        |
   |            2s              2.000           -0.881        |
   |            2p              4.000           -0.332        |
   |                 Pseudopotential Definition               |
   |        Beta     l      e      Rc     scheme   norm       |
   |          1      0   -0.881   1.100     qc      0         |
   |          2      0    0.250   1.100     qc      0         |
   |          3      1   -0.332   1.100     qc      0         |
   |          4      1    0.250   1.100     qc      0         |
   |         loc     2    0.000   1.100     pn      0         |
   | Augmentation charge Rinner = 0.769                       |
   | Partial core correction Rc = 0.769                       |
   | "2|1.1|15|18|20|20:21(qc=7)"                             |
   |      Author: Chris J. Pickard, Cambridge University      |

 Atomic calculation performed for Zr: 1s2 2s2 2p6 3s2 3p6 3d10 4s2 4p6 4d2 5s2

[...]

 Warning: ion_atom_descreen_psp: negative charge density encountered
   | Pseudopotential Report - Date of generation 29-03-2022   |
   | Element: Zr Ionic charge: 12.00 Level of theory: PBE     |
   | Atomic Solver: ZORA (scalar)                             |
   |               Reference Electronic Structure             |
   |         Orbital         Occupation         Energy        |
   |            4s              2.000           -2.003        |
   |            4p              6.000           -1.193        |
   |            5s              2.000           -0.163        |
   |            4d              2.000           -0.132        |
   |                 Pseudopotential Definition               |
   |        Beta     l      e      Rc     scheme   norm       |
   |          1      0   -2.003   2.105     qc      0         |
   |          2      0   -0.163   2.105     qc      0         |
   |          3      0    0.250   2.105     qc      0         |
   |          4      1   -1.193   2.105     qc      0         |
   |          5      1    0.250   2.105     qc      0         |
   |          6      2   -0.132   2.105     qc      0         |
   |          7      2    0.250   2.105     qc      0         |
   |         loc     3    0.000   2.105     pn      0         |
   | Augmentation charge Rinner = 1.471                       |
   | Partial core correction Rc = 1.471                       |
   | "3|2.1|7|8|9|40U:50:41:42"                               |
   |      Author: Chris J. Pickard, Cambridge University      |

 Atomic calculation performed for Sn:

[...]

   | Pseudopotential Report - Date of generation 29-03-2022   |
   | Element: Sn Ionic charge: 14.00 Level of theory: PBE     |
   | Atomic Solver: ZORA (scalar)                             |
   |               Reference Electronic Structure             |
   |         Orbital         Occupation         Energy        |
   |            4d             10.000           -0.950        |
   |            5s              2.000           -0.388        |
   |            5p              2.000           -0.136        |
   |                 Pseudopotential Definition               |
   |        Beta     l      e      Rc     scheme   norm       |
   |          1      0   -0.388   2.199     qc      0         |
   |          2      0    0.250   2.199     qc      0         |
   |          3      1   -0.136   2.199     qc      0         |
   |          4      1    0.250   2.199     qc      0         |
   |          5      2   -0.950   2.199     qc      0         |
   |          6      2    0.250   2.199     qc      0         |
   |         loc     3    0.000   2.199     pn      0         |
   | Augmentation charge Rinner = 1.537                       |
   | Partial core correction Rc = 1.537                       |
   | "3|2.2|7|8|9|50:51:42"                                   |
   |      Author: Chris J. Pickard, Cambridge University      |

 Atomic calculation performed for La:

[...]

 Warning: ion_atom_descreen_psp: negative charge density encountered
   | Pseudopotential Report - Date of generation 29-03-2022   |
   | Element: La Ionic charge: 11.00 Level of theory: PBE     |
   | Atomic Solver: ZORA (scalar)                             |
   |               Reference Electronic Structure             |
   |         Orbital         Occupation         Energy        |
   |            5s              2.000           -1.430        |
   |            5p              6.000           -0.823        |
   |            6s              2.000           -0.135        |
   |            5d              1.000           -0.114        |
   |                 Pseudopotential Definition               |
   |        Beta     l      e      Rc     scheme   norm       |
   |          1      0   -1.430   2.298     qc      0         |
   |          2      0   -0.135   2.298     qc      0         |
   |          3      0    0.250   2.298     qc      0         |
   |          4      1   -0.823   2.298     qc      0         |
   |          5      1    0.250   2.298     qc      0         |
   |          6      2   -0.114   2.298     qc      0         |
   |          7      2    0.250   2.298     qc      0         |
   |         loc     2    0.000   2.298     pn      0         |
   | Augmentation charge Rinner = 1.606                       |
   | Partial core correction Rc = 1.606                       |
   | "2|2.3|5|6|7|50U:60:51:52(qc=4.5)"                       |
   |      Author: Chris J. Pickard, Cambridge University      |

 Pseudo atomic calculation performed for O 2s2 2p4

 Converged in 39 iterations to a total energy of -432.6554 eV

 Pseudo atomic calculation performed for Zr 4s2 4p6 4d2 5s2

[...]

 Calculation parallelised over 896 processes.
 Data is distributed by G-vector(64-way) and k-point(14-way)

 ************************************ Title ************************************
 nmr testing

 ***************************** General Parameters ******************************

 output verbosity                               : normal  (1)
 write checkpoint data to                       : 32.check
 type of calculation                            : Magnetic Resonance
 stress calculation                             : on
 density difference calculation                 : off
 electron localisation func (ELF) calculation   : off
 Hirshfeld analysis                             : off
 unlimited duration calculation
 timing information                             : on
 write final potential to formatted file        : off
 write final density to formatted file          : off
 write BibTeX reference list                    : on
 write OTFG pseudopotential files               : on
 checkpoint writing                             : both castep_bin and check files

 output         length unit                     : A
 output           mass unit                     : amu
 output           time unit                     : ps
 output         charge unit                     : e
 output           spin unit                     : hbar/2
 output         energy unit                     : eV
 output          force unit                     : eV/A
 output       velocity unit                     : A/ps
 output       pressure unit                     : GPa
 output     inv_length unit                     : 1/A
 output      frequency unit                     : cm-1
 output force constant unit                     : eV/A**2
 output         volume unit                     : A**3
 output   IR intensity unit                     : (D/A)**2/amu
 output         dipole unit                     : D
 output         efield unit                     : eV/A/e
 output        entropy unit                     : J/mol/K

 wavefunctions paging                           : none
 random number generator seed                   : randomised (105906885)
 data distribution                              : optimal for this architecture
 optimization strategy                          : maximize speed(+++)

 *********************** Exchange-Correlation Parameters ***********************

 using functional                               : Perdew Burke Ernzerhof
 relativistic treatment                         : ZORA
 DFT+D: Semi-empirical dispersion correction    : off

 ************************* Pseudopotential Parameters **************************

 pseudopotential representation                 : reciprocal space
 <beta|phi> representation                      : reciprocal space
 spin-orbit coupling                            : off

 **************************** Basis Set Parameters *****************************

[...]
  |    O          39      -18.26     -42.87      0.61   3.830E+00   0.92 |
  |    O          40     -162.98     159.66      0.77   1.017E+00   0.89 |
  |    O          41      -18.96     -39.01      0.83   3.871E+00   0.88 |
  |    O          42      -89.62      79.35      0.28  -3.218E+00   0.12 |
  |    O          43      -83.08      86.56      0.16  -3.212E+00   0.07 |
  |    O          44      -82.89      83.19      0.27  -3.122E+00   0.08 |
  |    O          45     -161.18     156.03      0.83   1.100E+00   0.66 |
  |    O          46     -160.98     154.06      0.78   1.064E+00   0.68 |
  |    O          47      -20.01      40.30      0.73   3.915E+00   0.84 |
  |    O          48      -91.86      90.57      0.29  -3.124E+00   0.09 |
  |    O          49      -90.99      76.43      0.08  -3.238E+00   0.10 |
  |    O          50      -91.96      93.06      0.24  -3.190E+00   0.10 |
  |    O          51      -84.59      83.38      0.12  -3.170E+00   0.07 |
  |    O          52      -89.12      92.01      0.27  -3.186E+00   0.08 |
  |    O          53     -164.13     163.69      0.80   1.034E+00   0.87 |
  |    O          54      -88.61      83.35      0.17  -3.204E+00   0.07 |
  |    O          55     -161.96     159.73      0.83   1.075E+00   0.75 |
  |    O          56      -86.41      85.42      0.28  -3.165E+00   0.07 |
  |    Zr          1     1609.00    -116.71      0.07  -3.570E+01   0.13 |
  |    Zr          2     1629.66    -124.81      0.07  -3.701E+01   0.17 |
  |    Zr          3     1628.79    -125.82      0.22  -3.728E+01   0.02 |
  |    Zr          4     1614.15    -119.14      0.18  -3.651E+01   0.15 |
[...]
  |    La          2     4609.20     520.59      0.06  -7.905E+01   0.11 |
  |    La          3     4660.21     622.46      0.01  -8.291E+01   0.01 |
  |    La          4     4698.72     767.03      0.04  -8.328E+01   0.07 |
  |    La          5     4655.27     653.88      0.09  -8.194E+01   0.16 |
  |    La          6     4656.45     646.90      0.00  -8.261E+01   0.02 |
  |    La          7     4655.87     653.04      0.08  -8.189E+01   0.16 |
  |    La          8     4559.42     380.49      0.06  -7.563E+01   0.09 |
  |    La          9     4698.15     760.75      0.04  -8.288E+01   0.09 |
  |    La         10     4654.65     628.88      0.00  -8.180E+01   0.03 |
  |    La         11     4551.16     391.26      0.06  -7.466E+01   0.13 |
  |    La         12     4654.49     626.37      0.01  -8.155E+01   0.01 |
  |    La         13     4602.25     528.22      0.09  -7.799E+01   0.13 |
  |    La         14     4549.27     385.90      0.07  -7.467E+01   0.12 |
  |    La         15     4606.23     504.20      0.07  -7.845E+01   0.09 |
  |    La         16     4651.30     660.51      0.10  -8.058E+01   0.16 |

 *********************** Forces ***********************
 *            Cartesian components (eV/A)             *
 *                   x            y            z      *
 * O         1      0.01158     -0.00838     -0.00330 *
 * O         2     -0.00229     -0.01596     -0.00324 *
 * O         3     -0.00105      0.01243      0.00160 *
 * O         4     -0.00241      0.00708     -0.00101 *
 * O         5     -0.01239      0.00703     -0.01233 *
 * O         6     -0.00848     -0.00746      0.00429 *
 * O         7      0.01182     -0.00197      0.01132 *
 * O         8      0.01449     -0.00738     -0.00527 *
 * O         9      0.00035     -0.00522     -0.01599 *
 * O        10     -0.00298     -0.00658     -0.00896 *
 * O        11      0.02812      0.01102      0.00480 *
 * O        12      0.00706      0.00538      0.01114 *
 * O        13      0.00854     -0.02791     -0.00528 *
 * O        14     -0.00268      0.00134     -0.00937 *
 * O        15     -0.00013     -0.00631      0.00566 *
 * O        16     -0.00681      0.00270      0.00398 *
 * O        17     -0.00252     -0.00374     -0.00339 *
 * O        18     -0.01615     -0.00101     -0.01258 *
 * O        19      0.00355      0.02060     -0.01837 *
 * O        20     -0.01120      0.00459     -0.00478 *
 * O        21      0.01235      0.00855      0.00061 *
 * O        22      0.01320      0.00298     -0.00381 *
 * O        23      0.00363     -0.00886      0.01944 *
 * O        24     -0.00339     -0.01461     -0.00079 *
 * O        25     -0.01257     -0.00124     -0.01455 *
 * O        26     -0.00448     -0.01982     -0.00430 *
 * O        27      0.00492     -0.00015      0.00022 *
 * O        28      0.02049      0.00945      0.01282 *
 * O        29     -0.00672      0.00197     -0.00804 *
 * O        30     -0.01270     -0.00228     -0.00466 *
 * O        31      0.01910     -0.00050     -0.00084 *
 * O        32      0.00257     -0.00911      0.03248 *
 * O        33      0.01522      0.01081      0.00826 *
 * O        34      0.01861     -0.00136      0.00678 *
 * O        35      0.00956     -0.00727      0.00826 *
 * O        36     -0.02546     -0.01345      0.00081 *
 * O        37      0.00550      0.01285     -0.01669 *
 * O        38      0.00209     -0.00007      0.00692 *
 * O        39     -0.00805      0.01063     -0.00501 *
 * O        40     -0.00858      0.00030      0.01562 *
 * O        41     -0.00766     -0.00157      0.00127 *
 * O        42     -0.01487     -0.00477     -0.01274 *
 * O        43      0.00153      0.01103      0.00521 *
 * O        44      0.00046     -0.02232     -0.00668 *
 * O        45     -0.00809      0.01286     -0.00640 *
 * O        46      0.00297      0.00290      0.01686 *
 * O        47      0.00332      0.00802     -0.00811 *
 * O        48      0.00430      0.00016      0.01088 *
 * O        49     -0.01279      0.01399      0.00857 *
 * O        50      0.01211     -0.01772     -0.00595 *
 * O        51      0.00565     -0.01857     -0.00228 *
 * O        52     -0.01304      0.01129      0.00811 *
 * O        53     -0.01595     -0.00900      0.00734 *
 * O        54      0.01864      0.00720     -0.00700 *
 * O        55     -0.00312      0.00271      0.00180 *
 * O        56      0.00703      0.00795     -0.01353 *
 * Zr        1     -0.01175     -0.00568      0.00894 *
 * Zr        2     -0.01276     -0.00584     -0.00227 *
 * Zr        3      0.01273      0.01290      0.00655 *
 * Zr        4      0.00993      0.00760     -0.00164 *
[...]
 * La        2      0.01345      0.00996     -0.00041 *
 * La        3     -0.00621     -0.00644     -0.01048 *
 * La        4     -0.01487      0.00002      0.00476 *
 * La        5     -0.01523     -0.01705      0.01162 *
 * La        6      0.02093     -0.02230      0.02217 *
 * La        7     -0.00023     -0.00149     -0.00241 *
 * La        8      0.00160     -0.00995      0.00019 *
 * La        9      0.00914      0.00169     -0.00810 *
 * La       10     -0.01346      0.00879      0.00036 *
 * La       11     -0.00622      0.00296     -0.00783 *
 * La       12      0.00013      0.02277     -0.00765 *
 * La       13     -0.00377      0.01705      0.01036 *
 * La       14      0.01311     -0.01330     -0.01745 *
 * La       15     -0.00303      0.00441      0.00881 *
 * La       16     -0.01783     -0.01434     -0.02129 *

 ***************** Stress Tensor *****************
 *          Cartesian components (GPa)           *
 *             x             y             z     *
 *  x      0.004666      0.002732     -0.005643  *
 *  y      0.002732      0.029113      0.000972  *
 *  z     -0.005643      0.000972     -0.050698  *
 *  Pressure:    0.0056                          *

[...]

 Pseudo atomic calculation performed for Sn 4d10 5s2 5p2

[...]

 Pseudo atomic calculation performed for La 5s2 5p6 5d1 6s2

 Converged in 30 iterations to a total energy of -968.0373 eV

Charge spilling parameter for spin component 1 = 0.25%

     Atomic Populations (Mulliken)
Species   Ion     s      p      d      f     Total  Charge (e)
  O        1     1.87   5.00   0.00   0.00   6.87    -0.87
  O        2     1.87   5.00   0.00   0.00   6.87    -0.87
  O        3     1.87   5.00   0.00   0.00   6.87    -0.87
  O        4     1.87   5.00   0.00   0.00   6.87    -0.87
  O        5     1.87   5.00   0.00   0.00   6.87    -0.87
  O        6     1.87   5.00   0.00   0.00   6.87    -0.87
  O        7     1.87   5.00   0.00   0.00   6.87    -0.87
  O        8     1.87   5.00   0.00   0.00   6.87    -0.87
  O        9     1.87   4.99   0.00   0.00   6.86    -0.86
  O       10     1.88   5.03   0.00   0.00   6.91    -0.91
  O       11     1.88   5.02   0.00   0.00   6.91    -0.91
  O       12     1.87   4.99   0.00   0.00   6.86    -0.86
  O       13     1.88   5.02   0.00   0.00   6.91    -0.91
  O       14     1.87   4.99   0.00   0.00   6.86    -0.86
  O       15     1.87   4.99   0.00   0.00   6.86    -0.86
  O       16     1.88   5.03   0.00   0.00   6.91    -0.91
  O       17     1.88   5.03   0.00   0.00   6.91    -0.91
  O       18     1.87   4.99   0.00   0.00   6.86    -0.86
  O       19     1.87   4.99   0.00   0.00   6.86    -0.86
  O       20     1.86   4.95   0.00   0.00   6.80    -0.80
  O       21     1.87   4.99   0.00   0.00   6.86    -0.86
  O       22     1.88   5.03   0.00   0.00   6.91    -0.91
  O       23     1.87   4.99   0.00   0.00   6.86    -0.86
  O       24     1.88   5.03   0.00   0.00   6.91    -0.91
  O       25     1.88   5.02   0.00   0.00   6.91    -0.91
  O       26     1.87   4.99   0.00   0.00   6.86    -0.86
  O       27     1.86   4.95   0.00   0.00   6.80    -0.80
  O       28     1.87   4.99   0.00   0.00   6.86    -0.86
  O       29     1.87   4.99   0.00   0.00   6.86    -0.86
  O       30     1.88   5.03   0.00   0.00   6.91    -0.91
  O       31     1.87   4.99   0.00   0.00   6.86    -0.86
  O       32     1.88   5.02   0.00   0.00   6.91    -0.91
  O       33     1.87   4.99   0.00   0.00   6.86    -0.86
  O       34     1.88   5.02   0.00   0.00   6.91    -0.91
  O       35     1.86   4.95   0.00   0.00   6.80    -0.80
  O       36     1.87   4.99   0.00   0.00   6.86    -0.86
  O       37     1.88   5.02   0.00   0.00   6.91    -0.91
  O       38     1.86   4.95   0.00   0.00   6.80    -0.80
  O       39     1.88   5.02   0.00   0.00   6.91    -0.91
  O       40     1.86   4.95   0.00   0.00   6.80    -0.80
  O       41     1.88   5.03   0.00   0.00   6.91    -0.91
  O       42     1.87   4.99   0.00   0.00   6.86    -0.86
  O       43     1.87   4.99   0.00   0.00   6.86    -0.86
  O       44     1.87   4.99   0.00   0.00   6.86    -0.86
  O       45     1.86   4.95   0.00   0.00   6.80    -0.80
  O       46     1.86   4.95   0.00   0.00   6.80    -0.80
  O       47     1.88   5.03   0.00   0.00   6.91    -0.91
  O       48     1.87   4.99   0.00   0.00   6.86    -0.86
  O       49     1.87   4.99   0.00   0.00   6.86    -0.86
  O       50     1.87   4.99   0.00   0.00   6.86    -0.86
  O       51     1.87   4.99   0.00   0.00   6.86    -0.86
  O       52     1.87   4.99   0.00   0.00   6.86    -0.86
  O       53     1.86   4.95   0.00   0.00   6.80    -0.80
  O       54     1.87   4.99   0.00   0.00   6.86    -0.86
  O       55     1.86   4.95   0.00   0.00   6.80    -0.80
  O       56     1.87   4.99   0.00   0.00   6.86    -0.86
  Zr       1     2.37   6.50   1.92   0.00  10.79     1.21
  Zr       2     2.37   6.48   1.92   0.00  10.77     1.23
  Zr       3     2.37   6.48   1.92   0.00  10.77     1.23
  Zr       4     2.37   6.49   1.92   0.00  10.78     1.22
[...]
  La       2     2.09   6.18   1.19   0.00   9.46     1.54
  La       3     2.06   6.18   1.19   0.00   9.43     1.57
  La       4     2.03   6.16   1.20   0.00   9.38     1.62
  La       5     2.07   6.17   1.19   0.00   9.43     1.57
  La       6     2.04   6.17   1.19   0.00   9.41     1.59
  La       7     2.07   6.17   1.19   0.00   9.43     1.57
  La       8     2.11   6.20   1.19   0.00   9.50     1.50
  La       9     2.04   6.16   1.20   0.00   9.39     1.61
  La      10     2.05   6.18   1.19   0.00   9.42     1.58
  La      11     2.10   6.20   1.19   0.00   9.49     1.51
  La      12     2.05   6.18   1.19   0.00   9.42     1.58
  La      13     2.08   6.18   1.19   0.00   9.45     1.55
  La      14     2.10   6.20   1.19   0.00   9.50     1.50
  La      15     2.09   6.19   1.19   0.00   9.47     1.53
  La      16     2.05   6.17   1.19   0.00   9.42     1.58

            Bond              Population      Length (A)
         O 52 -- Sn 8              0.35        2.09884
         O 29 -- Sn 7              0.35        2.09891
         O 15 -- Sn 5              0.35        2.10089
         O 43 -- Sn 7              0.35        2.10197
         O 28 -- Sn 4              0.34        2.10202
         O 21 -- Sn 5              0.35        2.10204
         O 16 -- Sn 9              0.34        2.10258
         O 33 -- Sn 5              0.34        2.10301
         O 36 -- Sn 9              0.35        2.10340
         O 49 -- Sn 1              0.35        2.10391
         O 50 -- Sn 6              0.34        2.10430
         O 9  -- Sn 8              0.35        2.10458
         O 42 -- Sn 6              0.34        2.10542
         O 19 -- Sn 4              0.34        2.10563
         O 16 -- Sn 2              0.34        2.10579
         O 18 -- Sn 6              0.34        2.10580
         O 54 -- Sn 3              0.35        2.10596
         O 10 -- Sn 2              0.34        2.10696
         O 30 -- Sn 6              0.34        2.10696
         O 30 -- Sn 8              0.34        2.10715
         O 10 -- Sn 3              0.34        2.10727
         O 22 -- Sn 4              0.34        2.10754
         O 47 -- Sn 1              0.34        2.10756
         O 56 -- Sn 4              0.34        2.10781
         O 44 -- Sn 8              0.34        2.10795
         O 47 -- Sn 2              0.34        2.10801
         O 12 -- Sn 7              0.34        2.10804
         O 17 -- Sn 3              0.34        2.10806
         O 23 -- Sn 2              0.34        2.10841
         O 26 -- Sn 9              0.34        2.10862
         O 53 -- Zr 5              0.42        2.10902
         O 41 -- Sn 9              0.34        2.10963
         O 48 -- Sn 5              0.34        2.10965
         O 31 -- Sn 2              0.34        2.11041
         O 55 -- Zr 5              0.42        2.11092
         O 51 -- Sn 2              0.34        2.11113
         O 39 -- Sn 1              0.34        2.11161
         O 45 -- Zr 1              0.42        2.11220
         O 41 -- Sn 1              0.33        2.11246
         O 24 -- Sn 8              0.33        2.11253
         O 22 -- Sn 7              0.33        2.11255
         O 55 -- Zr 2              0.41        2.11268
         O 14 -- Sn 8              0.34        2.11313
         O 24 -- Sn 3              0.33        2.11348
         O 45 -- Zr 7              0.41        2.11360
         O 27 -- Zr 7              0.42        2.11365
         O 40 -- Zr 3              0.43        2.11383
         O 37 -- Sn 1              0.33        2.11437
         O 25 -- Sn 3              0.33        2.11468
         O 17 -- Sn 9              0.33        2.11473
         O 28 -- Zr 4              0.44        2.11477
         O 34 -- Sn 7              0.34        2.11480
         O 38 -- Zr 2              0.42        2.11490
         O 37 -- Sn 4              0.34        2.11499
         O 35 -- Zr 2              0.42        2.11504
         O 40 -- Zr 6              0.43        2.11515
         O 38 -- Zr 6              0.42        2.11523
         O 53 -- Zr 3              0.42        2.11527
         O 11 -- Sn 4              0.34        2.11530
         O 11 -- Sn 5              0.33        2.11557
[...]
         O 36 -- O 46             -0.03        2.82805
         O 31 -- O 45             -0.03        2.82937
         O 33 -- O 44             -0.03        2.82974
         O 18 -- O 21             -0.03        2.83071
         O 20 -- O 23             -0.03        2.83185
         O 9  -- O 38             -0.03        2.83204
         O 35 -- O 43             -0.03        2.83228
         O 54 -- O 56             -0.03        2.83419
         O 12 -- O 21             -0.03        2.83452
         O 15 -- O 31             -0.03        2.83524
         O 14 -- O 29             -0.03        2.83578
         O 18 -- O 26             -0.03        2.83661
         O 43 -- O 51             -0.03        2.83697
         O 9  -- O 23             -0.03        2.83840
         O 36 -- O 44             -0.03        2.84066

Initialisation time =     25.14 s
Calculation time    =   2730.14 s
Finalisation time   =      0.12 s
Total time          =   2755.40 s

Overall parallel efficiency rating: Good (73%)

Data was distributed by:-
G-vector (64-way); efficiency rating: Good (75%)
k-point (14-way); efficiency rating: Excellent (96%)