 Run started: Tue, 29 Mar 2022 12:12:48 -0100
 |           N   N    M   M    RRRR                |
 |           NN  N    MM MM    R   R               |
 |           N N N    M M M    RRRR                |
 |           N  NN    M   M    R  R                |
 |           N   N    M   M    R   R               |
 | Welcome to Materials Studio CASTEP-NMR          |
 | Authors:                                        |
 | J.R. Yates, C.J. Pickard, F. Mauri              |
 | Contributors:                                   |
 | T.F.G. Green, S.A. Joyce                        |
 | Copyright (c) 2004 - 2015                       |
 | Please cite the appropriate publications in all |
 | work arising from your use of CASTEP NMR.       |
 | For NMR Shielding Tensors cite:                 |
 |    "All-electron magnetic response with         |
 |    pseudopotentials: NMR chemical shifts",      |
 |    C. J. Pickard, F. Mauri;                     |
 |    Physical Review B63 245101 (2001), and       |
 |    "Calculation of NMR Chemical Shifts          |
 |    for extended systems using                   |
 |    Ultrasoft Pseudopotentials",                 |
 |    J. R. Yates, C. J. Pickard and F. Mauri      |
 |    Physical Review B76 024401 (2007)            |
 | For Electric Field Gradients cite:              |
 |   "Accurate First Principles Prediction of 17O  |
 |    NMR Parameters in SiO2: Assignment of the    |
 |    Zeolite Ferrierite Spectrum"                 |
 |    M. Profeta, F. Mauri and C. J. Pickard       |
 |    J. Amer. Chem. Soc. 125 541 (2003)           |
 | For Spin-Spin (J) Couplings cite:               |
 |   "A first principles theory of NMR J-coupling  |
 |   in solid-state systems"                       |
 |   S.A. Joyce, J.R. Yates, C.J. Pickard, F. Mauri|
 |   J. Chem. Phys. 127 204107 (2007)              |
 |   "Relativistic NMR J-coupling with ultrasoft   |
 |   pseudopotentials and the zeroth-order regular |
 |   approximation"                                |
 |   T.F.G. Green and J.R. Yates                   |
 |   J. Chem. Phys. 140 234106 (2014)              |

 Atomic calculation performed for O: 1s2 2s2 2p4

 Converged in 44 iterations to an ae energy of -2040.855 eV

 Atomic calculation performed for O: 1s2 2s2 2p4

 Exceeded max iterations: converged to 0.000000062 eV

   | Pseudopotential Report - Date of generation 29-03-2022   |
   | Element: O Ionic charge:  6.00 Level of theory: PBE      |
   | Atomic Solver: ZORA (scalar)                             |
   |               Reference Electronic Structure             |
   |         Orbital         Occupation         Energy        |
   |            2s              2.000           -0.881        |
   |            2p              4.000           -0.332        |
   |                 Pseudopotential Definition               |
   |        Beta     l      e      Rc     scheme   norm       |
   |          1      0   -0.881   1.100     qc      0         |
   |          2      0    0.250   1.100     qc      0         |
   |          3      1   -0.332   1.100     qc      0         |
   |          4      1    0.250   1.100     qc      0         |
   |         loc     2    0.000   1.100     pn      0         |
   | Augmentation charge Rinner = 0.769                       |
   | Partial core correction Rc = 0.769                       |
   | "2|1.1|15|18|20|20:21(qc=7)"                             |
   |      Author: Chris J. Pickard, Cambridge University      |

 Atomic calculation performed for Zr: 1s2 2s2 2p6 3s2 3p6 3d10 4s2 4p6 4d2 5s2

[...]

 Atomic calculation performed for Zr: 1s2 2s2 2p6 3s2 3p6 3d10 4s2 4p6 4d2 5s2

[...]

 Warning: ion_atom_descreen_psp: negative charge density encountered
   | Pseudopotential Report - Date of generation 29-03-2022   |
   | Element: Zr Ionic charge: 12.00 Level of theory: PBE     |
   | Atomic Solver: ZORA (scalar)                             |
   |               Reference Electronic Structure             |
   |         Orbital         Occupation         Energy        |
   |            4s              2.000           -2.003        |
   |            4p              6.000           -1.193        |
   |            5s              2.000           -0.163        |
   |            4d              2.000           -0.132        |
   |                 Pseudopotential Definition               |
   |        Beta     l      e      Rc     scheme   norm       |
   |          1      0   -2.003   2.105     qc      0         |
   |          2      0   -0.163   2.105     qc      0         |
   |          3      0    0.250   2.105     qc      0         |
   |          4      1   -1.193   2.105     qc      0         |
   |          5      1    0.250   2.105     qc      0         |
   |          6      2   -0.132   2.105     qc      0         |
   |          7      2    0.250   2.105     qc      0         |
   |         loc     3    0.000   2.105     pn      0         |
   | Augmentation charge Rinner = 1.471                       |
   | Partial core correction Rc = 1.471                       |
   | "3|2.1|7|8|9|40U:50:41:42"                               |
   |      Author: Chris J. Pickard, Cambridge University      |

 Atomic calculation performed for Sn:

[...]

 Atomic calculation performed for Sn:

[...]

   | Pseudopotential Report - Date of generation 29-03-2022   |
   | Element: Sn Ionic charge: 14.00 Level of theory: PBE     |
   | Atomic Solver: ZORA (scalar)                             |
   |               Reference Electronic Structure             |
   |         Orbital         Occupation         Energy        |
   |            4d             10.000           -0.950        |
   |            5s              2.000           -0.388        |
   |            5p              2.000           -0.136        |
   |                 Pseudopotential Definition               |
   |        Beta     l      e      Rc     scheme   norm       |
   |          1      0   -0.388   2.199     qc      0         |
   |          2      0    0.250   2.199     qc      0         |
   |          3      1   -0.136   2.199     qc      0         |
   |          4      1    0.250   2.199     qc      0         |
   |          5      2   -0.950   2.199     qc      0         |
   |          6      2    0.250   2.199     qc      0         |
   |         loc     3    0.000   2.199     pn      0         |
   | Augmentation charge Rinner = 1.537                       |
   | Partial core correction Rc = 1.537                       |
   | "3|2.2|7|8|9|50:51:42"                                   |
   |      Author: Chris J. Pickard, Cambridge University      |

 Atomic calculation performed for La:

 Converged in 55 iterations to an ae energy of -230121.495 eV

 Atomic calculation performed for La:

 Exceeded max iterations: converged to 0.000001134 eV

 Warning: ion_atom_descreen_psp: negative charge density encountered
   | Pseudopotential Report - Date of generation 29-03-2022   |
   | Element: La Ionic charge: 11.00 Level of theory: PBE     |
   | Atomic Solver: ZORA (scalar)                             |
   |               Reference Electronic Structure             |
   |         Orbital         Occupation         Energy        |
   |            5s              2.000           -1.430        |
   |            5p              6.000           -0.823        |
   |            6s              2.000           -0.135        |
   |            5d              1.000           -0.114        |
   |                 Pseudopotential Definition               |
   |        Beta     l      e      Rc     scheme   norm       |
   |          1      0   -1.430   2.298     qc      0         |
   |          2      0   -0.135   2.298     qc      0         |
   |          3      0    0.250   2.298     qc      0         |
   |          4      1   -0.823   2.298     qc      0         |
   |          5      1    0.250   2.298     qc      0         |
   |          6      2   -0.114   2.298     qc      0         |
   |          7      2    0.250   2.298     qc      0         |
   |         loc     2    0.000   2.298     pn      0         |
   | Augmentation charge Rinner = 1.606                       |
   | Partial core correction Rc = 1.606                       |
   | "2|2.3|5|6|7|50U:60:51:52(qc=4.5)"                       |
   |      Author: Chris J. Pickard, Cambridge University      |

 Pseudo atomic calculation performed for O 2s2 2p4

 Converged in 39 iterations to a total energy of -432.6554 eV

 Pseudo atomic calculation performed for Zr 4s2 4p6 4d2 5s2

[...]

 Calculation parallelised over 896 processes.
 Data is distributed by G-vector(64-way) and k-point(14-way)

 ************************************ Title ************************************
 nmr testing

 ***************************** General Parameters ******************************

 output verbosity                               : normal  (1)
 write checkpoint data to                       : 57.check
 type of calculation                            : Magnetic Resonance
 stress calculation                             : on
 density difference calculation                 : off
 electron localisation func (ELF) calculation   : off
 Hirshfeld analysis                             : off
 unlimited duration calculation
 timing information                             : on
 write final potential to formatted file        : off
 write final density to formatted file          : off
 write BibTeX reference list                    : off
 write OTFG pseudopotential files               : on
 checkpoint writing                             : off

 output         length unit                     : A
 output           mass unit                     : amu
 output           time unit                     : ps
 output         charge unit                     : e
 output           spin unit                     : hbar/2
 output         energy unit                     : eV
 output          force unit                     : eV/A
 output       velocity unit                     : A/ps
 output       pressure unit                     : GPa
 output     inv_length unit                     : 1/A
 output      frequency unit                     : cm-1
 output force constant unit                     : eV/A**2
 output         volume unit                     : A**3
 output   IR intensity unit                     : (D/A)**2/amu
 output         dipole unit                     : D
 output         efield unit                     : eV/A/e
 output        entropy unit                     : J/mol/K

 wavefunctions paging                           : none
 random number generator seed                   : randomised (121248720)
 data distribution                              : optimal for this architecture
 optimization strategy                          : maximize speed(+++)

 *********************** Exchange-Correlation Parameters ***********************

 using functional                               : Perdew Burke Ernzerhof
 relativistic treatment                         : ZORA
 DFT+D: Semi-empirical dispersion correction    : off

 ************************* Pseudopotential Parameters **************************

[...]
  |    O          39      -18.46     -43.35      0.61   3.822E+00   0.92 |
  |    O          40     -163.66     160.10      0.77   1.018E+00   0.88 |
  |    O          41      -22.67      39.46      0.71   3.900E+00   0.83 |
  |    O          42      -92.40      78.58      0.20  -3.210E+00   0.11 |
  |    O          43      -87.68      89.03      0.10  -3.199E+00   0.06 |
  |    O          44      -84.71      84.20      0.28  -3.181E+00   0.10 |
  |    O          45     -159.72     154.64      0.78   1.095E+00   0.65 |
  |    O          46     -159.26     147.83      0.79   1.089E+00   0.59 |
  |    O          47      -19.29      37.84      0.68   3.936E+00   0.84 |
  |    O          48     -162.17     149.79      0.80   1.022E+00   0.73 |
  |    O          49      -91.27      78.30      0.08  -3.215E+00   0.09 |
  |    O          50      -89.99      77.04      0.21  -3.244E+00   0.12 |
  |    O          51      -85.55      84.35      0.19  -3.113E+00   0.04 |
  |    O          52      -88.52      94.65      0.24  -3.231E+00   0.09 |
  |    O          53      -87.99      77.96      0.04  -3.245E+00   0.11 |
  |    O          54      -89.10      83.96      0.14  -3.181E+00   0.08 |
  |    O          55      -87.08      86.78      0.27  -3.212E+00   0.08 |
  |    O          56      -84.79      84.39      0.26  -3.129E+00   0.06 |
  |    Zr          1     1614.35    -119.11      0.15  -3.646E+01   0.13 |
  |    Zr          2     1614.86    -118.86      0.12  -3.610E+01   0.12 |
  |    Zr          3     1628.87    -125.01      0.10  -3.720E+01   0.13 |
  |    Zr          4     1614.74    -116.78      0.14  -3.621E+01   0.13 |
[...]
  |    La          2     4601.49     524.03      0.09  -7.748E+01   0.12 |
  |    La          3     4660.77     621.42      0.01  -8.286E+01   0.01 |
  |    La          4     4747.50     871.89      0.05  -8.706E+01   0.08 |
  |    La          5     4599.21     510.62      0.09  -7.684E+01   0.10 |
  |    La          6     4655.60     652.64      0.09  -8.218E+01   0.15 |
  |    La          7     4656.65     656.47      0.08  -8.211E+01   0.16 |
  |    La          8     4559.87     385.24      0.06  -7.609E+01   0.10 |
  |    La          9     4644.27     636.91      0.00  -7.842E+01   0.02 |
  |    La         10     4607.54     509.60      0.08  -7.891E+01   0.08 |
  |    La         11     4551.93     391.82      0.07  -7.429E+01   0.13 |
  |    La         12     4702.41     755.49      0.04  -8.448E+01   0.09 |
  |    La         13     4649.53     638.73      0.01  -8.066E+01   0.04 |
  |    La         14     4609.39     543.82      0.07  -7.954E+01   0.20 |
  |    La         15     4614.75     501.51      0.07  -7.993E+01   0.09 |
  |    La         16     4650.85     662.08      0.10  -8.089E+01   0.15 |

 *********************** Forces ***********************
 *            Cartesian components (eV/A)             *
 *                   x            y            z      *
 * O         1      0.01055     -0.01340     -0.00088 *
 * O         2     -0.00279     -0.00371     -0.00160 *
 * O         3     -0.00663      0.01703      0.00209 *
 * O         4     -0.00178      0.01054     -0.00704 *
 * O         5     -0.02067      0.00442     -0.00786 *
 * O         6     -0.01463     -0.01295      0.00203 *
 * O         7      0.02102     -0.00599      0.00302 *
 * O         8      0.01412     -0.01142     -0.00419 *
 * O         9      0.00586     -0.00757     -0.01824 *
 * O        10     -0.00132     -0.00517     -0.00755 *
 * O        11      0.00426      0.01101     -0.00635 *
 * O        12     -0.00495      0.00841      0.00451 *
 * O        13      0.00569     -0.01688      0.00057 *
 * O        14     -0.00410      0.00366     -0.00834 *
 * O        15      0.00225      0.00585      0.00424 *
 * O        16      0.00137     -0.00068     -0.00814 *
 * O        17      0.00250     -0.01032     -0.01834 *
 * O        18     -0.00715      0.00155      0.00735 *
 * O        19      0.00339      0.01738     -0.01447 *
 * O        20     -0.01661     -0.00017     -0.01311 *
 * O        21      0.00404      0.00524      0.01204 *
 * O        22     -0.00140      0.00571      0.00417 *
 * O        23      0.01018     -0.00658      0.02126 *
 * O        24     -0.00353     -0.01393     -0.00673 *
 * O        25     -0.02868      0.00662     -0.01051 *
 * O        26      0.02685     -0.01141     -0.00236 *
 * O        27      0.00106     -0.00331      0.01183 *
 * O        28      0.01275      0.00824      0.01054 *
 * O        29     -0.01186      0.00603      0.00032 *
 * O        30     -0.01089     -0.00264      0.00024 *
 * O        31      0.01369     -0.00920      0.01175 *
 * O        32      0.00383     -0.01783      0.00087 *
 * O        33      0.00155      0.00979      0.00252 *
 * O        34      0.01614      0.00112      0.00814 *
 * O        35      0.01459     -0.00697      0.00500 *
 * O        36     -0.01982     -0.01267     -0.00635 *
 * O        37     -0.00447      0.01049     -0.00537 *
 * O        38     -0.00176      0.01280      0.00964 *
 * O        39     -0.00904      0.01170     -0.00546 *
 * O        40      0.00756     -0.00049     -0.00139 *
 * O        41      0.00364     -0.00162     -0.01022 *
 * O        42     -0.01588     -0.00193     -0.01078 *
 * O        43     -0.00405      0.01199     -0.00289 *
 * O        44      0.00949     -0.01653     -0.01162 *
 * O        45     -0.00187      0.01437     -0.00238 *
 * O        46      0.01123     -0.01317      0.01513 *
 * O        47      0.00600      0.00185     -0.00917 *
 * O        48      0.01371     -0.00356     -0.01319 *
 * O        49     -0.01243      0.01127      0.00972 *
 * O        50      0.00437     -0.01654      0.01240 *
 * O        51     -0.00928     -0.01204      0.00244 *
 * O        52     -0.01731      0.00717      0.01695 *
 * O        53     -0.01592     -0.00169      0.02082 *
 * O        54      0.02646      0.01213     -0.00524 *
 * O        55     -0.00095     -0.01221     -0.00104 *
 * O        56      0.00497      0.00182     -0.00886 *
 * Zr        1     -0.01683      0.00221      0.00348 *
 * Zr        2     -0.01416     -0.01742     -0.00061 *
 * Zr        3      0.00137      0.01175      0.01675 *
 * Zr        4      0.01819      0.00482      0.00083 *
[...]
 * La        2      0.02050      0.01161     -0.01080 *
 * La        3     -0.00801     -0.00836     -0.01236 *
 * La        4     -0.02050     -0.00377      0.00518 *
 * La        5     -0.01750     -0.02413      0.01741 *
 * La        6      0.02431     -0.02442      0.02187 *
 * La        7     -0.01364      0.00486      0.00190 *
 * La        8      0.00779     -0.01346     -0.00044 *
 * La        9      0.01772      0.00592     -0.00567 *
 * La       10     -0.02269      0.01346     -0.01125 *
 * La       11     -0.01508     -0.00150      0.00019 *
 * La       12      0.00994      0.02184     -0.00180 *
 * La       13     -0.00544      0.01095      0.00673 *
 * La       14      0.01757     -0.01354     -0.01197 *
 * La       15      0.00604     -0.00039     -0.00025 *
 * La       16     -0.02981     -0.02135     -0.01896 *

 ***************** Stress Tensor *****************
 *          Cartesian components (GPa)           *
 *             x             y             z     *
 *  x     -0.022687      0.001504     -0.033053  *
 *  y      0.001504     -0.002857     -0.006702  *
 *  z     -0.033053     -0.006702     -0.003667  *
 *  Pressure:    0.0097                          *

[...]

 Pseudo atomic calculation performed for Sn 4d10 5s2 5p2

[...]

 Pseudo atomic calculation performed for La 5s2 5p6 5d1 6s2

 Converged in 34 iterations to a total energy of -968.0373 eV

Charge spilling parameter for spin component 1 = 0.25%

     Atomic Populations (Mulliken)
Species   Ion     s      p      d      f     Total  Charge (e)
  O        1     1.87   5.00   0.00   0.00   6.87    -0.87
  O        2     1.87   5.00   0.00   0.00   6.87    -0.87
  O        3     1.87   5.00   0.00   0.00   6.87    -0.87
  O        4     1.87   5.00   0.00   0.00   6.87    -0.87
  O        5     1.87   5.00   0.00   0.00   6.87    -0.87
  O        6     1.87   5.00   0.00   0.00   6.87    -0.87
  O        7     1.87   5.00   0.00   0.00   6.87    -0.87
  O        8     1.87   5.00   0.00   0.00   6.87    -0.87
  O        9     1.87   4.99   0.00   0.00   6.86    -0.86
  O       10     1.88   5.03   0.00   0.00   6.91    -0.91
  O       11     1.87   4.99   0.00   0.00   6.86    -0.86
  O       12     1.88   5.03   0.00   0.00   6.91    -0.91
  O       13     1.88   5.02   0.00   0.00   6.91    -0.91
  O       14     1.87   4.99   0.00   0.00   6.85    -0.85
  O       15     1.86   4.95   0.00   0.00   6.80    -0.80
  O       16     1.88   5.03   0.00   0.00   6.91    -0.91
  O       17     1.88   5.03   0.00   0.00   6.91    -0.91
  O       18     1.88   5.02   0.00   0.00   6.91    -0.91
  O       19     1.87   4.99   0.00   0.00   6.86    -0.86
  O       20     1.86   4.95   0.00   0.00   6.80    -0.80
  O       21     1.87   4.99   0.00   0.00   6.86    -0.86
  O       22     1.88   5.03   0.00   0.00   6.91    -0.91
  O       23     1.87   4.99   0.00   0.00   6.86    -0.86
  O       24     1.88   5.03   0.00   0.00   6.91    -0.91
  O       25     1.88   5.02   0.00   0.00   6.91    -0.91
  O       26     1.88   5.02   0.00   0.00   6.91    -0.91
  O       27     1.86   4.95   0.00   0.00   6.80    -0.80
  O       28     1.87   4.99   0.00   0.00   6.86    -0.86
  O       29     1.87   4.99   0.00   0.00   6.86    -0.86
  O       30     1.88   5.03   0.00   0.00   6.91    -0.91
  O       31     1.87   4.99   0.00   0.00   6.86    -0.86
  O       32     1.87   4.99   0.00   0.00   6.86    -0.86
  O       33     1.86   4.95   0.00   0.00   6.80    -0.80
  O       34     1.88   5.02   0.00   0.00   6.91    -0.91
  O       35     1.86   4.95   0.00   0.00   6.80    -0.80
  O       36     1.87   4.99   0.00   0.00   6.86    -0.86
  O       37     1.88   5.03   0.00   0.00   6.91    -0.91
  O       38     1.86   4.95   0.00   0.00   6.80    -0.80
  O       39     1.88   5.02   0.00   0.00   6.91    -0.91
  O       40     1.86   4.95   0.00   0.00   6.80    -0.80
  O       41     1.88   5.03   0.00   0.00   6.91    -0.91
  O       42     1.87   4.99   0.00   0.00   6.86    -0.86
  O       43     1.87   4.99   0.00   0.00   6.86    -0.86
  O       44     1.87   4.99   0.00   0.00   6.86    -0.86
  O       45     1.86   4.95   0.00   0.00   6.80    -0.80
  O       46     1.86   4.95   0.00   0.00   6.80    -0.80
  O       47     1.88   5.03   0.00   0.00   6.91    -0.91
  O       48     1.86   4.95   0.00   0.00   6.80    -0.80
  O       49     1.87   4.99   0.00   0.00   6.86    -0.86
  O       50     1.87   4.99   0.00   0.00   6.86    -0.86
  O       51     1.87   4.99   0.00   0.00   6.86    -0.86
  O       52     1.87   4.99   0.00   0.00   6.86    -0.86
  O       53     1.87   4.99   0.00   0.00   6.86    -0.86
  O       54     1.87   4.99   0.00   0.00   6.86    -0.86
  O       55     1.87   4.99   0.00   0.00   6.86    -0.86
  O       56     1.87   4.99   0.00   0.00   6.86    -0.86
  Zr       1     2.37   6.49   1.92   0.00  10.78     1.22
  Zr       2     2.36   6.49   1.92   0.00  10.77     1.23
  Zr       3     2.37   6.48   1.92   0.00  10.77     1.23
  Zr       4     2.36   6.49   1.92   0.00  10.77     1.23
[...]
  La       2     2.10   6.18   1.19   0.00   9.47     1.53
  La       3     2.06   6.18   1.19   0.00   9.43     1.57
  La       4     2.00   6.15   1.20   0.00   9.34     1.66
  La       5     2.10   6.18   1.19   0.00   9.48     1.52
  La       6     2.04   6.18   1.19   0.00   9.41     1.59
  La       7     2.05   6.17   1.19   0.00   9.41     1.59
  La       8     2.11   6.20   1.19   0.00   9.50     1.50
  La       9     2.07   6.16   1.19   0.00   9.43     1.57
  La      10     2.07   6.19   1.19   0.00   9.46     1.54
  La      11     2.12   6.19   1.19   0.00   9.51     1.49
  La      12     2.03   6.16   1.20   0.00   9.38     1.62
  La      13     2.06   6.17   1.19   0.00   9.43     1.57
  La      14     2.07   6.18   1.19   0.00   9.45     1.55
  La      15     2.08   6.19   1.19   0.00   9.47     1.53
  La      16     2.05   6.17   1.20   0.00   9.42     1.58

            Bond              Population      Length (A)
         O 52 -- Sn 8              0.35        2.09613
         O 28 -- Sn 5              0.35        2.09919
         O 55 -- Sn 3              0.35        2.10093
         O 50 -- Sn 6              0.34        2.10180
         O 43 -- Sn 7              0.35        2.10211
         O 29 -- Sn 7              0.35        2.10217
         O 16 -- Sn 9              0.34        2.10238
         O 53 -- Sn 3              0.34        2.10271
         O 36 -- Sn 9              0.35        2.10336
         O 9  -- Sn 8              0.35        2.10342
         O 21 -- Sn 3              0.35        2.10364
         O 54 -- Sn 4              0.35        2.10443
         O 16 -- Sn 2              0.34        2.10561
         O 42 -- Sn 6              0.34        2.10569
         O 49 -- Sn 1              0.35        2.10570
         O 31 -- Sn 2              0.34        2.10589
         O 19 -- Sn 5              0.34        2.10602
         O 47 -- Sn 2              0.34        2.10632
         O 47 -- Sn 1              0.34        2.10648
         O 11 -- Sn 5              0.35        2.10780
         O 44 -- Sn 8              0.34        2.10784
         O 23 -- Sn 2              0.34        2.10791
         O 30 -- Sn 8              0.34        2.10800
         O 10 -- Sn 4              0.34        2.10813
         O 22 -- Sn 5              0.34        2.10893
         O 10 -- Sn 2              0.34        2.10926
         O 32 -- Sn 9              0.34        2.10937
         O 27 -- Zr 7              0.42        2.10937
         O 30 -- Sn 6              0.33        2.10940
         O 33 -- Zr 6              0.42        2.10978
         O 22 -- Sn 7              0.33        2.10981
         O 37 -- Sn 1              0.34        2.11001
         O 17 -- Sn 4              0.34        2.11004
         O 41 -- Sn 1              0.33        2.11013
         O 33 -- Zr 3              0.41        2.11055
         O 18 -- Sn 3              0.34        2.11078
         O 56 -- Sn 5              0.34        2.11113
         O 12 -- Sn 7              0.33        2.11151
         O 41 -- Sn 9              0.33        2.11158
         O 37 -- Sn 5              0.33        2.11162
         O 24 -- Sn 4              0.34        2.11186
         O 45 -- Zr 1              0.43        2.11275
         O 18 -- Sn 6              0.33        2.11277
         O 15 -- Zr 6              0.43        2.11298
         O 27 -- Zr 5              0.42        2.11325
         O 17 -- Sn 9              0.34        2.11326
         O 35 -- Zr 2              0.43        2.11363
         O 40 -- Zr 3              0.43        2.11368
         O 39 -- Sn 1              0.34        2.11389
         O 13 -- Sn 6              0.34        2.11391
         O 28 -- Zr 4              0.43        2.11410
         O 39 -- Sn 4              0.33        2.11420
         O 24 -- Sn 8              0.33        2.11444
         O 14 -- Sn 8              0.34        2.11460
         O 51 -- Sn 2              0.34        2.11485
         O 40 -- Zr 5              0.43        2.11543
         O 52 -- Zr 1              0.43        2.11563
         O 12 -- Sn 3              0.33        2.11565
         O 15 -- Zr 7              0.42        2.11603
         O 13 -- Sn 7              0.33        2.11609
[...]
         O 46 -- O 53             -0.03        2.82793
         O 29 -- O 46             -0.03        2.82845
         O 35 -- O 43             -0.03        2.82849
         O 45 -- O 54             -0.03        2.82919
         O 20 -- O 23             -0.03        2.83180
         O 9  -- O 38             -0.03        2.83238
         O 36 -- O 46             -0.03        2.83280
         O 51 -- O 55             -0.03        2.83526
         O 14 -- O 29             -0.03        2.83556
         O 54 -- O 56             -0.03        2.83631
         O 36 -- O 44             -0.03        2.83645
         O 43 -- O 51             -0.03        2.83658
         O 11 -- O 21             -0.03        2.83928
         O 9  -- O 23             -0.03        2.83930
         O 11 -- O 32             -0.03        2.83931

Initialisation time =     25.15 s
Calculation time    =   2743.74 s
Finalisation time   =      0.12 s
Total time          =   2769.02 s

Overall parallel efficiency rating: Good (75%)

Data was distributed by:-
G-vector (64-way); efficiency rating: Good (75%)
k-point (14-way); efficiency rating: Excellent (98%)