 Run started: Tue, 29 Mar 2022 12:40:51 -0100
 |           N   N    M   M    RRRR                |
 |           NN  N    MM MM    R   R               |
 |           N N N    M M M    RRRR                |
 |           N  NN    M   M    R  R                |
 |           N   N    M   M    R   R               |
 | Welcome to Materials Studio CASTEP-NMR          |
 | Authors:                                        |
 | J.R. Yates, C.J. Pickard, F. Mauri              |
 | Contributors:                                   |
 | T.F.G. Green, S.A. Joyce                        |
 | Copyright (c) 2004 - 2015                       |
 | Please cite the appropriate publications in all |
 | work arising from your use of CASTEP NMR.       |
 | For NMR Shielding Tensors cite:                 |
 |    "All-electron magnetic response with         |
 |    pseudopotentials: NMR chemical shifts",      |
 |    C. J. Pickard, F. Mauri;                     |
 |    Physical Review B63 245101 (2001), and       |
 |    "Calculation of NMR Chemical Shifts          |
 |    for extended systems using                   |
 |    Ultrasoft Pseudopotentials",                 |
 |    J. R. Yates, C. J. Pickard and F. Mauri      |
 |    Physical Review B76 024401 (2007)            |
 | For Electric Field Gradients cite:              |
 |   "Accurate First Principles Prediction of 17O  |
 |    NMR Parameters in SiO2: Assignment of the    |
 |    Zeolite Ferrierite Spectrum"                 |
 |    M. Profeta, F. Mauri and C. J. Pickard       |
 |    J. Amer. Chem. Soc. 125 541 (2003)           |
 | For Spin-Spin (J) Couplings cite:               |
 |   "A first principles theory of NMR J-coupling  |
 |   in solid-state systems"                       |
 |   S.A. Joyce, J.R. Yates, C.J. Pickard, F. Mauri|
 |   J. Chem. Phys. 127 204107 (2007)              |
 |   "Relativistic NMR J-coupling with ultrasoft   |
 |   pseudopotentials and the zeroth-order regular |
 |   approximation"                                |
 |   T.F.G. Green and J.R. Yates                   |
 |   J. Chem. Phys. 140 234106 (2014)              |

 Atomic calculation performed for O: 1s2 2s2 2p4

 Converged in 44 iterations to an ae energy of -2040.855 eV

[...]

 Exceeded max iterations: converged to 0.000000062 eV

   | Pseudopotential Report - Date of generation 29-03-2022   |
   | Element: O Ionic charge:  6.00 Level of theory: PBE      |
   | Atomic Solver: ZORA (scalar)                             |
   |               Reference Electronic Structure             |
   |         Orbital         Occupation         Energy        |
   |            2s              2.000           -0.881        |
   |            2p              4.000           -0.332        |
   |                 Pseudopotential Definition               |
   |        Beta     l      e      Rc     scheme   norm       |
   |          1      0   -0.881   1.100     qc      0         |
   |          2      0    0.250   1.100     qc      0         |
   |          3      1   -0.332   1.100     qc      0         |
   |          4      1    0.250   1.100     qc      0         |
   |         loc     2    0.000   1.100     pn      0         |
   | Augmentation charge Rinner = 0.769                       |
   | Partial core correction Rc = 0.769                       |
   | "2|1.1|15|18|20|20:21(qc=7)"                             |
   |      Author: Chris J. Pickard, Cambridge University      |

 Atomic calculation performed for Zr: 1s2 2s2 2p6 3s2 3p6 3d10 4s2 4p6 4d2 5s2

[...]

 Warning: ion_atom_descreen_psp: negative charge density encountered
   | Pseudopotential Report - Date of generation 29-03-2022   |
   | Element: Zr Ionic charge: 12.00 Level of theory: PBE     |
   | Atomic Solver: ZORA (scalar)                             |
   |               Reference Electronic Structure             |
   |         Orbital         Occupation         Energy        |
   |            4s              2.000           -2.003        |
   |            4p              6.000           -1.193        |
   |            5s              2.000           -0.163        |
   |            4d              2.000           -0.132        |
   |                 Pseudopotential Definition               |
   |        Beta     l      e      Rc     scheme   norm       |
   |          1      0   -2.003   2.105     qc      0         |
   |          2      0   -0.163   2.105     qc      0         |
   |          3      0    0.250   2.105     qc      0         |
   |          4      1   -1.193   2.105     qc      0         |
   |          5      1    0.250   2.105     qc      0         |
   |          6      2   -0.132   2.105     qc      0         |
   |          7      2    0.250   2.105     qc      0         |
   |         loc     3    0.000   2.105     pn      0         |
   | Augmentation charge Rinner = 1.471                       |
   | Partial core correction Rc = 1.471                       |
   | "3|2.1|7|8|9|40U:50:41:42"                               |
   |      Author: Chris J. Pickard, Cambridge University      |

 Atomic calculation performed for Sn:

[...]

   | Pseudopotential Report - Date of generation 29-03-2022   |
   | Element: Sn Ionic charge: 14.00 Level of theory: PBE     |
   | Atomic Solver: ZORA (scalar)                             |
   |               Reference Electronic Structure             |
   |         Orbital         Occupation         Energy        |
   |            4d             10.000           -0.950        |
   |            5s              2.000           -0.388        |
   |            5p              2.000           -0.136        |
   |                 Pseudopotential Definition               |
   |        Beta     l      e      Rc     scheme   norm       |
   |          1      0   -0.388   2.199     qc      0         |
   |          2      0    0.250   2.199     qc      0         |
   |          3      1   -0.136   2.199     qc      0         |
   |          4      1    0.250   2.199     qc      0         |
   |          5      2   -0.950   2.199     qc      0         |
   |          6      2    0.250   2.199     qc      0         |
   |         loc     3    0.000   2.199     pn      0         |
   | Augmentation charge Rinner = 1.537                       |
   | Partial core correction Rc = 1.537                       |
   | "3|2.2|7|8|9|50:51:42"                                   |
   |      Author: Chris J. Pickard, Cambridge University      |

 Atomic calculation performed for La:

[...]

 Warning: ion_atom_descreen_psp: negative charge density encountered
   | Pseudopotential Report - Date of generation 29-03-2022   |
   | Element: La Ionic charge: 11.00 Level of theory: PBE     |
   | Atomic Solver: ZORA (scalar)                             |
   |               Reference Electronic Structure             |
   |         Orbital         Occupation         Energy        |
   |            5s              2.000           -1.430        |
   |            5p              6.000           -0.823        |
   |            6s              2.000           -0.135        |
   |            5d              1.000           -0.114        |
   |                 Pseudopotential Definition               |
   |        Beta     l      e      Rc     scheme   norm       |
   |          1      0   -1.430   2.298     qc      0         |
   |          2      0   -0.135   2.298     qc      0         |
   |          3      0    0.250   2.298     qc      0         |
   |          4      1   -0.823   2.298     qc      0         |
   |          5      1    0.250   2.298     qc      0         |
   |          6      2   -0.114   2.298     qc      0         |
   |          7      2    0.250   2.298     qc      0         |
   |         loc     2    0.000   2.298     pn      0         |
   | Augmentation charge Rinner = 1.606                       |
   | Partial core correction Rc = 1.606                       |
   | "2|2.3|5|6|7|50U:60:51:52(qc=4.5)"                       |
   |      Author: Chris J. Pickard, Cambridge University      |

 Pseudo atomic calculation performed for O 2s2 2p4

 Converged in 39 iterations to a total energy of -432.6554 eV

 Pseudo atomic calculation performed for Zr 4s2 4p6 4d2 5s2

[...]

 Calculation parallelised over 896 processes.
 Data is distributed by G-vector(64-way) and k-point(14-way)

 ************************************ Title ************************************
 nmr testing

 ***************************** General Parameters ******************************

 output verbosity                               : normal  (1)
 write checkpoint data to                       : 63.check
 type of calculation                            : Magnetic Resonance
 stress calculation                             : on
 density difference calculation                 : off
 electron localisation func (ELF) calculation   : off
 Hirshfeld analysis                             : off
 unlimited duration calculation
 timing information                             : on
 write final potential to formatted file        : off
 write final density to formatted file          : off
 write BibTeX reference list                    : off
 write OTFG pseudopotential files               : on
 checkpoint writing                             : off

 output         length unit                     : A
 output           mass unit                     : amu
 output           time unit                     : ps
 output         charge unit                     : e
 output           spin unit                     : hbar/2
 output         energy unit                     : eV
 output          force unit                     : eV/A
 output       velocity unit                     : A/ps
 output       pressure unit                     : GPa
 output     inv_length unit                     : 1/A
 output      frequency unit                     : cm-1
 output force constant unit                     : eV/A**2
 output         volume unit                     : A**3
 output   IR intensity unit                     : (D/A)**2/amu
 output         dipole unit                     : D
 output         efield unit                     : eV/A/e
 output        entropy unit                     : J/mol/K

 wavefunctions paging                           : none
 random number generator seed                   : randomised (124051945)
 data distribution                              : optimal for this architecture
 optimization strategy                          : maximize speed(+++)

 *********************** Exchange-Correlation Parameters ***********************

 using functional                               : Perdew Burke Ernzerhof
 relativistic treatment                         : ZORA
 DFT+D: Semi-empirical dispersion correction    : off

 ************************* Pseudopotential Parameters **************************

 pseudopotential representation                 : reciprocal space
 <beta|phi> representation                      : reciprocal space
 spin-orbit coupling                            : off

 **************************** Basis Set Parameters *****************************

 plane wave basis set cut-off                   :   816.3416   eV
[...]
  |    O          39      -15.98     -43.89      0.60   3.841E+00   0.93 |
  |    O          40     -163.28     147.43      0.74   1.007E+00   0.81 |
  |    O          41      -20.80     -41.16      0.82   3.851E+00   0.88 |
  |    O          42      -93.40      87.26      0.14  -3.227E+00   0.13 |
  |    O          43      -84.98      86.27      0.08  -3.233E+00   0.07 |
  |    O          44     -160.84     148.66      0.74   1.035E+00   0.69 |
  |    O          45     -159.56     154.76      0.83   1.127E+00   0.64 |
  |    O          46     -160.61     144.87      0.74   1.060E+00   0.59 |
  |    O          47      -18.65      39.66      0.74   3.914E+00   0.84 |
  |    O          48      -88.30      84.06      0.38  -3.181E+00   0.10 |
  |    O          49      -89.97      81.86      0.05  -3.227E+00   0.09 |
  |    O          50      -87.24      86.08      0.41  -3.195E+00   0.09 |
  |    O          51      -83.31      84.03      0.20  -3.138E+00   0.04 |
  |    O          52     -162.82     159.15      0.82   1.115E+00   0.72 |
  |    O          53      -90.11      81.92      0.13  -3.245E+00   0.11 |
  |    O          54      -87.37      85.19      0.26  -3.184E+00   0.08 |
  |    O          55      -88.38      85.79      0.23  -3.187E+00   0.09 |
  |    O          56      -86.91      85.82      0.36  -3.192E+00   0.10 |
  |    Zr          1     1623.27    -124.77      0.11  -3.611E+01   0.25 |
  |    Zr          2     1615.59    -119.05      0.12  -3.616E+01   0.09 |
  |    Zr          3     1609.58    -112.29      0.01  -3.752E+01   0.01 |
  |    Zr          4     1610.22    -111.42      0.08  -3.736E+01   0.05 |
[...]
  |    La          2     4655.69     631.20      0.01  -8.159E+01   0.02 |
  |    La          3     4660.40     621.91      0.01  -8.285E+01   0.01 |
  |    La          4     4698.01     765.44      0.05  -8.347E+01   0.10 |
  |    La          5     4607.85     511.90      0.07  -7.876E+01   0.08 |
  |    La          6     4655.26     629.56      0.01  -8.172E+01   0.01 |
  |    La          7     4650.71     659.77      0.10  -8.085E+01   0.17 |
  |    La          8     4507.39     225.05      0.02  -7.234E+01   0.02 |
  |    La          9     4650.12     632.75      0.01  -7.996E+01   0.00 |
  |    La         10     4656.87     630.95      0.01  -8.154E+01   0.01 |
  |    La         11     4603.11     521.02      0.08  -7.736E+01   0.09 |
  |    La         12     4656.83     630.73      0.01  -8.154E+01   0.01 |
  |    La         13     4650.48     660.36      0.10  -8.090E+01   0.18 |
  |    La         14     4557.37     380.41      0.05  -7.598E+01   0.12 |
  |    La         15     4606.21     507.44      0.08  -7.875E+01   0.11 |
  |    La         16     4699.27     780.79      0.12  -8.345E+01   0.17 |

 *********************** Forces ***********************
 *            Cartesian components (eV/A)             *
 *                   x            y            z      *
 * O         1      0.00812     -0.00805     -0.00280 *
 * O         2     -0.01238     -0.00940      0.00325 *
 * O         3     -0.00087      0.00118      0.00074 *
 * O         4     -0.00982      0.00386     -0.00152 *
 * O         5     -0.01162     -0.00053     -0.01249 *
 * O         6     -0.01107      0.00036      0.00848 *
 * O         7      0.01753     -0.01254      0.00944 *
 * O         8      0.01851      0.00181     -0.00698 *
 * O         9     -0.00760      0.00759     -0.00605 *
 * O        10     -0.00756      0.00165     -0.00696 *
 * O        11      0.03974      0.00075     -0.00247 *
 * O        12     -0.01641     -0.00313      0.00554 *
 * O        13     -0.00419     -0.01751      0.00459 *
 * O        14     -0.00561      0.01205     -0.00366 *
 * O        15     -0.00376     -0.00186      0.00631 *
 * O        16      0.00446     -0.00701      0.00259 *
 * O        17     -0.00117     -0.00075     -0.01259 *
 * O        18     -0.00980     -0.00991      0.01828 *
 * O        19      0.00160      0.02119     -0.01531 *
 * O        20     -0.00934      0.00704     -0.00703 *
 * O        21      0.00478     -0.02223      0.00807 *
 * O        22      0.00092      0.01150     -0.00625 *
 * O        23      0.01787     -0.00541      0.01680 *
 * O        24      0.00772      0.00379     -0.01701 *
 * O        25     -0.04106      0.00577     -0.00761 *
 * O        26      0.01795     -0.01556      0.00016 *
 * O        27      0.00601      0.00582     -0.00065 *
 * O        28      0.02343     -0.00307      0.00600 *
 * O        29     -0.01101     -0.00609     -0.00358 *
 * O        30     -0.00334     -0.01664      0.01508 *
 * O        31      0.01863     -0.00486     -0.00669 *
 * O        32      0.00024     -0.01694      0.02030 *
 * O        33      0.02282      0.00630     -0.00644 *
 * O        34      0.01712     -0.00024      0.00488 *
 * O        35      0.00489     -0.00738      0.00382 *
 * O        36     -0.01783     -0.01319     -0.01473 *
 * O        37      0.00054      0.01603     -0.01918 *
 * O        38      0.00157      0.00507      0.00306 *
 * O        39     -0.00695      0.01260     -0.00882 *
 * O        40      0.00287      0.00175      0.00595 *
 * O        41     -0.00946     -0.00135      0.00014 *
 * O        42     -0.02461      0.00790     -0.00908 *
 * O        43      0.00428      0.01937     -0.00112 *
 * O        44     -0.00542     -0.01165      0.01085 *
 * O        45     -0.00948      0.00775     -0.01207 *
 * O        46      0.01577     -0.00121      0.00679 *
 * O        47      0.00456      0.00273     -0.00119 *
 * O        48     -0.00209     -0.01091      0.00167 *
 * O        49     -0.01709      0.00867      0.01510 *
 * O        50      0.00386     -0.01031      0.00772 *
 * O        51     -0.01031     -0.01424      0.00787 *
 * O        52      0.00743      0.00443      0.00205 *
 * O        53     -0.01976      0.00599      0.01854 *
 * O        54      0.01538      0.00829     -0.00352 *
 * O        55      0.00742     -0.00615     -0.01263 *
 * O        56     -0.00464      0.00357     -0.01267 *
 * Zr        1     -0.01000      0.00672      0.01099 *
 * Zr        2     -0.00229     -0.02048     -0.00163 *
 * Zr        3      0.01865      0.00193      0.02336 *
 * Zr        4      0.01714      0.02496     -0.00676 *
[...]
 * La        2      0.02029      0.01261     -0.00294 *
 * La        3     -0.01794      0.01238     -0.01768 *
 * La        4     -0.01595      0.00549      0.00317 *
 * La        5     -0.02201     -0.02397      0.01892 *
 * La        6      0.02459     -0.01414      0.02221 *
 * La        7      0.00002     -0.00016     -0.00065 *
 * La        8      0.00809     -0.00131      0.00686 *
 * La        9      0.01587      0.01141     -0.01673 *
 * La       10     -0.01344      0.00301     -0.00541 *
 * La       11     -0.01192     -0.00675      0.00213 *
 * La       12      0.01350      0.00154      0.00564 *
 * La       13     -0.00268      0.00526      0.00051 *
 * La       14      0.00959     -0.01454     -0.01485 *
 * La       15      0.00397      0.00367      0.01089 *
 * La       16     -0.01673     -0.00352     -0.01795 *

 ***************** Stress Tensor *****************
 *          Cartesian components (GPa)           *
 *             x             y             z     *
 *  x      0.015736     -0.002377      0.002584  *
 *  y     -0.002377      0.039138      0.016056  *
 *  z      0.002584      0.016056      0.037259  *
 *  Pressure:   -0.0307                          *

[...]

 Pseudo atomic calculation performed for Sn 4d10 5s2 5p2

[...]

 Pseudo atomic calculation performed for La 5s2 5p6 5d1 6s2

 Converged in 30 iterations to a total energy of -968.0373 eV

Charge spilling parameter for spin component 1 = 0.25%

     Atomic Populations (Mulliken)
Species   Ion     s      p      d      f     Total  Charge (e)
  O        1     1.87   5.00   0.00   0.00   6.87    -0.87
  O        2     1.87   5.00   0.00   0.00   6.87    -0.87
  O        3     1.87   5.00   0.00   0.00   6.87    -0.87
  O        4     1.87   5.00   0.00   0.00   6.87    -0.87
  O        5     1.87   5.00   0.00   0.00   6.87    -0.87
  O        6     1.87   5.00   0.00   0.00   6.87    -0.87
  O        7     1.87   5.00   0.00   0.00   6.87    -0.87
  O        8     1.87   5.00   0.00   0.00   6.87    -0.87
  O        9     1.86   4.95   0.00   0.00   6.80    -0.80
  O       10     1.88   5.03   0.00   0.00   6.91    -0.91
  O       11     1.88   5.02   0.00   0.00   6.91    -0.91
  O       12     1.88   5.02   0.00   0.00   6.91    -0.91
  O       13     1.88   5.03   0.00   0.00   6.91    -0.91
  O       14     1.86   4.95   0.00   0.00   6.80    -0.80
  O       15     1.87   4.99   0.00   0.00   6.86    -0.86
  O       16     1.88   5.03   0.00   0.00   6.91    -0.91
  O       17     1.88   5.03   0.00   0.00   6.91    -0.91
  O       18     1.88   5.02   0.00   0.00   6.91    -0.91
  O       19     1.87   4.99   0.00   0.00   6.86    -0.86
  O       20     1.86   4.95   0.00   0.00   6.80    -0.80
  O       21     1.88   5.02   0.00   0.00   6.91    -0.91
  O       22     1.88   5.03   0.00   0.00   6.91    -0.91
  O       23     1.87   4.99   0.00   0.00   6.86    -0.86
  O       24     1.87   4.99   0.00   0.00   6.86    -0.86
  O       25     1.88   5.02   0.00   0.00   6.91    -0.91
  O       26     1.88   5.02   0.00   0.00   6.91    -0.91
  O       27     1.86   4.95   0.00   0.00   6.80    -0.80
  O       28     1.87   4.99   0.00   0.00   6.86    -0.86
  O       29     1.87   4.99   0.00   0.00   6.86    -0.86
  O       30     1.87   4.99   0.00   0.00   6.86    -0.86
  O       31     1.87   4.99   0.00   0.00   6.86    -0.86
  O       32     1.88   5.02   0.00   0.00   6.91    -0.91
  O       33     1.87   4.99   0.00   0.00   6.86    -0.86
  O       34     1.88   5.02   0.00   0.00   6.91    -0.91
  O       35     1.86   4.95   0.00   0.00   6.80    -0.80
  O       36     1.87   4.99   0.00   0.00   6.86    -0.86
  O       37     1.88   5.02   0.00   0.00   6.91    -0.91
  O       38     1.86   4.95   0.00   0.00   6.80    -0.80
  O       39     1.88   5.03   0.00   0.00   6.91    -0.91
  O       40     1.86   4.95   0.00   0.00   6.80    -0.80
  O       41     1.88   5.03   0.00   0.00   6.91    -0.91
  O       42     1.87   4.99   0.00   0.00   6.86    -0.86
  O       43     1.87   4.99   0.00   0.00   6.86    -0.86
  O       44     1.86   4.95   0.00   0.00   6.80    -0.80
  O       45     1.86   4.95   0.00   0.00   6.80    -0.80
  O       46     1.86   4.95   0.00   0.00   6.80    -0.80
  O       47     1.88   5.03   0.00   0.00   6.91    -0.91
  O       48     1.87   4.99   0.00   0.00   6.86    -0.86
  O       49     1.87   4.99   0.00   0.00   6.86    -0.86
  O       50     1.87   4.99   0.00   0.00   6.86    -0.86
  O       51     1.87   4.99   0.00   0.00   6.86    -0.86
  O       52     1.86   4.95   0.00   0.00   6.80    -0.80
  O       53     1.87   4.99   0.00   0.00   6.86    -0.86
  O       54     1.87   4.99   0.00   0.00   6.86    -0.86
  O       55     1.87   4.99   0.00   0.00   6.86    -0.86
  O       56     1.87   4.99   0.00   0.00   6.86    -0.86
  Zr       1     2.37   6.49   1.92   0.00  10.77     1.23
  Zr       2     2.37   6.49   1.92   0.00  10.78     1.22
  Zr       3     2.37   6.48   1.92   0.00  10.77     1.23
  Zr       4     2.36   6.48   1.92   0.00  10.77     1.23
[...]
  La       2     2.07   6.17   1.19   0.00   9.44     1.56
  La       3     2.06   6.18   1.19   0.00   9.44     1.56
  La       4     2.03   6.15   1.20   0.00   9.38     1.62
  La       5     2.10   6.19   1.19   0.00   9.48     1.52
  La       6     2.05   6.18   1.19   0.00   9.42     1.58
  La       7     2.06   6.17   1.19   0.00   9.42     1.58
  La       8     2.14   6.22   1.19   0.00   9.55     1.45
  La       9     2.06   6.17   1.19   0.00   9.42     1.58
  La      10     2.05   6.17   1.19   0.00   9.42     1.58
  La      11     2.09   6.18   1.19   0.00   9.46     1.54
  La      12     2.05   6.17   1.19   0.00   9.42     1.58
  La      13     2.06   6.16   1.19   0.00   9.42     1.58
  La      14     2.11   6.20   1.19   0.00   9.51     1.49
  La      15     2.09   6.19   1.19   0.00   9.47     1.53
  La      16     2.03   6.15   1.20   0.00   9.38     1.62

            Bond              Population      Length (A)
         O 29 -- Sn 8              0.35        2.09707
         O 53 -- Sn 3              0.35        2.09855
         O 33 -- Sn 6              0.34        2.09876
         O 36 -- Sn 9              0.35        2.09880
         O 43 -- Sn 8              0.35        2.09881
         O 28 -- Sn 5              0.34        2.10014
         O 49 -- Sn 1              0.35        2.10104
         O 30 -- Sn 7              0.34        2.10234
         O 42 -- Sn 7              0.34        2.10253
         O 55 -- Sn 3              0.34        2.10282
         O 16 -- Sn 9              0.35        2.10337
         O 24 -- Sn 4              0.35        2.10371
         O 10 -- Sn 2              0.34        2.10391
         O 19 -- Sn 5              0.34        2.10457
         O 15 -- Sn 6              0.34        2.10540
         O 23 -- Sn 2              0.34        2.10570
         O 10 -- Sn 4              0.33        2.10633
         O 47 -- Sn 1              0.34        2.10681
         O 50 -- Sn 7              0.34        2.10687
         O 52 -- Zr 6              0.41        2.10692
         O 56 -- Sn 5              0.34        2.10696
         O 47 -- Sn 2              0.34        2.10759
         O 48 -- Sn 6              0.34        2.10834
         O 54 -- Sn 4              0.34        2.10834
         O 52 -- Zr 1              0.41        2.10909
         O 17 -- Sn 4              0.34        2.10930
         O 16 -- Sn 2              0.34        2.10956
         O 31 -- Sn 2              0.34        2.11050
         O 39 -- Sn 1              0.34        2.11053
         O 18 -- Sn 3              0.34        2.11099
         O 45 -- Zr 1              0.41        2.11114
         O 22 -- Sn 5              0.34        2.11122
         O 39 -- Sn 4              0.34        2.11133
         O 13 -- Sn 7              0.34        2.11141
         O 27 -- Zr 7              0.42        2.11150
         O 51 -- Sn 2              0.34        2.11183
         O 45 -- Zr 7              0.41        2.11223
         O 38 -- Zr 2              0.42        2.11296
         O 21 -- Sn 3              0.34        2.11300
         O 17 -- Sn 9              0.33        2.11308
         O 18 -- Sn 7              0.34        2.11317
         O 21 -- Sn 6              0.34        2.11357
         O 28 -- Zr 4              0.44        2.11365
         O 13 -- Sn 8              0.33        2.11371
         O 22 -- Sn 8              0.33        2.11380
         O 32 -- Sn 6              0.34        2.11442
         O 41 -- Sn 9              0.33        2.11449
         O 41 -- Sn 1              0.33        2.11454
         O 27 -- Zr 5              0.42        2.11458
         O 37 -- Sn 1              0.33        2.11483
         O 37 -- Sn 5              0.34        2.11488
         O 33 -- Zr 3              0.43        2.11512
         O 9  -- Zr 5              0.42        2.11666
         O 32 -- Sn 9              0.33        2.11676
         O 11 -- Sn 6              0.34        2.11696
         O 29 -- Zr 4              0.44        2.11707
         O 38 -- Zr 5              0.42        2.11709
         O 35 -- Zr 2              0.43        2.11718
         O 12 -- Sn 8              0.33        2.11732
         O 12 -- Sn 3              0.33        2.11768
[...]
         O 46 -- O 53             -0.03        2.82842
         O 14 -- O 29             -0.03        2.82869
         O 36 -- O 46             -0.03        2.82921
         O 36 -- O 44             -0.03        2.82965
         O 31 -- O 45             -0.03        2.82973
         O 45 -- O 54             -0.03        2.83029
         O 9  -- O 24             -0.03        2.83038
         O 35 -- O 43             -0.03        2.83049
         O 9  -- O 23             -0.03        2.83066
         O 20 -- O 23             -0.03        2.83104
         O 48 -- O 50             -0.03        2.83197
         O 54 -- O 56             -0.03        2.83328
         O 15 -- O 31             -0.03        2.83622
         O 51 -- O 55             -0.03        2.83773
         O 43 -- O 51             -0.03        2.83895

Initialisation time =     24.98 s
Calculation time    =   2712.90 s
Finalisation time   =      0.13 s
Total time          =   2738.01 s

Overall parallel efficiency rating: Good (73%)

Data was distributed by:-
G-vector (64-way); efficiency rating: Good (75%)
k-point (14-way); efficiency rating: Excellent (96%)