 Run started: Tue, 29 Mar 2022 13:22:43 -0100
 |           N   N    M   M    RRRR                |
 |           NN  N    MM MM    R   R               |
 |           N N N    M M M    RRRR                |
 |           N  NN    M   M    R  R                |
 |           N   N    M   M    R   R               |
 | Welcome to Materials Studio CASTEP-NMR          |
 | Authors:                                        |
 | J.R. Yates, C.J. Pickard, F. Mauri              |
 | Contributors:                                   |
 | T.F.G. Green, S.A. Joyce                        |
 | Copyright (c) 2004 - 2015                       |
 | Please cite the appropriate publications in all |
 | work arising from your use of CASTEP NMR.       |
 | For NMR Shielding Tensors cite:                 |
 |    "All-electron magnetic response with         |
 |    pseudopotentials: NMR chemical shifts",      |
 |    C. J. Pickard, F. Mauri;                     |
 |    Physical Review B63 245101 (2001), and       |
 |    "Calculation of NMR Chemical Shifts          |
 |    for extended systems using                   |
 |    Ultrasoft Pseudopotentials",                 |
 |    J. R. Yates, C. J. Pickard and F. Mauri      |
 |    Physical Review B76 024401 (2007)            |
 | For Electric Field Gradients cite:              |
 |   "Accurate First Principles Prediction of 17O  |
 |    NMR Parameters in SiO2: Assignment of the    |
 |    Zeolite Ferrierite Spectrum"                 |
 |    M. Profeta, F. Mauri and C. J. Pickard       |
 |    J. Amer. Chem. Soc. 125 541 (2003)           |
 | For Spin-Spin (J) Couplings cite:               |
 |   "A first principles theory of NMR J-coupling  |
 |   in solid-state systems"                       |
 |   S.A. Joyce, J.R. Yates, C.J. Pickard, F. Mauri|
 |   J. Chem. Phys. 127 204107 (2007)              |
 |   "Relativistic NMR J-coupling with ultrasoft   |
 |   pseudopotentials and the zeroth-order regular |
 |   approximation"                                |
 |   T.F.G. Green and J.R. Yates                   |
 |   J. Chem. Phys. 140 234106 (2014)              |

 Atomic calculation performed for O: 1s2 2s2 2p4

 Converged in 44 iterations to an ae energy of -2040.855 eV

 Atomic calculation performed for O: 1s2 2s2 2p4

 Exceeded max iterations: converged to 0.000000062 eV

   | Pseudopotential Report - Date of generation 29-03-2022   |
   | Element: O Ionic charge:  6.00 Level of theory: PBE      |
   | Atomic Solver: ZORA (scalar)                             |
   |               Reference Electronic Structure             |
   |         Orbital         Occupation         Energy        |
   |            2s              2.000           -0.881        |
   |            2p              4.000           -0.332        |
   |                 Pseudopotential Definition               |
   |        Beta     l      e      Rc     scheme   norm       |
   |          1      0   -0.881   1.100     qc      0         |
   |          2      0    0.250   1.100     qc      0         |
   |          3      1   -0.332   1.100     qc      0         |
   |          4      1    0.250   1.100     qc      0         |
   |         loc     2    0.000   1.100     pn      0         |
   | Augmentation charge Rinner = 0.769                       |
   | Partial core correction Rc = 0.769                       |
   | "2|1.1|15|18|20|20:21(qc=7)"                             |
   |      Author: Chris J. Pickard, Cambridge University      |

 Atomic calculation performed for Zr: 1s2 2s2 2p6 3s2 3p6 3d10 4s2 4p6 4d2 5s2

[...]

 Atomic calculation performed for Zr: 1s2 2s2 2p6 3s2 3p6 3d10 4s2 4p6 4d2 5s2

[...]

 Warning: ion_atom_descreen_psp: negative charge density encountered
   | Pseudopotential Report - Date of generation 29-03-2022   |
   | Element: Zr Ionic charge: 12.00 Level of theory: PBE     |
   | Atomic Solver: ZORA (scalar)                             |
   |               Reference Electronic Structure             |
   |         Orbital         Occupation         Energy        |
   |            4s              2.000           -2.003        |
   |            4p              6.000           -1.193        |
   |            5s              2.000           -0.163        |
   |            4d              2.000           -0.132        |
   |                 Pseudopotential Definition               |
   |        Beta     l      e      Rc     scheme   norm       |
   |          1      0   -2.003   2.105     qc      0         |
   |          2      0   -0.163   2.105     qc      0         |
   |          3      0    0.250   2.105     qc      0         |
   |          4      1   -1.193   2.105     qc      0         |
   |          5      1    0.250   2.105     qc      0         |
   |          6      2   -0.132   2.105     qc      0         |
   |          7      2    0.250   2.105     qc      0         |
   |         loc     3    0.000   2.105     pn      0         |
   | Augmentation charge Rinner = 1.471                       |
   | Partial core correction Rc = 1.471                       |
   | "3|2.1|7|8|9|40U:50:41:42"                               |
   |      Author: Chris J. Pickard, Cambridge University      |

 Atomic calculation performed for Sn:

[...]

 Atomic calculation performed for Sn:

[...]

   | Pseudopotential Report - Date of generation 29-03-2022   |
   | Element: Sn Ionic charge: 14.00 Level of theory: PBE     |
   | Atomic Solver: ZORA (scalar)                             |
   |               Reference Electronic Structure             |
   |         Orbital         Occupation         Energy        |
   |            4d             10.000           -0.950        |
   |            5s              2.000           -0.388        |
   |            5p              2.000           -0.136        |
   |                 Pseudopotential Definition               |
   |        Beta     l      e      Rc     scheme   norm       |
   |          1      0   -0.388   2.199     qc      0         |
   |          2      0    0.250   2.199     qc      0         |
   |          3      1   -0.136   2.199     qc      0         |
   |          4      1    0.250   2.199     qc      0         |
   |          5      2   -0.950   2.199     qc      0         |
   |          6      2    0.250   2.199     qc      0         |
   |         loc     3    0.000   2.199     pn      0         |
   | Augmentation charge Rinner = 1.537                       |
   | Partial core correction Rc = 1.537                       |
   | "3|2.2|7|8|9|50:51:42"                                   |
   |      Author: Chris J. Pickard, Cambridge University      |

 Atomic calculation performed for La:

 Converged in 55 iterations to an ae energy of -230121.495 eV

 Atomic calculation performed for La:

 Exceeded max iterations: converged to 0.000001134 eV

 Warning: ion_atom_descreen_psp: negative charge density encountered
   | Pseudopotential Report - Date of generation 29-03-2022   |
   | Element: La Ionic charge: 11.00 Level of theory: PBE     |
   | Atomic Solver: ZORA (scalar)                             |
   |               Reference Electronic Structure             |
   |         Orbital         Occupation         Energy        |
   |            5s              2.000           -1.430        |
   |            5p              6.000           -0.823        |
   |            6s              2.000           -0.135        |
   |            5d              1.000           -0.114        |
   |                 Pseudopotential Definition               |
   |        Beta     l      e      Rc     scheme   norm       |
   |          1      0   -1.430   2.298     qc      0         |
   |          2      0   -0.135   2.298     qc      0         |
   |          3      0    0.250   2.298     qc      0         |
   |          4      1   -0.823   2.298     qc      0         |
   |          5      1    0.250   2.298     qc      0         |
   |          6      2   -0.114   2.298     qc      0         |
   |          7      2    0.250   2.298     qc      0         |
   |         loc     2    0.000   2.298     pn      0         |
   | Augmentation charge Rinner = 1.606                       |
   | Partial core correction Rc = 1.606                       |
   | "2|2.3|5|6|7|50U:60:51:52(qc=4.5)"                       |
   |      Author: Chris J. Pickard, Cambridge University      |

 Pseudo atomic calculation performed for O 2s2 2p4

 Converged in 39 iterations to a total energy of -432.6554 eV

 Pseudo atomic calculation performed for Zr 4s2 4p6 4d2 5s2

[...]

 Calculation parallelised over 896 processes.
 Data is distributed by G-vector(64-way) and k-point(14-way)

 ************************************ Title ************************************
 nmr testing

 ***************************** General Parameters ******************************

 output verbosity                               : normal  (1)
 write checkpoint data to                       : 75.check
 type of calculation                            : Magnetic Resonance
 stress calculation                             : on
 density difference calculation                 : off
 electron localisation func (ELF) calculation   : off
 Hirshfeld analysis                             : off
 unlimited duration calculation
 timing information                             : on
 write final potential to formatted file        : off
 write final density to formatted file          : off
 write BibTeX reference list                    : off
 write OTFG pseudopotential files               : on
 checkpoint writing                             : off

 output         length unit                     : A
 output           mass unit                     : amu
 output           time unit                     : ps
 output         charge unit                     : e
 output           spin unit                     : hbar/2
 output         energy unit                     : eV
 output          force unit                     : eV/A
 output       velocity unit                     : A/ps
 output       pressure unit                     : GPa
 output     inv_length unit                     : 1/A
 output      frequency unit                     : cm-1
 output force constant unit                     : eV/A**2
 output         volume unit                     : A**3
 output   IR intensity unit                     : (D/A)**2/amu
 output         dipole unit                     : D
 output         efield unit                     : eV/A/e
 output        entropy unit                     : J/mol/K

 wavefunctions paging                           : none
 random number generator seed                   : randomised (132243250)
 data distribution                              : optimal for this architecture
 optimization strategy                          : maximize speed(+++)

 *********************** Exchange-Correlation Parameters ***********************

 using functional                               : Perdew Burke Ernzerhof
 relativistic treatment                         : ZORA
 DFT+D: Semi-empirical dispersion correction    : off

 ************************* Pseudopotential Parameters **************************

[...]
  |    O          40      -88.02      86.38      0.19  -3.163E+00   0.07 |
  |    O          41       -9.12      57.25      0.91   3.819E+00   0.93 |
  |    O          42     -161.02     158.05      0.78   1.050E+00   0.77 |
  |    O          43     -159.86     141.19      0.82   1.078E+00   0.62 |
  |    O          44        0.69      69.71      0.63   3.869E+00   0.90 |
  |    O          45      -87.04      79.59      0.16  -3.270E+00   0.10 |
  |    O          46      -87.99      85.45      0.19  -3.164E+00   0.07 |
  |    O          47      -15.61      59.35      0.15   3.948E+00   0.80 |
  |    O          48      -91.87      84.31      0.10  -3.165E+00   0.08 |
  |    O          49      -83.98      86.59      0.25  -3.218E+00   0.06 |
  |    O          50     -160.52     153.71      0.79   1.066E+00   0.68 |
  |    O          51      -83.84      88.10      0.25  -3.199E+00   0.06 |
  |    O          52      -81.85      85.36      0.29  -3.146E+00   0.06 |
  |    O          53      -20.00      38.18      0.16   3.998E+00   0.79 |
  |    O          54     -163.05     142.73      0.81   1.008E+00   0.67 |
  |    O          55      -85.40      84.37      0.19  -3.136E+00   0.07 |
  |    O          56      -85.84      86.56      0.10  -3.221E+00   0.08 |
  |    Zr          1     1615.11    -117.63      0.10  -3.610E+01   0.09 |
  |    Zr          2     1629.01    -123.34      0.11  -3.693E+01   0.12 |
  |    Zr          3     1623.18    -123.84      0.19  -3.608E+01   0.16 |
  |    Zr          4     1623.52    -123.94      0.19  -3.606E+01   0.15 |
[...]
  |    La          2     4549.88     386.35      0.08  -7.383E+01   0.08 |
  |    La          3     4703.18     776.79      0.11  -8.541E+01   0.15 |
  |    La          4     4707.78     748.63      0.03  -8.553E+01   0.08 |
  |    La          5     4599.31     512.45      0.10  -7.696E+01   0.09 |
  |    La          6     4657.19     660.71      0.08  -8.286E+01   0.14 |
  |    La          7     4708.65     773.85      0.09  -8.634E+01   0.13 |
  |    La          8     4599.32     511.69      0.10  -7.687E+01   0.09 |
  |    La          9     4600.72     542.39      0.10  -7.772E+01   0.20 |
  |    La         10     4658.03     663.72      0.09  -8.304E+01   0.14 |
  |    La         11     4646.51     665.26      0.12  -7.942E+01   0.14 |
  |    La         12     4614.52     502.58      0.07  -7.985E+01   0.06 |
  |    La         13     4549.92     386.46      0.08  -7.382E+01   0.08 |
  |    La         14     4617.17     500.84      0.07  -7.935E+01   0.06 |
  |    La         15     4708.35     750.68      0.03  -8.565E+01   0.08 |
  |    La         16     4646.73     665.00      0.12  -7.929E+01   0.14 |

 *********************** Forces ***********************
 *            Cartesian components (eV/A)             *
 *                   x            y            z      *
 * O         1     -0.00685     -0.00110     -0.00202 *
 * O         2     -0.00337      0.00343      0.00159 *
 * O         3     -0.00128      0.00112     -0.00299 *
 * O         4      0.00288      0.00575     -0.00171 *
 * O         5     -0.00198     -0.00231      0.00437 *
 * O         6      0.00255     -0.00372      0.00088 *
 * O         7      0.00363     -0.00030      0.00674 *
 * O         8      0.00720     -0.00118      0.00493 *
 * O         9      0.01208     -0.00862     -0.01157 *
 * O        10     -0.00624     -0.00401     -0.01284 *
 * O        11      0.00709      0.00252      0.00694 *
 * O        12     -0.00503      0.00576     -0.00547 *
 * O        13      0.01330      0.00093     -0.00498 *
 * O        14      0.01167     -0.01038     -0.01430 *
 * O        15     -0.00240      0.00489      0.00752 *
 * O        16     -0.00298     -0.00679      0.00651 *
 * O        17      0.00487     -0.00194      0.00367 *
 * O        18      0.00234     -0.00180     -0.00886 *
 * O        19      0.00527      0.00614     -0.01441 *
 * O        20      0.00425      0.00085     -0.00917 *
 * O        21      0.00437      0.01376      0.00118 *
 * O        22      0.00255      0.00166      0.00469 *
 * O        23      0.00100     -0.00790      0.00293 *
 * O        24     -0.00775     -0.00851      0.01030 *
 * O        25     -0.00501      0.00342     -0.00542 *
 * O        26     -0.01465     -0.00790     -0.00185 *
 * O        27      0.00096      0.00018      0.00308 *
 * O        28      0.00796      0.00234      0.00208 *
 * O        29     -0.00482      0.00103      0.00798 *
 * O        30     -0.00706      0.00711      0.01435 *
 * O        31      0.00372     -0.00630     -0.01069 *
 * O        32     -0.00544     -0.00241      0.00924 *
 * O        33      0.00644      0.00795      0.00340 *
 * O        34     -0.01147      0.00023     -0.00356 *
 * O        35      0.00215      0.01430     -0.00460 *
 * O        36     -0.01191     -0.00668      0.00044 *
 * O        37      0.00020      0.00237     -0.00989 *
 * O        38      0.00215      0.00939      0.00894 *
 * O        39     -0.00179     -0.01397     -0.00541 *
 * O        40      0.00249     -0.00349     -0.00296 *
 * O        41     -0.00669      0.00219      0.00835 *
 * O        42     -0.00172     -0.01025     -0.00560 *
 * O        43     -0.00080      0.00639     -0.00624 *
 * O        44      0.00748     -0.00853      0.00757 *
 * O        45      0.01120     -0.00141     -0.00607 *
 * O        46      0.00284      0.00036     -0.00323 *
 * O        47     -0.00839     -0.00138     -0.01412 *
 * O        48     -0.00601     -0.01169      0.00406 *
 * O        49      0.00008      0.00054      0.00392 *
 * O        50     -0.00687      0.00508     -0.00512 *
 * O        51     -0.00231     -0.00042      0.00598 *
 * O        52      0.00530      0.00800      0.01260 *
 * O        53     -0.00238      0.00368      0.01979 *
 * O        54      0.00004     -0.00592      0.00806 *
 * O        55     -0.00514      0.00788     -0.00467 *
 * O        56     -0.00193      0.00708     -0.01369 *
 * Zr        1     -0.01809     -0.01838     -0.01487 *
 * Zr        2      0.00895     -0.00255      0.00815 *
 * Zr        3      0.00363      0.00838      0.00053 *
 * Zr        4     -0.00848      0.00970      0.00080 *
[...]
 * La        2     -0.01113      0.00474      0.00334 *
 * La        3     -0.00535      0.00520     -0.00242 *
 * La        4     -0.01157     -0.00084      0.00647 *
 * La        5      0.00833     -0.00761     -0.00721 *
 * La        6      0.00387     -0.00838      0.00236 *
 * La        7      0.00590     -0.00454     -0.00735 *
 * La        8      0.01342     -0.00946     -0.00715 *
 * La        9      0.00811      0.00316     -0.00833 *
 * La       10      0.00768     -0.00256     -0.00382 *
 * La       11     -0.00544     -0.00229      0.01121 *
 * La       12     -0.00689      0.00776      0.00730 *
 * La       13     -0.00386      0.01003      0.00124 *
 * La       14      0.00612     -0.00707      0.01076 *
 * La       15      0.00231      0.00904     -0.00275 *
 * La       16     -0.00607      0.00405      0.00898 *

 ***************** Stress Tensor *****************
 *          Cartesian components (GPa)           *
 *             x             y             z     *
 *  x      0.013100     -0.010113     -0.017509  *
 *  y     -0.010113      0.014256      0.022550  *
 *  z     -0.017509      0.022550      0.010930  *
 *  Pressure:   -0.0128                          *

[...]

 Pseudo atomic calculation performed for Sn 4d10 5s2 5p2

[...]

 Pseudo atomic calculation performed for La 5s2 5p6 5d1 6s2

 Converged in 34 iterations to a total energy of -968.0373 eV

Charge spilling parameter for spin component 1 = 0.25%

     Atomic Populations (Mulliken)
Species   Ion     s      p      d      f     Total  Charge (e)
  O        1     1.87   5.00   0.00   0.00   6.87    -0.87
  O        2     1.87   5.00   0.00   0.00   6.87    -0.87
  O        3     1.87   5.00   0.00   0.00   6.87    -0.87
  O        4     1.87   5.00   0.00   0.00   6.87    -0.87
  O        5     1.87   5.00   0.00   0.00   6.87    -0.87
  O        6     1.87   5.00   0.00   0.00   6.87    -0.87
  O        7     1.87   5.00   0.00   0.00   6.87    -0.87
  O        8     1.87   5.00   0.00   0.00   6.87    -0.87
  O        9     1.87   4.99   0.00   0.00   6.86    -0.86
  O       10     1.87   4.99   0.00   0.00   6.86    -0.86
  O       11     1.88   5.02   0.00   0.00   6.91    -0.91
  O       12     1.87   4.99   0.00   0.00   6.86    -0.86
  O       13     1.86   4.95   0.00   0.00   6.80    -0.80
  O       14     1.87   4.99   0.00   0.00   6.86    -0.86
  O       15     1.88   5.02   0.00   0.00   6.91    -0.91
  O       16     1.88   5.02   0.00   0.00   6.91    -0.91
  O       17     1.87   4.99   0.00   0.00   6.86    -0.86
  O       18     1.87   4.99   0.00   0.00   6.86    -0.86
  O       19     1.88   5.03   0.00   0.00   6.91    -0.91
  O       20     1.86   4.95   0.00   0.00   6.80    -0.80
  O       21     1.88   5.03   0.00   0.00   6.91    -0.91
  O       22     1.87   4.99   0.00   0.00   6.86    -0.86
  O       23     1.87   4.99   0.00   0.00   6.86    -0.86
  O       24     1.87   4.99   0.00   0.00   6.86    -0.86
  O       25     1.86   4.95   0.00   0.00   6.80    -0.80
  O       26     1.88   5.03   0.00   0.00   6.91    -0.91
  O       27     1.87   4.99   0.00   0.00   6.86    -0.86
  O       28     1.87   4.99   0.00   0.00   6.86    -0.86
  O       29     1.86   4.95   0.00   0.00   6.80    -0.80
  O       30     1.87   4.99   0.00   0.00   6.86    -0.86
  O       31     1.88   5.02   0.00   0.00   6.91    -0.91
  O       32     1.88   5.02   0.00   0.00   6.91    -0.91
  O       33     1.88   5.03   0.00   0.00   6.91    -0.91
  O       34     1.87   4.99   0.00   0.00   6.86    -0.86
  O       35     1.87   4.99   0.00   0.00   6.86    -0.86
  O       36     1.88   5.03   0.00   0.00   6.91    -0.91
  O       37     1.88   5.02   0.00   0.00   6.91    -0.91
  O       38     1.86   4.95   0.00   0.00   6.80    -0.80
  O       39     1.87   4.99   0.00   0.00   6.86    -0.86
  O       40     1.87   4.99   0.00   0.00   6.86    -0.86
  O       41     1.88   5.02   0.00   0.00   6.91    -0.91
  O       42     1.86   4.95   0.00   0.00   6.80    -0.80
  O       43     1.86   4.95   0.00   0.00   6.80    -0.80
  O       44     1.88   5.03   0.00   0.00   6.91    -0.91
  O       45     1.87   4.99   0.00   0.00   6.86    -0.86
  O       46     1.87   4.99   0.00   0.00   6.86    -0.86
  O       47     1.88   5.03   0.00   0.00   6.91    -0.91
  O       48     1.87   4.99   0.00   0.00   6.86    -0.86
  O       49     1.87   4.99   0.00   0.00   6.86    -0.86
  O       50     1.86   4.95   0.00   0.00   6.80    -0.80
  O       51     1.87   4.99   0.00   0.00   6.86    -0.86
  O       52     1.87   4.99   0.00   0.00   6.86    -0.86
  O       53     1.88   5.03   0.00   0.00   6.91    -0.91
  O       54     1.86   4.95   0.00   0.00   6.80    -0.80
  O       55     1.87   4.99   0.00   0.00   6.86    -0.86
  O       56     1.87   4.99   0.00   0.00   6.86    -0.86
  Zr       1     2.37   6.49   1.92   0.00  10.78     1.22
  Zr       2     2.36   6.48   1.92   0.00  10.76     1.24
  Zr       3     2.37   6.49   1.92   0.00  10.77     1.23
  Zr       4     2.37   6.49   1.92   0.00  10.77     1.23
[...]
  La       2     2.12   6.20   1.19   0.00   9.51     1.49
  La       3     2.02   6.16   1.20   0.00   9.38     1.62
  La       4     2.03   6.16   1.19   0.00   9.38     1.62
  La       5     2.10   6.18   1.19   0.00   9.48     1.52
  La       6     2.05   6.17   1.19   0.00   9.41     1.59
  La       7     2.02   6.16   1.20   0.00   9.38     1.62
  La       8     2.10   6.18   1.19   0.00   9.48     1.52
  La       9     2.10   6.18   1.19   0.00   9.47     1.53
  La      10     2.05   6.17   1.19   0.00   9.41     1.59
  La      11     2.06   6.16   1.20   0.00   9.42     1.58
  La      12     2.08   6.19   1.19   0.00   9.47     1.53
  La      13     2.12   6.20   1.19   0.00   9.51     1.49
  La      14     2.07   6.19   1.19   0.00   9.45     1.55
  La      15     2.02   6.16   1.19   0.00   9.38     1.62
  La      16     2.06   6.16   1.20   0.00   9.42     1.58

            Bond              Population      Length (A)
         O 45 -- Sn 8              0.35        2.09782
         O 39 -- Sn 2              0.35        2.09795
         O 10 -- Sn 3              0.35        2.09816
         O 56 -- Sn 5              0.35        2.09850
         O 53 -- Sn 4              0.34        2.10044
         O 9  -- Sn 7              0.34        2.10083
         O 14 -- Sn 7              0.34        2.10091
         O 53 -- Sn 1              0.33        2.10259
         O 51 -- Sn 3              0.35        2.10286
         O 22 -- Sn 5              0.35        2.10351
         O 30 -- Sn 7              0.34        2.10433
         O 18 -- Sn 4              0.35        2.10461
         O 49 -- Sn 2              0.35        2.10467
         O 26 -- Sn 9              0.34        2.10515
         O 27 -- Sn 8              0.35        2.10531
         O 21 -- Sn 6              0.34        2.10538
         O 34 -- Sn 2              0.34        2.10685
         O 35 -- Sn 8              0.34        2.10701
         O 52 -- Sn 7              0.34        2.10744
         O 48 -- Sn 6              0.34        2.10760
         O 24 -- Sn 7              0.34        2.10788
         O 17 -- Sn 9              0.34        2.10820
         O 21 -- Sn 4              0.34        2.10830
         O 19 -- Sn 5              0.33        2.10836
         O 26 -- Sn 4              0.34        2.10852
         O 47 -- Sn 3              0.33        2.10853
         O 19 -- Sn 8              0.33        2.10897
         O 47 -- Sn 2              0.33        2.10960
         O 36 -- Sn 9              0.34        2.10975
         O 23 -- Sn 3              0.34        2.10993
         O 28 -- Sn 5              0.34        2.11019
         O 33 -- Sn 6              0.33        2.11021
         O 33 -- Sn 1              0.34        2.11062
         O 38 -- Zr 2              0.41        2.11088
         O 36 -- Sn 1              0.34        2.11092
         O 40 -- Sn 1              0.34        2.11103
         O 46 -- Sn 1              0.34        2.11105
         O 44 -- Sn 1              0.33        2.11240
         O 44 -- Sn 7              0.33        2.11300
         O 50 -- Zr 1              0.43        2.11326
         O 13 -- Zr 7              0.43        2.11327
         O 29 -- Zr 3              0.41        2.11330
         O 41 -- Sn 9              0.34        2.11368
         O 15 -- Sn 6              0.34        2.11388
         O 12 -- Sn 4              0.34        2.11397
         O 32 -- Sn 9              0.34        2.11402
         O 55 -- Sn 4              0.34        2.11416
         O 42 -- Zr 2              0.43        2.11425
         O 25 -- Zr 5              0.43        2.11457
         O 13 -- Zr 6              0.42        2.11459
         O 42 -- Zr 6              0.42        2.11492
         O 38 -- Zr 4              0.41        2.11492
         O 29 -- Zr 7              0.41        2.11506
         O 20 -- Zr 4              0.41        2.11518
         O 32 -- Sn 6              0.34        2.11552
         O 11 -- Sn 6              0.33        2.11562
         O 16 -- Sn 9              0.33        2.11566
         O 14 -- Zr 3              0.45        2.11662
         O 11 -- Sn 5              0.33        2.11665
         O 16 -- Sn 3              0.33        2.11682
[...]
         O 17 -- O 25             -0.03        2.82902
         O 20 -- O 28             -0.03        2.82902
         O 20 -- O 23             -0.03        2.82912
         O 54 -- O 56             -0.03        2.82912
         O 29 -- O 46             -0.03        2.82972
         O 20 -- O 49             -0.03        2.82984
         O 20 -- O 27             -0.03        2.83046
         O 43 -- O 51             -0.03        2.83144
         O 22 -- O 43             -0.03        2.83243
         O 46 -- O 49             -0.03        2.83314
         O 27 -- O 40             -0.03        2.83339
         O 51 -- O 55             -0.03        2.83592
         O 12 -- O 22             -0.03        2.83601
         O 17 -- O 24             -0.03        2.83603
         O 48 -- O 52             -0.03        2.83612

Initialisation time =     90.54 s
Calculation time    =   2910.48 s
Finalisation time   =      0.11 s
Total time          =   3001.13 s

Overall parallel efficiency rating: Satisfactory (68%)

Data was distributed by:-
G-vector (64-way); efficiency rating: Good (75%)
k-point (14-way); efficiency rating: Excellent (90%)