 Run started: Tue, 29 Mar 2022 13:24:14 -0100
 |           N   N    M   M    RRRR                |
 |           NN  N    MM MM    R   R               |
 |           N N N    M M M    RRRR                |
 |           N  NN    M   M    R  R                |
 |           N   N    M   M    R   R               |
 | Welcome to Materials Studio CASTEP-NMR          |
 | Authors:                                        |
 | J.R. Yates, C.J. Pickard, F. Mauri              |
 | Contributors:                                   |
 | T.F.G. Green, S.A. Joyce                        |
 | Copyright (c) 2004 - 2015                       |
 | Please cite the appropriate publications in all |
 | work arising from your use of CASTEP NMR.       |
 | For NMR Shielding Tensors cite:                 |
 |    "All-electron magnetic response with         |
 |    pseudopotentials: NMR chemical shifts",      |
 |    C. J. Pickard, F. Mauri;                     |
 |    Physical Review B63 245101 (2001), and       |
 |    "Calculation of NMR Chemical Shifts          |
 |    for extended systems using                   |
 |    Ultrasoft Pseudopotentials",                 |
 |    J. R. Yates, C. J. Pickard and F. Mauri      |
 |    Physical Review B76 024401 (2007)            |
 | For Electric Field Gradients cite:              |
 |   "Accurate First Principles Prediction of 17O  |
 |    NMR Parameters in SiO2: Assignment of the    |
 |    Zeolite Ferrierite Spectrum"                 |
 |    M. Profeta, F. Mauri and C. J. Pickard       |
 |    J. Amer. Chem. Soc. 125 541 (2003)           |
 | For Spin-Spin (J) Couplings cite:               |
 |   "A first principles theory of NMR J-coupling  |
 |   in solid-state systems"                       |
 |   S.A. Joyce, J.R. Yates, C.J. Pickard, F. Mauri|
 |   J. Chem. Phys. 127 204107 (2007)              |
 |   "Relativistic NMR J-coupling with ultrasoft   |
 |   pseudopotentials and the zeroth-order regular |
 |   approximation"                                |
 |   T.F.G. Green and J.R. Yates                   |
 |   J. Chem. Phys. 140 234106 (2014)              |

 Atomic calculation performed for O: 1s2 2s2 2p4

 Converged in 44 iterations to an ae energy of -2040.855 eV

[...]

 Exceeded max iterations: converged to 0.000000062 eV

   | Pseudopotential Report - Date of generation 29-03-2022   |
   | Element: O Ionic charge:  6.00 Level of theory: PBE      |
   | Atomic Solver: ZORA (scalar)                             |
   |               Reference Electronic Structure             |
   |         Orbital         Occupation         Energy        |
   |            2s              2.000           -0.881        |
   |            2p              4.000           -0.332        |
   |                 Pseudopotential Definition               |
   |        Beta     l      e      Rc     scheme   norm       |
   |          1      0   -0.881   1.100     qc      0         |
   |          2      0    0.250   1.100     qc      0         |
   |          3      1   -0.332   1.100     qc      0         |
   |          4      1    0.250   1.100     qc      0         |
   |         loc     2    0.000   1.100     pn      0         |
   | Augmentation charge Rinner = 0.769                       |
   | Partial core correction Rc = 0.769                       |
   | "2|1.1|15|18|20|20:21(qc=7)"                             |
   |      Author: Chris J. Pickard, Cambridge University      |

 Atomic calculation performed for Zr: 1s2 2s2 2p6 3s2 3p6 3d10 4s2 4p6 4d2 5s2

[...]

 Warning: ion_atom_descreen_psp: negative charge density encountered
   | Pseudopotential Report - Date of generation 29-03-2022   |
   | Element: Zr Ionic charge: 12.00 Level of theory: PBE     |
   | Atomic Solver: ZORA (scalar)                             |
   |               Reference Electronic Structure             |
   |         Orbital         Occupation         Energy        |
   |            4s              2.000           -2.003        |
   |            4p              6.000           -1.193        |
   |            5s              2.000           -0.163        |
   |            4d              2.000           -0.132        |
   |                 Pseudopotential Definition               |
   |        Beta     l      e      Rc     scheme   norm       |
   |          1      0   -2.003   2.105     qc      0         |
   |          2      0   -0.163   2.105     qc      0         |
   |          3      0    0.250   2.105     qc      0         |
   |          4      1   -1.193   2.105     qc      0         |
   |          5      1    0.250   2.105     qc      0         |
   |          6      2   -0.132   2.105     qc      0         |
   |          7      2    0.250   2.105     qc      0         |
   |         loc     3    0.000   2.105     pn      0         |
   | Augmentation charge Rinner = 1.471                       |
   | Partial core correction Rc = 1.471                       |
   | "3|2.1|7|8|9|40U:50:41:42"                               |
   |      Author: Chris J. Pickard, Cambridge University      |

 Atomic calculation performed for Sn:

[...]

   | Pseudopotential Report - Date of generation 29-03-2022   |
   | Element: Sn Ionic charge: 14.00 Level of theory: PBE     |
   | Atomic Solver: ZORA (scalar)                             |
   |               Reference Electronic Structure             |
   |         Orbital         Occupation         Energy        |
   |            4d             10.000           -0.950        |
   |            5s              2.000           -0.388        |
   |            5p              2.000           -0.136        |
   |                 Pseudopotential Definition               |
   |        Beta     l      e      Rc     scheme   norm       |
   |          1      0   -0.388   2.199     qc      0         |
   |          2      0    0.250   2.199     qc      0         |
   |          3      1   -0.136   2.199     qc      0         |
   |          4      1    0.250   2.199     qc      0         |
   |          5      2   -0.950   2.199     qc      0         |
   |          6      2    0.250   2.199     qc      0         |
   |         loc     3    0.000   2.199     pn      0         |
   | Augmentation charge Rinner = 1.537                       |
   | Partial core correction Rc = 1.537                       |
   | "3|2.2|7|8|9|50:51:42"                                   |
   |      Author: Chris J. Pickard, Cambridge University      |

 Atomic calculation performed for La:

[...]

 Warning: ion_atom_descreen_psp: negative charge density encountered
   | Pseudopotential Report - Date of generation 29-03-2022   |
   | Element: La Ionic charge: 11.00 Level of theory: PBE     |
   | Atomic Solver: ZORA (scalar)                             |
   |               Reference Electronic Structure             |
   |         Orbital         Occupation         Energy        |
   |            5s              2.000           -1.430        |
   |            5p              6.000           -0.823        |
   |            6s              2.000           -0.135        |
   |            5d              1.000           -0.114        |
   |                 Pseudopotential Definition               |
   |        Beta     l      e      Rc     scheme   norm       |
   |          1      0   -1.430   2.298     qc      0         |
   |          2      0   -0.135   2.298     qc      0         |
   |          3      0    0.250   2.298     qc      0         |
   |          4      1   -0.823   2.298     qc      0         |
   |          5      1    0.250   2.298     qc      0         |
   |          6      2   -0.114   2.298     qc      0         |
   |          7      2    0.250   2.298     qc      0         |
   |         loc     2    0.000   2.298     pn      0         |
   | Augmentation charge Rinner = 1.606                       |
   | Partial core correction Rc = 1.606                       |
   | "2|2.3|5|6|7|50U:60:51:52(qc=4.5)"                       |
   |      Author: Chris J. Pickard, Cambridge University      |

 Pseudo atomic calculation performed for O 2s2 2p4

 Converged in 39 iterations to a total energy of -432.6554 eV

 Pseudo atomic calculation performed for Zr 4s2 4p6 4d2 5s2

[...]

 Calculation parallelised over 896 processes.
 Data is distributed by G-vector(64-way) and k-point(14-way)

 ************************************ Title ************************************
 nmr testing

 ***************************** General Parameters ******************************

 output verbosity                               : normal  (1)
 write checkpoint data to                       : 77.check
 type of calculation                            : Magnetic Resonance
 stress calculation                             : on
 density difference calculation                 : off
 electron localisation func (ELF) calculation   : off
 Hirshfeld analysis                             : off
 unlimited duration calculation
 timing information                             : on
 write final potential to formatted file        : off
 write final density to formatted file          : off
 write BibTeX reference list                    : off
 write OTFG pseudopotential files               : on
 checkpoint writing                             : off

 output         length unit                     : A
 output           mass unit                     : amu
 output           time unit                     : ps
 output         charge unit                     : e
 output           spin unit                     : hbar/2
 output         energy unit                     : eV
 output          force unit                     : eV/A
 output       velocity unit                     : A/ps
 output       pressure unit                     : GPa
 output     inv_length unit                     : 1/A
 output      frequency unit                     : cm-1
 output force constant unit                     : eV/A**2
 output         volume unit                     : A**3
 output   IR intensity unit                     : (D/A)**2/amu
 output         dipole unit                     : D
 output         efield unit                     : eV/A/e
 output        entropy unit                     : J/mol/K

 wavefunctions paging                           : none
 random number generator seed                   : randomised (132415089)
 data distribution                              : optimal for this architecture
 optimization strategy                          : maximize speed(+++)

 *********************** Exchange-Correlation Parameters ***********************

 using functional                               : Perdew Burke Ernzerhof
 relativistic treatment                         : ZORA
 DFT+D: Semi-empirical dispersion correction    : off

 ************************* Pseudopotential Parameters **************************

 pseudopotential representation                 : reciprocal space
 <beta|phi> representation                      : reciprocal space
 spin-orbit coupling                            : off

 **************************** Basis Set Parameters *****************************

 plane wave basis set cut-off                   :   816.3416   eV
[...]
  |    O          40      -84.37      76.13      0.07  -3.211E+00   0.09 |
  |    O          41      -12.94      57.48      0.88   3.790E+00   0.92 |
  |    O          42      -90.65      88.42      0.14  -3.255E+00   0.12 |
  |    O          43      -87.55      89.07      0.06  -3.200E+00   0.07 |
  |    O          44      -84.49      76.72      0.07  -3.210E+00   0.09 |
  |    O          45     -161.27     160.58      0.83   1.107E+00   0.73 |
  |    O          46      -84.12      85.58      0.20  -3.121E+00   0.04 |
  |    O          47      -10.74      57.37      0.53   3.913E+00   0.85 |
  |    O          48      -87.67      84.88      0.24  -3.165E+00   0.08 |
  |    O          49      -87.34      86.26      0.11  -3.210E+00   0.07 |
  |    O          50      -83.83      84.60      0.33  -3.177E+00   0.09 |
  |    O          51      -81.21      84.88      0.22  -3.165E+00   0.04 |
  |    O          52     -159.00     152.96      0.79   1.105E+00   0.65 |
  |    O          53      -19.33      38.03      0.72   3.935E+00   0.84 |
  |    O          54     -162.42     149.90      0.79   1.018E+00   0.73 |
  |    O          55      -89.84      87.12      0.08  -3.163E+00   0.07 |
  |    O          56      -87.24      77.99      0.27  -3.239E+00   0.11 |
  |    Zr          1     1628.24    -123.90      0.02  -3.704E+01   0.17 |
  |    Zr          2     1615.66    -117.56      0.08  -3.615E+01   0.04 |
  |    Zr          3     1614.99    -117.64      0.05  -3.613E+01   0.05 |
  |    Zr          4     1634.02    -126.98      0.17  -3.786E+01   0.14 |
[...]
  |    La          2     4602.07     516.60      0.09  -7.711E+01   0.09 |
  |    La          3     4706.23     746.82      0.03  -8.538E+01   0.08 |
  |    La          4     4650.49     659.59      0.11  -8.085E+01   0.18 |
  |    La          5     4601.94     520.08      0.08  -7.735E+01   0.06 |
  |    La          6     4662.88     621.90      0.01  -8.258E+01   0.01 |
  |    La          7     4698.91     781.27      0.12  -8.348E+01   0.16 |
  |    La          8     4558.26     380.48      0.06  -7.590E+01   0.10 |
  |    La          9     4602.12     516.25      0.09  -7.706E+01   0.09 |
  |    La         10     4708.48     750.74      0.03  -8.538E+01   0.08 |
  |    La         11     4595.15     523.10      0.10  -7.579E+01   0.08 |
  |    La         12     4662.40     621.13      0.01  -8.254E+01   0.01 |
  |    La         13     4650.76     661.32      0.11  -8.098E+01   0.18 |
  |    La         14     4558.56     381.68      0.06  -7.601E+01   0.10 |
  |    La         15     4608.63     542.04      0.07  -7.953E+01   0.20 |
  |    La         16     4699.58     781.85      0.12  -8.350E+01   0.16 |

 *********************** Forces ***********************
 *            Cartesian components (eV/A)             *
 *                   x            y            z      *
 * O         1      0.01616     -0.00028     -0.00155 *
 * O         2     -0.02065      0.00023      0.00747 *
 * O         3      0.01857     -0.01114      0.01227 *
 * O         4     -0.01991     -0.00068      0.00096 *
 * O         5     -0.00382      0.00145     -0.00462 *
 * O         6     -0.00475      0.01187     -0.00178 *
 * O         7      0.00997     -0.00896      0.00291 *
 * O         8      0.01233      0.00276      0.00084 *
 * O         9     -0.00254      0.00781     -0.01940 *
 * O        10     -0.02326      0.01119     -0.00918 *
 * O        11      0.03441     -0.00639      0.00823 *
 * O        12     -0.01380     -0.00073     -0.00389 *
 * O        13      0.00607      0.00361     -0.00298 *
 * O        14     -0.00630      0.00592     -0.00584 *
 * O        15     -0.01836     -0.00030      0.01154 *
 * O        16      0.00833      0.00227      0.01224 *
 * O        17      0.01048      0.02162      0.00551 *
 * O        18      0.00579     -0.00806      0.00094 *
 * O        19     -0.00392      0.02040     -0.02775 *
 * O        20     -0.01125      0.00359     -0.00409 *
 * O        21      0.00660     -0.01121      0.00591 *
 * O        22     -0.00007      0.00219     -0.00865 *
 * O        23      0.00553     -0.01459      0.01624 *
 * O        24      0.00524     -0.01051      0.00580 *
 * O        25      0.00150     -0.00758      0.00627 *
 * O        26      0.00208     -0.00997      0.00877 *
 * O        27     -0.00104     -0.00298      0.00222 *
 * O        28      0.02767     -0.00726      0.00683 *
 * O        29     -0.00521     -0.01725     -0.00097 *
 * O        30      0.00266     -0.01646      0.01733 *
 * O        31      0.01211     -0.00607      0.01094 *
 * O        32      0.00197     -0.00606      0.01656 *
 * O        33      0.01296     -0.00193      0.00622 *
 * O        34      0.01001     -0.00972      0.00272 *
 * O        35      0.00708     -0.00595     -0.00244 *
 * O        36     -0.00835     -0.01234      0.00408 *
 * O        37      0.00194      0.00587     -0.00240 *
 * O        38      0.00944      0.00120      0.00733 *
 * O        39      0.00713     -0.00656     -0.01659 *
 * O        40     -0.02012      0.01482     -0.01463 *
 * O        41     -0.01553      0.00820      0.00762 *
 * O        42     -0.02608      0.01208     -0.01492 *
 * O        43      0.00714      0.01809      0.00262 *
 * O        44     -0.01548      0.01068     -0.01214 *
 * O        45     -0.00099      0.01062     -0.01853 *
 * O        46      0.00422      0.01369     -0.01120 *
 * O        47      0.00574      0.00402     -0.00320 *
 * O        48     -0.02274     -0.01556      0.00660 *
 * O        49     -0.00282      0.00453      0.01646 *
 * O        50      0.01317     -0.01118      0.01038 *
 * O        51      0.00054     -0.00174      0.00252 *
 * O        52     -0.00008     -0.00270      0.00945 *
 * O        53     -0.00648     -0.00153      0.01218 *
 * O        54      0.00445     -0.00630      0.00758 *
 * O        55      0.00973     -0.00369     -0.02281 *
 * O        56     -0.00517      0.02176     -0.01858 *
 * Zr        1      0.00674     -0.00454     -0.00841 *
 * Zr        2     -0.01012     -0.01011      0.00087 *
 * Zr        3      0.01177      0.01669     -0.00227 *
 * Zr        4      0.00980     -0.01044     -0.00244 *
[...]
 * La        2      0.02429      0.02146     -0.02385 *
 * La        3     -0.03055      0.02157     -0.02170 *
 * La        4      0.00155      0.00150     -0.00112 *
 * La        5     -0.02652     -0.01520      0.01296 *
 * La        6      0.02140     -0.00753      0.01955 *
 * La        7      0.01924     -0.00551     -0.00875 *
 * La        8     -0.00744      0.00339     -0.00289 *
 * La        9      0.01885      0.01576     -0.01888 *
 * La       10     -0.01900     -0.00216     -0.00497 *
 * La       11     -0.02806     -0.01904      0.02576 *
 * La       12      0.02256     -0.01400      0.01861 *
 * La       13      0.00121      0.00017     -0.00907 *
 * La       14     -0.00783     -0.00158     -0.00315 *
 * La       15     -0.01042      0.00583      0.01136 *
 * La       16      0.01786      0.01760      0.00984 *

 ***************** Stress Tensor *****************
 *          Cartesian components (GPa)           *
 *             x             y             z     *
 *  x      0.024758     -0.024296      0.021989  *
 *  y     -0.024296      0.056282      0.004631  *
 *  z      0.021989      0.004631      0.050477  *
 *  Pressure:   -0.0438                          *

[...]

 Pseudo atomic calculation performed for Sn 4d10 5s2 5p2

[...]

 Pseudo atomic calculation performed for La 5s2 5p6 5d1 6s2

 Converged in 30 iterations to a total energy of -968.0373 eV

Charge spilling parameter for spin component 1 = 0.25%

     Atomic Populations (Mulliken)
Species   Ion     s      p      d      f     Total  Charge (e)
  O        1     1.87   5.00   0.00   0.00   6.87    -0.87
  O        2     1.87   5.00   0.00   0.00   6.87    -0.87
  O        3     1.87   5.00   0.00   0.00   6.87    -0.87
  O        4     1.87   5.00   0.00   0.00   6.87    -0.87
  O        5     1.87   5.00   0.00   0.00   6.87    -0.87
  O        6     1.87   5.00   0.00   0.00   6.87    -0.87
  O        7     1.87   5.00   0.00   0.00   6.87    -0.87
  O        8     1.87   5.00   0.00   0.00   6.87    -0.87
  O        9     1.86   4.95   0.00   0.00   6.80    -0.80
  O       10     1.87   4.99   0.00   0.00   6.86    -0.86
  O       11     1.88   5.02   0.00   0.00   6.91    -0.91
  O       12     1.88   5.02   0.00   0.00   6.91    -0.91
  O       13     1.88   5.03   0.00   0.00   6.91    -0.91
  O       14     1.86   4.95   0.00   0.00   6.80    -0.80
  O       15     1.87   4.99   0.00   0.00   6.86    -0.86
  O       16     1.88   5.03   0.00   0.00   6.91    -0.91
  O       17     1.87   4.99   0.00   0.00   6.86    -0.86
  O       18     1.88   5.03   0.00   0.00   6.91    -0.91
  O       19     1.87   4.99   0.00   0.00   6.86    -0.86
  O       20     1.86   4.95   0.00   0.00   6.80    -0.80
  O       21     1.88   5.02   0.00   0.00   6.91    -0.91
  O       22     1.88   5.02   0.00   0.00   6.91    -0.91
  O       23     1.87   4.99   0.00   0.00   6.86    -0.86
  O       24     1.86   4.95   0.00   0.00   6.80    -0.80
  O       25     1.87   4.99   0.00   0.00   6.86    -0.86
  O       26     1.88   5.03   0.00   0.00   6.91    -0.91
  O       27     1.86   4.95   0.00   0.00   6.80    -0.80
  O       28     1.87   4.99   0.00   0.00   6.86    -0.86
  O       29     1.87   4.99   0.00   0.00   6.86    -0.86
  O       30     1.87   4.99   0.00   0.00   6.86    -0.86
  O       31     1.87   4.99   0.00   0.00   6.86    -0.86
  O       32     1.88   5.03   0.00   0.00   6.91    -0.91
  O       33     1.88   5.03   0.00   0.00   6.91    -0.91
  O       34     1.88   5.02   0.00   0.00   6.91    -0.91
  O       35     1.86   4.95   0.00   0.00   6.80    -0.80
  O       36     1.88   5.03   0.00   0.00   6.91    -0.91
  O       37     1.88   5.02   0.00   0.00   6.91    -0.91
  O       38     1.86   4.95   0.00   0.00   6.80    -0.80
  O       39     1.87   4.99   0.00   0.00   6.86    -0.86
  O       40     1.87   4.99   0.00   0.00   6.86    -0.86
  O       41     1.88   5.02   0.00   0.00   6.91    -0.91
  O       42     1.87   4.99   0.00   0.00   6.86    -0.86
  O       43     1.87   4.99   0.00   0.00   6.86    -0.86
  O       44     1.87   4.99   0.00   0.00   6.86    -0.86
  O       45     1.86   4.95   0.00   0.00   6.80    -0.80
  O       46     1.87   4.99   0.00   0.00   6.86    -0.86
  O       47     1.88   5.03   0.00   0.00   6.91    -0.91
  O       48     1.87   4.99   0.00   0.00   6.86    -0.86
  O       49     1.87   4.99   0.00   0.00   6.86    -0.86
  O       50     1.87   4.99   0.00   0.00   6.86    -0.86
  O       51     1.87   4.99   0.00   0.00   6.86    -0.86
  O       52     1.86   4.95   0.00   0.00   6.80    -0.80
  O       53     1.88   5.03   0.00   0.00   6.91    -0.91
  O       54     1.86   4.95   0.00   0.00   6.80    -0.80
  O       55     1.87   4.99   0.00   0.00   6.86    -0.86
  O       56     1.87   4.99   0.00   0.00   6.86    -0.86
  Zr       1     2.37   6.48   1.92   0.00  10.77     1.23
  Zr       2     2.36   6.49   1.92   0.00  10.77     1.23
  Zr       3     2.36   6.49   1.92   0.00  10.77     1.23
  Zr       4     2.36   6.47   1.93   0.00  10.76     1.24
[...]
  La       2     2.10   6.18   1.19   0.00   9.48     1.52
  La       3     2.02   6.17   1.19   0.00   9.38     1.62
  La       4     2.06   6.17   1.19   0.00   9.42     1.58
  La       5     2.10   6.18   1.19   0.00   9.48     1.52
  La       6     2.05   6.18   1.19   0.00   9.42     1.58
  La       7     2.03   6.15   1.20   0.00   9.38     1.62
  La       8     2.11   6.20   1.19   0.00   9.51     1.49
  La       9     2.10   6.18   1.19   0.00   9.48     1.52
  La      10     2.02   6.16   1.19   0.00   9.38     1.62
  La      11     2.09   6.18   1.19   0.00   9.47     1.53
  La      12     2.05   6.18   1.19   0.00   9.42     1.58
  La      13     2.06   6.17   1.19   0.00   9.42     1.58
  La      14     2.11   6.20   1.19   0.00   9.50     1.50
  La      15     2.09   6.18   1.19   0.00   9.46     1.54
  La      16     2.03   6.15   1.20   0.00   9.38     1.62

            Bond              Population      Length (A)
         O 42 -- Sn 7              0.35        2.09824
         O 10 -- Sn 3              0.35        2.09837
         O 29 -- Sn 8              0.35        2.10167
         O 43 -- Sn 8              0.35        2.10169
         O 49 -- Sn 2              0.35        2.10196
         O 39 -- Sn 2              0.35        2.10215
         O 56 -- Sn 5              0.34        2.10326
         O 19 -- Sn 5              0.34        2.10373
         O 28 -- Sn 5              0.34        2.10436
         O 36 -- Sn 9              0.34        2.10541
         O 53 -- Sn 4              0.34        2.10552
         O 33 -- Sn 6              0.33        2.10580
         O 55 -- Sn 4              0.34        2.10594
         O 33 -- Sn 1              0.34        2.10596
         O 17 -- Sn 9              0.34        2.10644
         O 23 -- Sn 3              0.34        2.10649
         O 40 -- Sn 1              0.34        2.10694
         O 30 -- Sn 7              0.34        2.10697
         O 15 -- Sn 6              0.34        2.10710
         O 48 -- Sn 6              0.34        2.10721
         O 44 -- Sn 1              0.34        2.10741
         O 45 -- Zr 7              0.41        2.10792
         O 53 -- Sn 1              0.34        2.10800
         O 36 -- Sn 1              0.34        2.10817
         O 13 -- Sn 8              0.33        2.10837
         O 47 -- Sn 2              0.33        2.10864
         O 50 -- Sn 7              0.34        2.10893
         O 16 -- Sn 9              0.34        2.10902
         O 31 -- Sn 3              0.34        2.10909
         O 18 -- Sn 4              0.34        2.10924
         O 25 -- Sn 7              0.35        2.10926
         O 51 -- Sn 3              0.35        2.10935
         O 13 -- Sn 7              0.33        2.10956
         O 47 -- Sn 3              0.33        2.10972
         O 45 -- Zr 1              0.41        2.11104
         O 32 -- Sn 6              0.34        2.11117
         O 9  -- Zr 6              0.42        2.11126
         O 21 -- Sn 6              0.34        2.11144
         O 37 -- Sn 5              0.34        2.11168
         O 32 -- Sn 9              0.34        2.11181
         O 22 -- Sn 8              0.33        2.11223
         O 22 -- Sn 5              0.34        2.11229
         O 37 -- Sn 2              0.33        2.11251
         O 21 -- Sn 4              0.34        2.11271
         O 18 -- Sn 7              0.33        2.11316
         O 9  -- Zr 4              0.42        2.11325
         O 16 -- Sn 3              0.33        2.11348
         O 46 -- Sn 1              0.34        2.11369
         O 52 -- Zr 1              0.42        2.11370
         O 26 -- Sn 9              0.33        2.11434
         O 24 -- Zr 5              0.43        2.11442
         O 26 -- Sn 4              0.33        2.11450
         O 27 -- Zr 4              0.42        2.11460
         O 10 -- Zr 5              0.44        2.11467
         O 14 -- Zr 3              0.43        2.11518
         O 52 -- Zr 6              0.42        2.11539
         O 42 -- Zr 2              0.44        2.11549
         O 27 -- Zr 7              0.42        2.11664
         O 28 -- Zr 3              0.44        2.11692
         O 34 -- Sn 8              0.33        2.11701
[...]
         O 20 -- O 49             -0.03        2.82827
         O 39 -- O 54             -0.03        2.82831
         O 17 -- O 24             -0.03        2.82842
         O 35 -- O 43             -0.03        2.82872
         O 14 -- O 29             -0.03        2.82882
         O 15 -- O 27             -0.03        2.83254
         O 48 -- O 52             -0.03        2.83290
         O 15 -- O 31             -0.03        2.83553
         O 48 -- O 50             -0.03        2.83574
         O 51 -- O 55             -0.03        2.83701
         O 25 -- O 39             -0.03        2.83717
         O 43 -- O 51             -0.03        2.83722
         O 17 -- O 25             -0.03        2.83726
         O 46 -- O 49             -0.03        2.83730
         O 29 -- O 46             -0.03        2.83741

Initialisation time =     26.22 s
Calculation time    =   2897.10 s
Finalisation time   =      0.13 s
Total time          =   2923.44 s

Overall parallel efficiency rating: Satisfactory (69%)

Data was distributed by:-
G-vector (64-way); efficiency rating: Good (75%)
k-point (14-way); efficiency rating: Very good (89%)