 Compiled for linux_x86_64_ifort17 on Mon, 09 Apr 2018 23:35:31 +0100
 from code version
 203e84763863+ Castep161_branch Fri, 04 Mar 2016 19:21:07 +0000
 Compiler: Intel Fortran 17.0.1.132; Optimisation: fast
 MATHLIBS: Intel MKL(2017.0.1) (LAPACK version 3.6.0)
 FFT Lib : mkl
 Fundamental constants values: CODATA 2010

 Run started: Thu, 10 Sep 2020 14:40:55 +0100
 |           N   N    M   M    RRRR                |
 |           NN  N    MM MM    R   R               |
 |           N N N    M M M    RRRR                |
 |           N  NN    M   M    R  R                |
 |           N   N    M   M    R   R               |
 | Welcome to Materials Studio CASTEP-NMR          |
 | Authors:                                        |
 | J.R. Yates, C.J. Pickard, F. Mauri              |
 | Contributors:                                   |
 | T.F.G. Green, S.A. Joyce                        |
 | Copyright (c) 2004 - 2015                       |
 | Please cite the appropriate publications in all |
 | work arising from your use of CASTEP NMR.       |
 | For NMR Shielding Tensors cite:                 |
 |    "All-electron magnetic response with         |
 |    pseudopotentials: NMR chemical shifts",      |
 |    C. J. Pickard, F. Mauri;                     |
 |    Physical Review B63 245101 (2001), and       |
 |    "Calculation of NMR Chemical Shifts          |
 |    for extended systems using                   |
 |    Ultrasoft Pseudopotentials",                 |
 |    J. R. Yates, C. J. Pickard and F. Mauri      |
 |    Physical Review B76 024401 (2007)            |
 | For Electric Field Gradients cite:              |
 |   "Accurate First Principles Prediction of 17O  |
 |    NMR Parameters in SiO2: Assignment of the    |
 |    Zeolite Ferrierite Spectrum"                 |
 |    M. Profeta, F. Mauri and C. J. Pickard       |
 |    J. Amer. Chem. Soc. 125 541 (2003)           |
 | For Spin-Spin (J) Couplings cite:               |
 |   "A first principles theory of NMR J-coupling  |
 |   in solid-state systems"                       |
 |   S.A. Joyce, J.R. Yates, C.J. Pickard, F. Mauri|
 |   J. Chem. Phys. 127 204107 (2007)              |
 |   "Relativistic NMR J-coupling with ultrasoft   |
 |   pseudopotentials and the zeroth-order regular |
 |   approximation"                                |
 |   T.F.G. Green and J.R. Yates                   |
 |   J. Chem. Phys. 140 234106 (2014)              |

 Atomic calculation performed for O: 1s2 2s2 2p4

 Converged in 44 iterations to an ae energy of -2040.855 eV

 Atomic calculation performed for O: 1s2 2s2 2p4

 Exceeded max iterations: converged to 0.000000062 eV

   | Pseudopotential Report - Date of generation 10-09-2020   |
   | Element: O Ionic charge:  6.00 Level of theory: PBE      |
   | Atomic Solver: ZORA (scalar)                             |
   |               Reference Electronic Structure             |
   |         Orbital         Occupation         Energy        |
   |            2s              2.000           -0.881        |
   |            2p              4.000           -0.332        |
   |                 Pseudopotential Definition               |
   |        Beta     l      e      Rc     scheme   norm       |
   |          1      0   -0.881   1.100     qc      0         |
   |          2      0    0.250   1.100     qc      0         |
   |          3      1   -0.332   1.100     qc      0         |
   |          4      1    0.250   1.100     qc      0         |
   |         loc     2    0.000   1.100     pn      0         |
   | Augmentation charge Rinner = 0.769                       |
   | Partial core correction Rc = 0.769                       |
   | "2|1.1|15|18|20|20:21(qc=7)"                             |
   |      Author: Chris J. Pickard, Cambridge University      |

 Atomic calculation performed for Zr: 1s2 2s2 2p6 3s2 3p6 3d10 4s2 4p6 4d2 5s2

[...]

 Atomic calculation performed for Zr: 1s2 2s2 2p6 3s2 3p6 3d10 4s2 4p6 4d2 5s2

[...]

 Warning: ion_atom_descreen_psp: negative charge density encountered
   | Pseudopotential Report - Date of generation 10-09-2020   |
   | Element: Zr Ionic charge: 12.00 Level of theory: PBE     |
   | Atomic Solver: ZORA (scalar)                             |
   |               Reference Electronic Structure             |
   |         Orbital         Occupation         Energy        |
   |            4s              2.000           -2.003        |
   |            4p              6.000           -1.193        |
   |            5s              2.000           -0.163        |
   |            4d              2.000           -0.132        |
   |                 Pseudopotential Definition               |
   |        Beta     l      e      Rc     scheme   norm       |
   |          1      0   -2.003   2.105     qc      0         |
   |          2      0   -0.163   2.105     qc      0         |
   |          3      0    0.250   2.105     qc      0         |
   |          4      1   -1.193   2.105     qc      0         |
   |          5      1    0.250   2.105     qc      0         |
   |          6      2   -0.132   2.105     qc      0         |
   |          7      2    0.250   2.105     qc      0         |
   |         loc     3    0.000   2.105     pn      0         |
   | Augmentation charge Rinner = 1.471                       |
   | Partial core correction Rc = 1.471                       |
   | "3|2.1|7|8|9|40U:50:41:42"                               |
   |      Author: Chris J. Pickard, Cambridge University      |

 Atomic calculation performed for Sn:

[...]

 Atomic calculation performed for Sn:

[...]

   | Pseudopotential Report - Date of generation 10-09-2020   |
   | Element: Sn Ionic charge: 14.00 Level of theory: PBE     |
   | Atomic Solver: ZORA (scalar)                             |
   |               Reference Electronic Structure             |
   |         Orbital         Occupation         Energy        |
   |            4d             10.000           -0.950        |
   |            5s              2.000           -0.388        |
   |            5p              2.000           -0.136        |
   |                 Pseudopotential Definition               |
   |        Beta     l      e      Rc     scheme   norm       |
   |          1      0   -0.388   2.199     qc      0         |
   |          2      0    0.250   2.199     qc      0         |
   |          3      1   -0.136   2.199     qc      0         |
   |          4      1    0.250   2.199     qc      0         |
   |          5      2   -0.950   2.199     qc      0         |
   |          6      2    0.250   2.199     qc      0         |
   |         loc     3    0.000   2.199     pn      0         |
   | Augmentation charge Rinner = 1.537                       |
   | Partial core correction Rc = 1.537                       |
   | "3|2.2|7|8|9|50:51:42"                                   |
   |      Author: Chris J. Pickard, Cambridge University      |

 Atomic calculation performed for La:

 Converged in 56 iterations to an ae energy of -230121.495 eV

 Atomic calculation performed for La:

 Exceeded max iterations: converged to 0.000000907 eV

 Warning: ion_atom_descreen_psp: negative charge density encountered
   | Pseudopotential Report - Date of generation 10-09-2020   |
   | Element: La Ionic charge: 11.00 Level of theory: PBE     |
   | Atomic Solver: ZORA (scalar)                             |
   |               Reference Electronic Structure             |
   |         Orbital         Occupation         Energy        |
   |            5s              2.000           -1.430        |
   |            5p              6.000           -0.823        |
   |            6s              2.000           -0.135        |
   |            5d              1.000           -0.114        |
   |                 Pseudopotential Definition               |
   |        Beta     l      e      Rc     scheme   norm       |
   |          1      0   -1.430   2.298     qc      0         |
   |          2      0   -0.135   2.298     qc      0         |
   |          3      0    0.250   2.298     qc      0         |
   |          4      1   -0.823   2.298     qc      0         |
   |          5      1    0.250   2.298     qc      0         |
   |          6      2   -0.114   2.298     qc      0         |
   |          7      2    0.250   2.298     qc      0         |
   |         loc     2    0.000   2.298     pn      0         |
   | Augmentation charge Rinner = 1.606                       |
   | Partial core correction Rc = 1.606                       |
   | "2|2.3|5|6|7|50U:60:51:52(qc=4.5)"                       |
   |      Author: Chris J. Pickard, Cambridge University      |

 Pseudo atomic calculation performed for O 2s2 2p4

 Converged in 39 iterations to a total energy of -432.6554 eV

 Pseudo atomic calculation performed for Zr 4s2 4p6 4d2 5s2

[...]

 Calculation parallelised over 336 processes.
 Data is distributed by G-vector(24-way) and k-point(14-way)

 ************************************ Title ************************************
 nmr testing

 ***************************** General Parameters ******************************

 output verbosity                               : normal  (1)
 write checkpoint data to                       : Zr11_02_nmr.check
 type of calculation                            : Magnetic Resonance
 stress calculation                             : on
 density difference calculation                 : off
 electron localisation func (ELF) calculation   : off
 Hirshfeld analysis                             : off
 unlimited duration calculation
 timing information                             : on
 write final potential to formatted file        : off
 write final density to formatted file          : off
 write BibTeX reference list                    : on
 write OTFG pseudopotential files               : on
 checkpoint writing                             : both castep_bin and check files

 output         length unit                     : A
 output           mass unit                     : amu
 output           time unit                     : ps
 output         charge unit                     : e
 output           spin unit                     : hbar/2
 output         energy unit                     : eV
 output          force unit                     : eV/A
 output       velocity unit                     : A/ps
 output       pressure unit                     : GPa
 output     inv_length unit                     : 1/A
 output      frequency unit                     : cm-1
 output force constant unit                     : eV/A**2
 output         volume unit                     : A**3
 output   IR intensity unit                     : (D/A)**2/amu
 output         dipole unit                     : D
 output         efield unit                     : eV/A/e
 output        entropy unit                     : J/mol/K

 wavefunctions paging                           : none
 random number generator seed                   : randomised (144055452)
 data distribution                              : optimal for this architecture
 optimization strategy                          : maximize speed(+++)

[...]
  |    O          42      -85.55      87.44      0.10  -3.143E+00   0.09 |
  |    O          43     -164.27     156.45      0.82   1.084E+00   0.90 |
  |    O          44      -86.73      90.19      0.39  -3.080E+00   0.10 |
  |    O          45      -88.75      91.14      0.20  -3.212E+00   0.10 |
  |    O          46     -164.51     157.06      0.82   1.051E+00   0.90 |
  |    O          47     -166.84     160.90      0.80   1.055E+00   0.98 |
  |    O          48      -89.13      90.28      0.31  -3.115E+00   0.10 |
  |    O          49     -164.69     155.45      0.75   1.055E+00   0.89 |
  |    O          50      -87.90      90.42      0.29  -3.146E+00   0.10 |
  |    O          51     -164.43     156.87      0.80   1.048E+00   0.91 |
  |    O          52      -88.97      92.54      0.18  -3.198E+00   0.10 |
  |    O          53     -167.16     159.06      0.82   1.026E+00   0.99 |
  |    O          54     -165.78     158.18      0.83   1.035E+00   0.91 |
  |    O          55     -164.59     154.55      0.80   1.036E+00   0.91 |
  |    O          56     -165.07     159.57      0.85   1.066E+00   0.87 |
  |    Zr          1     1621.84    -124.78      0.12  -3.750E+01   0.05 |
  |    Zr          2     1632.11    -127.57      0.12  -3.915E+01   0.10 |
  |    Zr          3     1627.01    -127.90      0.13  -3.824E+01   0.02 |
  |    Zr          4     1628.25    -124.58      0.13  -4.020E+01   0.08 |
[...]
  |    La          2     4707.10     770.81      0.03  -8.338E+01   0.06 |
  |    La          3     4753.44     868.85      0.03  -8.440E+01   0.04 |
  |    La          4     4713.27     757.70      0.02  -8.317E+01   0.04 |
  |    La          5     4660.45     656.64      0.01  -8.134E+01   0.03 |
  |    La          6     4707.49     763.79      0.04  -8.243E+01   0.05 |
  |    La          7     4800.94     957.22      0.01  -8.732E+01   0.03 |
  |    La          8     4706.82     761.85      0.03  -8.238E+01   0.07 |
  |    La          9     4752.50     868.24      0.05  -8.472E+01   0.08 |
  |    La         10     4707.21     764.62      0.04  -8.235E+01   0.06 |
  |    La         11     4701.89     759.69      0.05  -8.055E+01   0.09 |
  |    La         12     4653.36     634.66      0.00  -7.738E+01   0.03 |
  |    La         13     4659.94     655.54      0.09  -7.932E+01   0.13 |
  |    La         14     4708.11     750.16      0.04  -8.079E+01   0.09 |
  |    La         15     4709.38     766.17      0.04  -8.221E+01   0.07 |
  |    La         16     4655.48     668.65      0.11  -7.868E+01   0.15 |

 *********************** Forces ***********************
 *            Cartesian components (eV/A)             *
 *                   x            y            z      *
 * O         1     -0.00975     -0.00797     -0.00301 *
 * O         2     -0.00868      0.01218      0.01360 *
 * O         3     -0.00471     -0.00600      0.01405 *
 * O         4      0.00135      0.00692      0.00464 *
 * O         5      0.00585      0.00085     -0.00345 *
 * O         6      0.01254      0.00355      0.01014 *
 * O         7      0.00460     -0.00401     -0.01533 *
 * O         8      0.00566      0.00267     -0.01152 *
 * O         9     -0.00246      0.01038      0.01963 *
 * O        10     -0.00757      0.02064      0.00515 *
 * O        11      0.00035      0.02043     -0.03144 *
 * O        12      0.01439      0.01494      0.00384 *
 * O        13      0.01526     -0.00968      0.02328 *
 * O        14     -0.01531      0.00318      0.02478 *
 * O        15      0.00208      0.00769     -0.00217 *
 * O        16     -0.01311     -0.00524     -0.02025 *
 * O        17     -0.01032     -0.00936     -0.00376 *
 * O        18      0.00917     -0.01004      0.00302 *
 * O        19     -0.01787      0.02580     -0.01239 *
 * O        20     -0.01035      0.00297      0.01186 *
 * O        21     -0.01378      0.00411      0.01554 *
 * O        22     -0.00727     -0.00662     -0.00571 *
 * O        23      0.00199     -0.01099     -0.00346 *
 * O        24      0.01178      0.00880     -0.01800 *
 * O        25      0.00165      0.01654     -0.01441 *
 * O        26     -0.00547      0.01943      0.01348 *
 * O        27      0.00593     -0.01807     -0.00604 *
 * O        28     -0.00217     -0.00532     -0.01409 *
 * O        29     -0.00767     -0.00665     -0.00436 *
 * O        30      0.00028     -0.00120     -0.00787 *
 * O        31      0.00960     -0.02246     -0.00044 *
 * O        32      0.00170     -0.00337      0.01327 *
 * O        33      0.00131     -0.02634      0.01668 *
 * O        34     -0.01196     -0.00773     -0.00910 *
 * O        35      0.01341     -0.00503     -0.01252 *
 * O        36      0.01917     -0.00319      0.02332 *
 * O        37     -0.00514     -0.00024      0.00378 *
 * O        38     -0.00400     -0.00168     -0.00819 *
 * O        39      0.01525     -0.01762     -0.00424 *
 * O        40      0.01147      0.00933      0.00325 *
 * O        41     -0.00618     -0.02134     -0.02622 *
 * O        42      0.01140     -0.01240      0.02170 *
 * O        43      0.01022      0.00351      0.01596 *
 * O        44     -0.00810      0.01247      0.00256 *
 * O        45      0.00691      0.00677      0.01697 *
 * O        46     -0.01006     -0.01454     -0.00190 *
 * O        47     -0.00111     -0.01240     -0.01828 *
 * O        48      0.01547      0.01334      0.00106 *
 * O        49      0.00007      0.00431      0.01148 *
 * O        50     -0.01466     -0.00508     -0.01865 *
 * O        51      0.01244      0.00230      0.01513 *
 * O        52     -0.00394     -0.01149     -0.01068 *
 * O        53      0.00561      0.00613      0.01907 *
 * O        54      0.00477     -0.00077     -0.00892 *
 * O        55     -0.00493     -0.01208     -0.00764 *
 * O        56     -0.01728      0.00820     -0.00700 *
 * Zr        1     -0.00885      0.01995     -0.02494 *
 * Zr        2      0.00095     -0.00383      0.00111 *
 * Zr        3     -0.00210      0.01046      0.00156 *
 * Zr        4     -0.01444      0.01259      0.00328 *
[...]
 * La        2      0.00577     -0.01148     -0.00791 *
 * La        3     -0.00715      0.00599      0.01110 *
 * La        4     -0.00010     -0.00482      0.00749 *
 * La        5     -0.00079      0.00553      0.00495 *
 * La        6      0.00088     -0.00665     -0.00371 *
 * La        7     -0.00189     -0.00645      0.00422 *
 * La        8     -0.00105      0.00636     -0.00207 *
 * La        9     -0.00811     -0.01072     -0.01693 *
 * La       10      0.00670      0.01232      0.00832 *
 * La       11      0.00297      0.02370      0.02233 *
 * La       12     -0.00245     -0.01645     -0.01611 *
 * La       13      0.00915     -0.00708      0.00376 *
 * La       14     -0.00888      0.00161     -0.00980 *
 * La       15      0.00816      0.01523     -0.00327 *
 * La       16     -0.00294     -0.00511      0.01043 *

 ***************** Stress Tensor *****************
 *          Cartesian components (GPa)           *
 *             x             y             z     *
 *  x     -0.021180     -0.038667     -0.000279  *
 *  y     -0.038667      0.011812      0.036841  *
 *  z     -0.000279      0.036841      0.064550  *
 *  Pressure:   -0.0184                          *

[...]

 Pseudo atomic calculation performed for Sn 4d10 5s2 5p2

[...]

 Pseudo atomic calculation performed for La 5s2 5p6 5d1 6s2

 Converged in 34 iterations to a total energy of -968.0372 eV

Charge spilling parameter for spin component 1 = 0.23%

     Atomic Populations (Mulliken)
Species   Ion     s      p      d      f     Total  Charge (e)
  O        1     1.87   5.00   0.00   0.00   6.87    -0.87
  O        2     1.87   5.00   0.00   0.00   6.87    -0.87
  O        3     1.87   5.00   0.00   0.00   6.87    -0.87
  O        4     1.87   5.00   0.00   0.00   6.87    -0.87
  O        5     1.87   5.00   0.00   0.00   6.87    -0.87
  O        6     1.87   5.00   0.00   0.00   6.87    -0.87
  O        7     1.87   5.00   0.00   0.00   6.87    -0.87
  O        8     1.87   5.00   0.00   0.00   6.87    -0.87
  O        9     1.87   4.98   0.00   0.00   6.85    -0.85
  O       10     1.86   4.94   0.00   0.00   6.80    -0.80
  O       11     1.87   4.99   0.00   0.00   6.85    -0.85
  O       12     1.86   4.94   0.00   0.00   6.80    -0.80
  O       13     1.87   4.99   0.00   0.00   6.85    -0.85
  O       14     1.87   4.99   0.00   0.00   6.85    -0.85
  O       15     1.88   5.02   0.00   0.00   6.90    -0.90
  O       16     1.87   4.98   0.00   0.00   6.85    -0.85
  O       17     1.87   4.98   0.00   0.00   6.85    -0.85
  O       18     1.87   4.98   0.00   0.00   6.85    -0.85
  O       19     1.87   4.99   0.00   0.00   6.85    -0.85
  O       20     1.86   4.94   0.00   0.00   6.80    -0.80
  O       21     1.87   4.99   0.00   0.00   6.85    -0.85
  O       22     1.86   4.94   0.00   0.00   6.80    -0.80
  O       23     1.86   4.94   0.00   0.00   6.80    -0.80
  O       24     1.87   4.99   0.00   0.00   6.85    -0.85
  O       25     1.87   4.99   0.00   0.00   6.85    -0.85
  O       26     1.87   4.99   0.00   0.00   6.85    -0.85
  O       27     1.87   4.98   0.00   0.00   6.85    -0.85
  O       28     1.86   4.94   0.00   0.00   6.80    -0.80
  O       29     1.86   4.94   0.00   0.00   6.80    -0.80
  O       30     1.88   5.02   0.00   0.00   6.91    -0.91
  O       31     1.87   4.98   0.00   0.00   6.85    -0.85
  O       32     1.88   5.02   0.00   0.00   6.90    -0.90
  O       33     1.87   4.99   0.00   0.00   6.85    -0.85
  O       34     1.86   4.94   0.00   0.00   6.80    -0.80
  O       35     1.87   4.98   0.00   0.00   6.85    -0.85
  O       36     1.87   4.99   0.00   0.00   6.85    -0.85
  O       37     1.86   4.94   0.00   0.00   6.80    -0.80
  O       38     1.86   4.95   0.00   0.00   6.80    -0.80
  O       39     1.86   4.94   0.00   0.00   6.80    -0.80
  O       40     1.86   4.94   0.00   0.00   6.80    -0.80
  O       41     1.87   4.99   0.00   0.00   6.85    -0.85
  O       42     1.87   4.98   0.00   0.00   6.85    -0.85
  O       43     1.86   4.94   0.00   0.00   6.80    -0.80
  O       44     1.87   4.98   0.00   0.00   6.85    -0.85
  O       45     1.87   4.99   0.00   0.00   6.85    -0.85
  O       46     1.86   4.94   0.00   0.00   6.80    -0.80
  O       47     1.85   4.94   0.00   0.00   6.80    -0.80
  O       48     1.87   4.99   0.00   0.00   6.85    -0.85
  O       49     1.86   4.94   0.00   0.00   6.80    -0.80
  O       50     1.87   4.99   0.00   0.00   6.85    -0.85
  O       51     1.86   4.94   0.00   0.00   6.80    -0.80
  O       52     1.87   4.99   0.00   0.00   6.85    -0.85
  O       53     1.86   4.94   0.00   0.00   6.80    -0.80
  O       54     1.86   4.94   0.00   0.00   6.80    -0.80
  O       55     1.86   4.94   0.00   0.00   6.80    -0.80
  O       56     1.86   4.95   0.00   0.00   6.80    -0.80
  Zr       1     2.38   6.50   1.92   0.00  10.80     1.20
  Zr       2     2.37   6.48   1.93   0.00  10.78     1.22
  Zr       3     2.38   6.49   1.92   0.00  10.79     1.21
  Zr       4     2.37   6.47   1.93   0.00  10.77     1.23
[...]
  La       2     2.06   6.16   1.19   0.00   9.42     1.58
  La       3     2.05   6.15   1.19   0.00   9.39     1.61
  La       4     2.06   6.17   1.19   0.00   9.42     1.58
  La       5     2.08   6.18   1.19   0.00   9.45     1.55
  La       6     2.06   6.16   1.19   0.00   9.42     1.58
  La       7     2.03   6.13   1.19   0.00   9.35     1.65
  La       8     2.06   6.16   1.19   0.00   9.42     1.58
  La       9     2.04   6.15   1.19   0.00   9.38     1.62
  La      10     2.06   6.16   1.19   0.00   9.42     1.58
  La      11     2.06   6.16   1.19   0.00   9.41     1.59
  La      12     2.09   6.18   1.19   0.00   9.46     1.54
  La      13     2.09   6.18   1.19   0.00   9.46     1.54
  La      14     2.05   6.17   1.19   0.00   9.41     1.59
  La      15     2.04   6.17   1.19   0.00   9.40     1.60
  La      16     2.07   6.18   1.19   0.00   9.44     1.56

            Bond              Population      Length (A)
         O 19 -- Sn 4              0.35        2.10067
         O 26 -- Sn 5              0.35        2.10238
         O 24 -- Sn 3              0.35        2.10243
         O 25 -- Sn 2              0.35        2.10398
         O 36 -- Sn 5              0.35        2.10418
         O 11 -- Sn 1              0.35        2.10434
         O 41 -- Sn 5              0.35        2.10466
         O 14 -- Sn 3              0.35        2.10473
         O 13 -- Sn 2              0.35        2.10519
         O 45 -- Sn 4              0.35        2.10520
         O 50 -- Sn 2              0.35        2.10586
         O 52 -- Sn 3              0.35        2.10623
         O 27 -- Sn 4              0.35        2.10640
         O 33 -- Sn 1              0.35        2.10658
         O 21 -- Sn 1              0.34        2.10682
         O 9  -- Sn 3              0.35        2.10724
         O 31 -- Sn 4              0.35        2.10726
         O 16 -- Sn 5              0.35        2.10836
         O 42 -- Sn 2              0.35        2.10838
         O 48 -- Sn 1              0.34        2.10848
         O 30 -- Sn 2              0.34        2.10998
         O 35 -- Sn 4              0.34        2.11007
         O 18 -- Sn 2              0.34        2.11041
         O 30 -- Sn 3              0.33        2.11042
         O 44 -- Sn 3              0.34        2.11078
         O 17 -- Sn 5              0.34        2.11097
         O 47 -- Zr 4              0.43        2.11230
         O 32 -- Sn 5              0.33        2.11285
         O 20 -- Zr 5              0.42        2.11287
         O 15 -- Sn 1              0.34        2.11334
         O 15 -- Sn 4              0.33        2.11334
         O 32 -- Sn 1              0.34        2.11343
         O 56 -- Zr 10             0.42        2.11343
         O 20 -- Zr 8              0.42        2.11461
         O 43 -- Zr 2              0.42        2.11481
         O 49 -- Zr 4              0.43        2.11495
         O 51 -- Zr 6              0.43        2.11533
         O 56 -- Zr 1              0.42        2.11598
         O 47 -- Zr 6              0.43        2.11600
         O 23 -- Zr 8              0.43        2.11656
         O 39 -- Zr 9              0.43        2.11656
         O 43 -- Zr 11             0.42        2.11660
         O 34 -- Zr 11             0.44        2.11672
         O 38 -- Zr 8              0.42        2.11676
         O 46 -- Zr 3              0.43        2.11690
         O 54 -- Zr 1              0.43        2.11692
         O 53 -- Zr 7              0.43        2.11702
         O 41 -- Zr 4              0.46        2.11717
         O 19 -- Zr 10             0.45        2.11723
         O 53 -- Zr 3              0.43        2.11737
         O 35 -- Zr 2              0.46        2.11767
         O 12 -- Zr 7              0.43        2.11769
         O 55 -- Zr 7              0.43        2.11800
         O 11 -- Zr 10             0.45        2.11814
         O 29 -- Zr 11             0.43        2.11829
         O 46 -- Zr 5              0.42        2.11841
         O 36 -- Zr 3              0.45        2.11860
         O 38 -- Zr 2              0.42        2.11875
         O 14 -- Zr 5              0.46        2.11885
         O 25 -- Zr 9              0.45        2.11890
[...]
         O 36 -- O 44             -0.03        2.82707
         O 17 -- O 24             -0.03        2.82708
         O 9  -- O 38             -0.03        2.82743
         O 20 -- O 28             -0.03        2.82743
         O 18 -- O 26             -0.03        2.82778
         O 48 -- O 50             -0.03        2.82790
         O 11 -- O 37             -0.03        2.82850
         O 13 -- O 29             -0.03        2.82898
         O 27 -- O 40             -0.03        2.82915
         O 18 -- O 21             -0.03        2.82923
         O 14 -- O 29             -0.03        2.82961
         O 37 -- O 41             -0.03        2.83044
         O 33 -- O 40             -0.03        2.83122
         O 38 -- O 42             -0.03        2.83224
         O 16 -- O 31             -0.03        2.83715

Writing analysis data to Zr11_02_nmr.castep_bin

Writing model to Zr11_02_nmr.check

 A BibTeX formatted list of references used in this run has been written to
 Zr11_02_nmr.bib

Initialisation time =     35.17 s
Calculation time    =   4325.87 s
Finalisation time   =      9.66 s
Total time          =   4370.71 s

Overall parallel efficiency rating: Good (70%)

Data was distributed by:-
G-vector (24-way); efficiency rating: Good (72%)
k-point (14-way); efficiency rating: Excellent (95%)