 Compiled for linux_x86_64_ifort17 on Mon, 09 Apr 2018 23:35:31 +0100
 from code version
 203e84763863+ Castep161_branch Fri, 04 Mar 2016 19:21:07 +0000
 Compiler: Intel Fortran 17.0.1.132; Optimisation: fast
 MATHLIBS: Intel MKL(2017.0.1) (LAPACK version 3.6.0)
 FFT Lib : mkl
 Fundamental constants values: CODATA 2010

 Run started: Fri, 11 Sep 2020 02:15:04 +0100
 |           N   N    M   M    RRRR                |
 |           NN  N    MM MM    R   R               |
 |           N N N    M M M    RRRR                |
 |           N  NN    M   M    R  R                |
 |           N   N    M   M    R   R               |
 | Welcome to Materials Studio CASTEP-NMR          |
 | Authors:                                        |
 | J.R. Yates, C.J. Pickard, F. Mauri              |
 | Contributors:                                   |
 | T.F.G. Green, S.A. Joyce                        |
 | Copyright (c) 2004 - 2015                       |
 | Please cite the appropriate publications in all |
 | work arising from your use of CASTEP NMR.       |
 | For NMR Shielding Tensors cite:                 |
 |    "All-electron magnetic response with         |
 |    pseudopotentials: NMR chemical shifts",      |
 |    C. J. Pickard, F. Mauri;                     |
 |    Physical Review B63 245101 (2001), and       |
 |    "Calculation of NMR Chemical Shifts          |
 |    for extended systems using                   |
 |    Ultrasoft Pseudopotentials",                 |
 |    J. R. Yates, C. J. Pickard and F. Mauri      |
 |    Physical Review B76 024401 (2007)            |
 | For Electric Field Gradients cite:              |
 |   "Accurate First Principles Prediction of 17O  |
 |    NMR Parameters in SiO2: Assignment of the    |
 |    Zeolite Ferrierite Spectrum"                 |
 |    M. Profeta, F. Mauri and C. J. Pickard       |
 |    J. Amer. Chem. Soc. 125 541 (2003)           |
 | For Spin-Spin (J) Couplings cite:               |
 |   "A first principles theory of NMR J-coupling  |
 |   in solid-state systems"                       |
 |   S.A. Joyce, J.R. Yates, C.J. Pickard, F. Mauri|
 |   J. Chem. Phys. 127 204107 (2007)              |
 |   "Relativistic NMR J-coupling with ultrasoft   |
 |   pseudopotentials and the zeroth-order regular |
 |   approximation"                                |
 |   T.F.G. Green and J.R. Yates                   |
 |   J. Chem. Phys. 140 234106 (2014)              |

 Atomic calculation performed for O: 1s2 2s2 2p4

 Converged in 44 iterations to an ae energy of -2040.855 eV

 Atomic calculation performed for O: 1s2 2s2 2p4

 Exceeded max iterations: converged to 0.000000062 eV

   | Pseudopotential Report - Date of generation 11-09-2020   |
   | Element: O Ionic charge:  6.00 Level of theory: PBE      |
   | Atomic Solver: ZORA (scalar)                             |
   |               Reference Electronic Structure             |
   |         Orbital         Occupation         Energy        |
   |            2s              2.000           -0.881        |
   |            2p              4.000           -0.332        |
   |                 Pseudopotential Definition               |
   |        Beta     l      e      Rc     scheme   norm       |
   |          1      0   -0.881   1.100     qc      0         |
   |          2      0    0.250   1.100     qc      0         |
   |          3      1   -0.332   1.100     qc      0         |
   |          4      1    0.250   1.100     qc      0         |
   |         loc     2    0.000   1.100     pn      0         |
   | Augmentation charge Rinner = 0.769                       |
   | Partial core correction Rc = 0.769                       |
   | "2|1.1|15|18|20|20:21(qc=7)"                             |
   |      Author: Chris J. Pickard, Cambridge University      |

 Atomic calculation performed for Zr: 1s2 2s2 2p6 3s2 3p6 3d10 4s2 4p6 4d2 5s2

[...]

 Atomic calculation performed for Zr: 1s2 2s2 2p6 3s2 3p6 3d10 4s2 4p6 4d2 5s2

[...]

 Warning: ion_atom_descreen_psp: negative charge density encountered
   | Pseudopotential Report - Date of generation 11-09-2020   |
   | Element: Zr Ionic charge: 12.00 Level of theory: PBE     |
   | Atomic Solver: ZORA (scalar)                             |
   |               Reference Electronic Structure             |
   |         Orbital         Occupation         Energy        |
   |            4s              2.000           -2.003        |
   |            4p              6.000           -1.193        |
   |            5s              2.000           -0.163        |
   |            4d              2.000           -0.132        |
   |                 Pseudopotential Definition               |
   |        Beta     l      e      Rc     scheme   norm       |
   |          1      0   -2.003   2.105     qc      0         |
   |          2      0   -0.163   2.105     qc      0         |
   |          3      0    0.250   2.105     qc      0         |
   |          4      1   -1.193   2.105     qc      0         |
   |          5      1    0.250   2.105     qc      0         |
   |          6      2   -0.132   2.105     qc      0         |
   |          7      2    0.250   2.105     qc      0         |
   |         loc     3    0.000   2.105     pn      0         |
   | Augmentation charge Rinner = 1.471                       |
   | Partial core correction Rc = 1.471                       |
   | "3|2.1|7|8|9|40U:50:41:42"                               |
   |      Author: Chris J. Pickard, Cambridge University      |

 Atomic calculation performed for Sn:

[...]

 Atomic calculation performed for Sn:

[...]

   | Pseudopotential Report - Date of generation 11-09-2020   |
   | Element: Sn Ionic charge: 14.00 Level of theory: PBE     |
   | Atomic Solver: ZORA (scalar)                             |
   |               Reference Electronic Structure             |
   |         Orbital         Occupation         Energy        |
   |            4d             10.000           -0.950        |
   |            5s              2.000           -0.388        |
   |            5p              2.000           -0.136        |
   |                 Pseudopotential Definition               |
   |        Beta     l      e      Rc     scheme   norm       |
   |          1      0   -0.388   2.199     qc      0         |
   |          2      0    0.250   2.199     qc      0         |
   |          3      1   -0.136   2.199     qc      0         |
   |          4      1    0.250   2.199     qc      0         |
   |          5      2   -0.950   2.199     qc      0         |
   |          6      2    0.250   2.199     qc      0         |
   |         loc     3    0.000   2.199     pn      0         |
   | Augmentation charge Rinner = 1.537                       |
   | Partial core correction Rc = 1.537                       |
   | "3|2.2|7|8|9|50:51:42"                                   |
   |      Author: Chris J. Pickard, Cambridge University      |

 Atomic calculation performed for La:

 Converged in 56 iterations to an ae energy of -230121.495 eV

 Atomic calculation performed for La:

 Exceeded max iterations: converged to 0.000000907 eV

 Warning: ion_atom_descreen_psp: negative charge density encountered
   | Pseudopotential Report - Date of generation 11-09-2020   |
   | Element: La Ionic charge: 11.00 Level of theory: PBE     |
   | Atomic Solver: ZORA (scalar)                             |
   |               Reference Electronic Structure             |
   |         Orbital         Occupation         Energy        |
   |            5s              2.000           -1.430        |
   |            5p              6.000           -0.823        |
   |            6s              2.000           -0.135        |
   |            5d              1.000           -0.114        |
   |                 Pseudopotential Definition               |
   |        Beta     l      e      Rc     scheme   norm       |
   |          1      0   -1.430   2.298     qc      0         |
   |          2      0   -0.135   2.298     qc      0         |
   |          3      0    0.250   2.298     qc      0         |
   |          4      1   -0.823   2.298     qc      0         |
   |          5      1    0.250   2.298     qc      0         |
   |          6      2   -0.114   2.298     qc      0         |
   |          7      2    0.250   2.298     qc      0         |
   |         loc     2    0.000   2.298     pn      0         |
   | Augmentation charge Rinner = 1.606                       |
   | Partial core correction Rc = 1.606                       |
   | "2|2.3|5|6|7|50U:60:51:52(qc=4.5)"                       |
   |      Author: Chris J. Pickard, Cambridge University      |

 Pseudo atomic calculation performed for O 2s2 2p4

 Converged in 39 iterations to a total energy of -432.6554 eV

 Pseudo atomic calculation performed for Zr 4s2 4p6 4d2 5s2

[...]

 Calculation parallelised over 336 processes.
 Data is distributed by G-vector(24-way) and k-point(14-way)

 ************************************ Title ************************************
 nmr testing

 ***************************** General Parameters ******************************

 output verbosity                               : normal  (1)
 write checkpoint data to                       : Zr11_10_nmr.check
 type of calculation                            : Magnetic Resonance
 stress calculation                             : on
 density difference calculation                 : off
 electron localisation func (ELF) calculation   : off
 Hirshfeld analysis                             : off
 unlimited duration calculation
 timing information                             : on
 write final potential to formatted file        : off
 write final density to formatted file          : off
 write BibTeX reference list                    : on
 write OTFG pseudopotential files               : on
 checkpoint writing                             : both castep_bin and check files

 output         length unit                     : A
 output           mass unit                     : amu
 output           time unit                     : ps
 output         charge unit                     : e
 output           spin unit                     : hbar/2
 output         energy unit                     : eV
 output          force unit                     : eV/A
 output       velocity unit                     : A/ps
 output       pressure unit                     : GPa
 output     inv_length unit                     : 1/A
 output      frequency unit                     : cm-1
 output force constant unit                     : eV/A**2
 output         volume unit                     : A**3
 output   IR intensity unit                     : (D/A)**2/amu
 output         dipole unit                     : D
 output         efield unit                     : eV/A/e
 output        entropy unit                     : J/mol/K

 wavefunctions paging                           : none
 random number generator seed                   : randomised (21504786)
 data distribution                              : optimal for this architecture
 optimization strategy                          : maximize speed(+++)

[...]
  |    O          42      -88.71      89.94      0.18  -3.229E+00   0.13 |
  |    O          43      -86.52      85.45      0.11  -3.226E+00   0.11 |
  |    O          44     -163.61     146.01      0.77   1.050E+00   0.82 |
  |    O          45     -163.99     157.83      0.85   1.090E+00   0.85 |
  |    O          46     -163.02     148.41      0.78   1.041E+00   0.81 |
  |    O          47     -165.33     157.19      0.81   1.053E+00   0.90 |
  |    O          48      -89.39      92.00      0.24  -3.174E+00   0.12 |
  |    O          49     -165.85     158.70      0.85   1.082E+00   0.88 |
  |    O          50      -89.75      92.29      0.25  -3.144E+00   0.11 |
  |    O          51     -162.30     150.79      0.78   1.070E+00   0.79 |
  |    O          52     -162.29     149.01      0.82   1.102E+00   0.78 |
  |    O          53     -165.46     159.59      0.84   1.060E+00   0.88 |
  |    O          54     -164.51     155.49      0.79   1.037E+00   0.90 |
  |    O          55     -166.30     159.78      0.85   1.054E+00   0.90 |
  |    O          56      -91.44      84.09      0.13  -3.230E+00   0.13 |
  |    Zr          1     1628.36    -126.65      0.12  -3.824E+01   0.10 |
  |    Zr          2     1623.23    -124.31      0.17  -3.929E+01   0.01 |
  |    Zr          3     1623.34    -122.53      0.16  -3.926E+01   0.06 |
  |    Zr          4     1627.26    -128.24      0.11  -3.813E+01   0.13 |
[...]
  |    La          2     4706.94     765.54      0.06  -8.296E+01   0.08 |
  |    La          3     4757.22     860.92      0.05  -8.541E+01   0.09 |
  |    La          4     4701.58     769.08      0.04  -8.159E+01   0.07 |
  |    La          5     4707.00     770.37      0.04  -8.334E+01   0.04 |
  |    La          6     4713.27     757.57      0.04  -8.346E+01   0.07 |
  |    La          7     4749.00     871.22      0.05  -8.325E+01   0.06 |
  |    La          8     4667.29     648.39      0.08  -8.003E+01   0.12 |
  |    La          9     4705.41     750.87      0.04  -8.181E+01   0.07 |
  |    La         10     4755.05     870.14      0.04  -8.429E+01   0.04 |
  |    La         11     4701.99     758.86      0.06  -8.060E+01   0.09 |
  |    La         12     4707.79     752.36      0.04  -8.123E+01   0.08 |
  |    La         13     4754.85     867.05      0.05  -8.401E+01   0.08 |
  |    La         14     4601.75     513.92      0.09  -7.464E+01   0.07 |
  |    La         15     4653.40     665.68      0.10  -7.884E+01   0.14 |
  |    La         16     4710.39     782.44      0.12  -8.240E+01   0.14 |

 *********************** Forces ***********************
 *            Cartesian components (eV/A)             *
 *                   x            y            z      *
 * O         1      0.00032     -0.01968     -0.00460 *
 * O         2     -0.00837     -0.00932      0.00247 *
 * O         3      0.01006     -0.01071      0.00334 *
 * O         4     -0.00082     -0.00529     -0.00112 *
 * O         5     -0.00594      0.00554     -0.00175 *
 * O         6     -0.00045      0.01940      0.01084 *
 * O         7      0.00118      0.00435     -0.00488 *
 * O         8      0.00171      0.01473     -0.00090 *
 * O         9      0.00642     -0.00109      0.00178 *
 * O        10     -0.01840      0.00265     -0.00482 *
 * O        11      0.00509      0.00107     -0.00319 *
 * O        12     -0.00333     -0.01373     -0.00506 *
 * O        13      0.00378     -0.00742      0.00147 *
 * O        14      0.00749      0.00542     -0.00009 *
 * O        15      0.01498      0.00264     -0.02623 *
 * O        16     -0.00796     -0.00145     -0.02230 *
 * O        17     -0.00876     -0.01158     -0.00466 *
 * O        18      0.01228     -0.00701     -0.00518 *
 * O        19      0.01138     -0.01740     -0.00467 *
 * O        20      0.00384      0.01236      0.01373 *
 * O        21     -0.02286     -0.00353      0.00621 *
 * O        22     -0.00410      0.00580      0.00096 *
 * O        23      0.00157     -0.02076     -0.00587 *
 * O        24     -0.00039      0.00796      0.00253 *
 * O        25     -0.00185      0.00705     -0.01129 *
 * O        26     -0.00453      0.01206      0.00867 *
 * O        27     -0.01018     -0.00539     -0.00609 *
 * O        28      0.00592      0.00898     -0.00941 *
 * O        29      0.01209      0.02218      0.00044 *
 * O        30     -0.00930      0.01535     -0.00702 *
 * O        31      0.00579     -0.00606     -0.00492 *
 * O        32     -0.00395      0.00137      0.00978 *
 * O        33      0.00380     -0.00974      0.01647 *
 * O        34     -0.00236      0.02015      0.01154 *
 * O        35     -0.00741     -0.00690     -0.00648 *
 * O        36      0.01341     -0.00916      0.01947 *
 * O        37     -0.02196      0.00579      0.00101 *
 * O        38     -0.01147     -0.00550     -0.01071 *
 * O        39      0.00561     -0.00598      0.00975 *
 * O        40      0.00214      0.01617      0.00799 *
 * O        41     -0.00818     -0.00115     -0.01133 *
 * O        42     -0.01095     -0.01167      0.01079 *
 * O        43     -0.00900     -0.02265      0.00107 *
 * O        44     -0.00080      0.00108     -0.00183 *
 * O        45      0.00978     -0.00410     -0.00059 *
 * O        46     -0.00019      0.00010     -0.00236 *
 * O        47     -0.00705     -0.00014     -0.01204 *
 * O        48      0.00996      0.01619      0.00205 *
 * O        49      0.00681      0.01247      0.01092 *
 * O        50     -0.00482      0.00131     -0.00855 *
 * O        51      0.00041     -0.00154      0.01029 *
 * O        52     -0.00958     -0.00220      0.00178 *
 * O        53      0.00816      0.00326      0.01136 *
 * O        54     -0.00121     -0.00866     -0.01352 *
 * O        55     -0.00728     -0.00745     -0.00529 *
 * O        56      0.00534      0.00606      0.01148 *
 * Zr        1      0.00512     -0.00105     -0.01026 *
 * Zr        2      0.01204     -0.00594     -0.00833 *
 * Zr        3     -0.00349      0.01018      0.00938 *
 * Zr        4     -0.00092      0.00527     -0.00688 *
[...]
 * La        2      0.01362      0.00329      0.01405 *
 * La        3     -0.01151     -0.00599      0.00436 *
 * La        4     -0.00421      0.00156     -0.00361 *
 * La        5     -0.01352     -0.00304     -0.01410 *
 * La        6      0.00891      0.01168      0.00604 *
 * La        7      0.00859     -0.00216      0.01424 *
 * La        8     -0.00302      0.00652     -0.00136 *
 * La        9     -0.00994     -0.00552     -0.01318 *
 * La       10      0.00949      0.00738      0.00043 *
 * La       11      0.00849      0.00565      0.01506 *
 * La       12     -0.00596     -0.01054     -0.00797 *
 * La       13      0.00824     -0.00773     -0.00152 *
 * La       14     -0.01407     -0.00551     -0.01240 *
 * La       15      0.01422      0.01137      0.00484 *
 * La       16     -0.00454     -0.00048      0.00354 *

 ***************** Stress Tensor *****************
 *          Cartesian components (GPa)           *
 *             x             y             z     *
 *  x     -0.003996     -0.004677      0.066494  *
 *  y     -0.004677      0.069480     -0.002279  *
 *  z      0.066494     -0.002279     -0.017344  *
 *  Pressure:   -0.0160                          *

[...]

 Pseudo atomic calculation performed for Sn 4d10 5s2 5p2

[...]

 Pseudo atomic calculation performed for La 5s2 5p6 5d1 6s2

 Converged in 34 iterations to a total energy of -968.0372 eV

Charge spilling parameter for spin component 1 = 0.23%

     Atomic Populations (Mulliken)
Species   Ion     s      p      d      f     Total  Charge (e)
  O        1     1.87   5.00   0.00   0.00   6.87    -0.87
  O        2     1.87   5.00   0.00   0.00   6.87    -0.87
  O        3     1.87   5.00   0.00   0.00   6.87    -0.87
  O        4     1.87   5.00   0.00   0.00   6.87    -0.87
  O        5     1.87   5.00   0.00   0.00   6.87    -0.87
  O        6     1.87   5.00   0.00   0.00   6.87    -0.87
  O        7     1.87   5.00   0.00   0.00   6.87    -0.87
  O        8     1.87   5.00   0.00   0.00   6.87    -0.87
  O        9     1.86   4.94   0.00   0.00   6.80    -0.80
  O       10     1.85   4.94   0.00   0.00   6.80    -0.80
  O       11     1.88   5.02   0.00   0.00   6.90    -0.90
  O       12     1.87   4.99   0.00   0.00   6.85    -0.85
  O       13     1.88   5.02   0.00   0.00   6.91    -0.91
  O       14     1.86   4.94   0.00   0.00   6.80    -0.80
  O       15     1.87   4.99   0.00   0.00   6.85    -0.85
  O       16     1.87   4.99   0.00   0.00   6.85    -0.85
  O       17     1.87   4.98   0.00   0.00   6.85    -0.85
  O       18     1.87   4.99   0.00   0.00   6.85    -0.85
  O       19     1.87   4.99   0.00   0.00   6.85    -0.85
  O       20     1.86   4.94   0.00   0.00   6.80    -0.80
  O       21     1.87   4.99   0.00   0.00   6.85    -0.85
  O       22     1.88   5.02   0.00   0.00   6.90    -0.90
  O       23     1.86   4.94   0.00   0.00   6.80    -0.80
  O       24     1.86   4.94   0.00   0.00   6.80    -0.80
  O       25     1.87   4.99   0.00   0.00   6.85    -0.85
  O       26     1.87   4.99   0.00   0.00   6.85    -0.85
  O       27     1.86   4.94   0.00   0.00   6.80    -0.80
  O       28     1.87   4.99   0.00   0.00   6.85    -0.85
  O       29     1.87   4.99   0.00   0.00   6.85    -0.85
  O       30     1.87   4.98   0.00   0.00   6.85    -0.85
  O       31     1.86   4.94   0.00   0.00   6.80    -0.80
  O       32     1.88   5.02   0.00   0.00   6.90    -0.90
  O       33     1.87   4.99   0.00   0.00   6.85    -0.85
  O       34     1.87   4.99   0.00   0.00   6.85    -0.85
  O       35     1.86   4.94   0.00   0.00   6.80    -0.80
  O       36     1.87   4.99   0.00   0.00   6.85    -0.85
  O       37     1.87   4.99   0.00   0.00   6.85    -0.85
  O       38     1.86   4.94   0.00   0.00   6.80    -0.80
  O       39     1.86   4.95   0.00   0.00   6.80    -0.80
  O       40     1.86   4.94   0.00   0.00   6.80    -0.80
  O       41     1.87   4.98   0.00   0.00   6.85    -0.85
  O       42     1.87   4.99   0.00   0.00   6.85    -0.85
  O       43     1.87   4.99   0.00   0.00   6.85    -0.85
  O       44     1.86   4.94   0.00   0.00   6.80    -0.80
  O       45     1.86   4.95   0.00   0.00   6.80    -0.80
  O       46     1.86   4.94   0.00   0.00   6.80    -0.80
  O       47     1.86   4.94   0.00   0.00   6.80    -0.80
  O       48     1.87   4.99   0.00   0.00   6.85    -0.85
  O       49     1.86   4.95   0.00   0.00   6.80    -0.80
  O       50     1.87   4.98   0.00   0.00   6.85    -0.85
  O       51     1.86   4.94   0.00   0.00   6.80    -0.80
  O       52     1.86   4.95   0.00   0.00   6.80    -0.80
  O       53     1.86   4.94   0.00   0.00   6.80    -0.80
  O       54     1.86   4.94   0.00   0.00   6.80    -0.80
  O       55     1.86   4.94   0.00   0.00   6.80    -0.80
  O       56     1.87   4.99   0.00   0.00   6.85    -0.85
  Zr       1     2.38   6.49   1.92   0.00  10.79     1.21
  Zr       2     2.37   6.48   1.92   0.00  10.78     1.22
  Zr       3     2.38   6.48   1.93   0.00  10.78     1.22
  Zr       4     2.37   6.49   1.92   0.00  10.79     1.21
[...]
  La       2     2.06   6.16   1.19   0.00   9.42     1.58
  La       3     2.04   6.15   1.19   0.00   9.39     1.61
  La       4     2.07   6.16   1.19   0.00   9.42     1.58
  La       5     2.07   6.16   1.19   0.00   9.42     1.58
  La       6     2.06   6.17   1.19   0.00   9.42     1.58
  La       7     2.05   6.14   1.19   0.00   9.39     1.61
  La       8     2.08   6.19   1.19   0.00   9.46     1.54
  La       9     2.07   6.17   1.19   0.00   9.43     1.57
  La      10     2.03   6.15   1.19   0.00   9.37     1.63
  La      11     2.06   6.16   1.19   0.00   9.42     1.58
  La      12     2.06   6.17   1.19   0.00   9.42     1.58
  La      13     2.03   6.15   1.19   0.00   9.37     1.63
  La      14     2.12   6.20   1.19   0.00   9.51     1.49
  La      15     2.10   6.17   1.19   0.00   9.46     1.54
  La      16     2.05   6.16   1.19   0.00   9.40     1.60

            Bond              Population      Length (A)
         O 36 -- Sn 5              0.35        2.09815
         O 42 -- Sn 3              0.35        2.10041
         O 43 -- Sn 4              0.35        2.10121
         O 29 -- Sn 4              0.35        2.10149
         O 16 -- Sn 5              0.35        2.10179
         O 19 -- Sn 1              0.35        2.10410
         O 15 -- Sn 2              0.35        2.10416
         O 28 -- Sn 1              0.34        2.10496
         O 18 -- Sn 3              0.35        2.10518
         O 33 -- Sn 2              0.34        2.10527
         O 56 -- Sn 1              0.34        2.10575
         O 34 -- Sn 4              0.35        2.10575
         O 30 -- Sn 3              0.35        2.10581
         O 26 -- Sn 5              0.35        2.10615
         O 37 -- Sn 1              0.35        2.10644
         O 48 -- Sn 2              0.34        2.10660
         O 25 -- Sn 3              0.35        2.10666
         O 21 -- Sn 2              0.35        2.10787
         O 12 -- Sn 4              0.35        2.10826
         O 17 -- Sn 5              0.34        2.11003
         O 41 -- Sn 5              0.35        2.11013
         O 45 -- Zr 11             0.42        2.11137
         O 50 -- Sn 3              0.34        2.11143
         O 13 -- Sn 3              0.33        2.11212
         O 49 -- Zr 4              0.42        2.11246
         O 32 -- Sn 2              0.34        2.11271
         O 10 -- Zr 6              0.43        2.11322
         O 55 -- Zr 7              0.42        2.11330
         O 53 -- Zr 7              0.43        2.11341
         O 32 -- Sn 5              0.33        2.11369
         O 22 -- Sn 1              0.34        2.11435
         O 36 -- Zr 3              0.45        2.11442
         O 13 -- Sn 4              0.33        2.11461
         O 49 -- Zr 5              0.42        2.11494
         O 45 -- Zr 1              0.41        2.11502
         O 24 -- Zr 9              0.42        2.11565
         O 47 -- Zr 4              0.43        2.11572
         O 55 -- Zr 2              0.42        2.11625
         O 11 -- Sn 1              0.33        2.11639
         O 23 -- Zr 8              0.43        2.11646
         O 29 -- Zr 5              0.45        2.11656
         O 10 -- Zr 9              0.43        2.11665
         O 11 -- Sn 2              0.33        2.11684
         O 9  -- Zr 10             0.43        2.11689
         O 24 -- Zr 10             0.42        2.11690
         O 43 -- Zr 2              0.45        2.11712
         O 33 -- Zr 3              0.45        2.11714
         O 52 -- Zr 1              0.42        2.11717
         O 52 -- Zr 10             0.42        2.11732
         O 42 -- Zr 2              0.45        2.11758
         O 22 -- Sn 4              0.33        2.11773
         O 28 -- Zr 5              0.45        2.11779
         O 54 -- Zr 1              0.43        2.11786
         O 16 -- Zr 6              0.45        2.11799
         O 17 -- Zr 9              0.46        2.11823
         O 15 -- Zr 11             0.45        2.11872
         O 53 -- Zr 3              0.42        2.11878
         O 20 -- Zr 8              0.43        2.11914
         O 9  -- Zr 8              0.43        2.11926
         O 44 -- Zr 3              0.43        2.11933
[...]
         O 20 -- O 27             -0.03        2.82539
         O 46 -- O 53             -0.03        2.82619
         O 48 -- O 50             -0.03        2.82627
         O 9  -- O 38             -0.03        2.82646
         O 15 -- O 31             -0.03        2.82707
         O 17 -- O 25             -0.03        2.82732
         O 14 -- O 30             -0.03        2.82782
         O 47 -- O 51             -0.03        2.82837
         O 34 -- O 39             -0.03        2.82863
         O 25 -- O 39             -0.03        2.83118
         O 16 -- O 31             -0.03        2.83129
         O 14 -- O 29             -0.03        2.83226
         O 35 -- O 43             -0.03        2.83271
         O 12 -- O 21             -0.03        2.83612
         O 37 -- O 41             -0.03        2.83652

Writing analysis data to Zr11_10_nmr.castep_bin

Writing model to Zr11_10_nmr.check

 A BibTeX formatted list of references used in this run has been written to
 Zr11_10_nmr.bib

Initialisation time =     35.25 s
Calculation time    =   4312.56 s
Finalisation time   =      7.70 s
Total time          =   4355.50 s

Overall parallel efficiency rating: Good (70%)

Data was distributed by:-
G-vector (24-way); efficiency rating: Good (72%)
k-point (14-way); efficiency rating: Excellent (95%)