 Compiled for linux_x86_64_ifort17 on Mon, 09 Apr 2018 23:35:31 +0100
 from code version
 203e84763863+ Castep161_branch Fri, 04 Mar 2016 19:21:07 +0000
 Compiler: Intel Fortran 17.0.1.132; Optimisation: fast
 MATHLIBS: Intel MKL(2017.0.1) (LAPACK version 3.6.0)
 FFT Lib : mkl
 Fundamental constants values: CODATA 2010

 Run started: Fri, 11 Sep 2020 10:04:46 +0100
 |           N   N    M   M    RRRR                |
 |           NN  N    MM MM    R   R               |
 |           N N N    M M M    RRRR                |
 |           N  NN    M   M    R  R                |
 |           N   N    M   M    R   R               |
 | Welcome to Materials Studio CASTEP-NMR          |
 | Authors:                                        |
 | J.R. Yates, C.J. Pickard, F. Mauri              |
 | Contributors:                                   |
 | T.F.G. Green, S.A. Joyce                        |
 | Copyright (c) 2004 - 2015                       |
 | Please cite the appropriate publications in all |
 | work arising from your use of CASTEP NMR.       |
 | For NMR Shielding Tensors cite:                 |
 |    "All-electron magnetic response with         |
 |    pseudopotentials: NMR chemical shifts",      |
 |    C. J. Pickard, F. Mauri;                     |
 |    Physical Review B63 245101 (2001), and       |
 |    "Calculation of NMR Chemical Shifts          |
 |    for extended systems using                   |
 |    Ultrasoft Pseudopotentials",                 |
 |    J. R. Yates, C. J. Pickard and F. Mauri      |
 |    Physical Review B76 024401 (2007)            |
 | For Electric Field Gradients cite:              |
 |   "Accurate First Principles Prediction of 17O  |
 |    NMR Parameters in SiO2: Assignment of the    |
 |    Zeolite Ferrierite Spectrum"                 |
 |    M. Profeta, F. Mauri and C. J. Pickard       |
 |    J. Amer. Chem. Soc. 125 541 (2003)           |
 | For Spin-Spin (J) Couplings cite:               |
 |   "A first principles theory of NMR J-coupling  |
 |   in solid-state systems"                       |
 |   S.A. Joyce, J.R. Yates, C.J. Pickard, F. Mauri|
 |   J. Chem. Phys. 127 204107 (2007)              |
 |   "Relativistic NMR J-coupling with ultrasoft   |
 |   pseudopotentials and the zeroth-order regular |
 |   approximation"                                |
 |   T.F.G. Green and J.R. Yates                   |
 |   J. Chem. Phys. 140 234106 (2014)              |

 Atomic calculation performed for O: 1s2 2s2 2p4

 Converged in 44 iterations to an ae energy of -2040.855 eV

[...]

 Exceeded max iterations: converged to 0.000000062 eV

   | Pseudopotential Report - Date of generation 11-09-2020   |
   | Element: O Ionic charge:  6.00 Level of theory: PBE      |
   | Atomic Solver: ZORA (scalar)                             |
   |               Reference Electronic Structure             |
   |         Orbital         Occupation         Energy        |
   |            2s              2.000           -0.881        |
   |            2p              4.000           -0.332        |
   |                 Pseudopotential Definition               |
   |        Beta     l      e      Rc     scheme   norm       |
   |          1      0   -0.881   1.100     qc      0         |
   |          2      0    0.250   1.100     qc      0         |
   |          3      1   -0.332   1.100     qc      0         |
   |          4      1    0.250   1.100     qc      0         |
   |         loc     2    0.000   1.100     pn      0         |
   | Augmentation charge Rinner = 0.769                       |
   | Partial core correction Rc = 0.769                       |
   | "2|1.1|15|18|20|20:21(qc=7)"                             |
   |      Author: Chris J. Pickard, Cambridge University      |

 Atomic calculation performed for Zr: 1s2 2s2 2p6 3s2 3p6 3d10 4s2 4p6 4d2 5s2

[...]

 Warning: ion_atom_descreen_psp: negative charge density encountered
   | Pseudopotential Report - Date of generation 11-09-2020   |
   | Element: Zr Ionic charge: 12.00 Level of theory: PBE     |
   | Atomic Solver: ZORA (scalar)                             |
   |               Reference Electronic Structure             |
   |         Orbital         Occupation         Energy        |
   |            4s              2.000           -2.003        |
   |            4p              6.000           -1.193        |
   |            5s              2.000           -0.163        |
   |            4d              2.000           -0.132        |
   |                 Pseudopotential Definition               |
   |        Beta     l      e      Rc     scheme   norm       |
   |          1      0   -2.003   2.105     qc      0         |
   |          2      0   -0.163   2.105     qc      0         |
   |          3      0    0.250   2.105     qc      0         |
   |          4      1   -1.193   2.105     qc      0         |
   |          5      1    0.250   2.105     qc      0         |
   |          6      2   -0.132   2.105     qc      0         |
   |          7      2    0.250   2.105     qc      0         |
   |         loc     3    0.000   2.105     pn      0         |
   | Augmentation charge Rinner = 1.471                       |
   | Partial core correction Rc = 1.471                       |
   | "3|2.1|7|8|9|40U:50:41:42"                               |
   |      Author: Chris J. Pickard, Cambridge University      |

 Atomic calculation performed for Sn:

[...]

   | Pseudopotential Report - Date of generation 11-09-2020   |
   | Element: Sn Ionic charge: 14.00 Level of theory: PBE     |
   | Atomic Solver: ZORA (scalar)                             |
   |               Reference Electronic Structure             |
   |         Orbital         Occupation         Energy        |
   |            4d             10.000           -0.950        |
   |            5s              2.000           -0.388        |
   |            5p              2.000           -0.136        |
   |                 Pseudopotential Definition               |
   |        Beta     l      e      Rc     scheme   norm       |
   |          1      0   -0.388   2.199     qc      0         |
   |          2      0    0.250   2.199     qc      0         |
   |          3      1   -0.136   2.199     qc      0         |
   |          4      1    0.250   2.199     qc      0         |
   |          5      2   -0.950   2.199     qc      0         |
   |          6      2    0.250   2.199     qc      0         |
   |         loc     3    0.000   2.199     pn      0         |
   | Augmentation charge Rinner = 1.537                       |
   | Partial core correction Rc = 1.537                       |
   | "3|2.2|7|8|9|50:51:42"                                   |
   |      Author: Chris J. Pickard, Cambridge University      |

 Atomic calculation performed for La:

[...]

 Warning: ion_atom_descreen_psp: negative charge density encountered
   | Pseudopotential Report - Date of generation 11-09-2020   |
   | Element: La Ionic charge: 11.00 Level of theory: PBE     |
   | Atomic Solver: ZORA (scalar)                             |
   |               Reference Electronic Structure             |
   |         Orbital         Occupation         Energy        |
   |            5s              2.000           -1.430        |
   |            5p              6.000           -0.823        |
   |            6s              2.000           -0.135        |
   |            5d              1.000           -0.114        |
   |                 Pseudopotential Definition               |
   |        Beta     l      e      Rc     scheme   norm       |
   |          1      0   -1.430   2.298     qc      0         |
   |          2      0   -0.135   2.298     qc      0         |
   |          3      0    0.250   2.298     qc      0         |
   |          4      1   -0.823   2.298     qc      0         |
   |          5      1    0.250   2.298     qc      0         |
   |          6      2   -0.114   2.298     qc      0         |
   |          7      2    0.250   2.298     qc      0         |
   |         loc     2    0.000   2.298     pn      0         |
   | Augmentation charge Rinner = 1.606                       |
   | Partial core correction Rc = 1.606                       |
   | "2|2.3|5|6|7|50U:60:51:52(qc=4.5)"                       |
   |      Author: Chris J. Pickard, Cambridge University      |

 Pseudo atomic calculation performed for O 2s2 2p4

 Converged in 39 iterations to a total energy of -432.6554 eV

 Pseudo atomic calculation performed for Zr 4s2 4p6 4d2 5s2

[...]

 Calculation parallelised over 336 processes.
 Data is distributed by G-vector(24-way) and k-point(14-way)

 ************************************ Title ************************************
 nmr testing

 ***************************** General Parameters ******************************

 output verbosity                               : normal  (1)
 write checkpoint data to                       : Zr11_14_nmr.check
 type of calculation                            : Magnetic Resonance
 stress calculation                             : on
 density difference calculation                 : off
 electron localisation func (ELF) calculation   : off
 Hirshfeld analysis                             : off
 unlimited duration calculation
 timing information                             : on
 write final potential to formatted file        : off
 write final density to formatted file          : off
 write BibTeX reference list                    : on
 write OTFG pseudopotential files               : on
 checkpoint writing                             : both castep_bin and check files

 output         length unit                     : A
 output           mass unit                     : amu
 output           time unit                     : ps
 output         charge unit                     : e
 output           spin unit                     : hbar/2
 output         energy unit                     : eV
 output          force unit                     : eV/A
 output       velocity unit                     : A/ps
 output       pressure unit                     : GPa
 output     inv_length unit                     : 1/A
 output      frequency unit                     : cm-1
 output force constant unit                     : eV/A**2
 output         volume unit                     : A**3
 output   IR intensity unit                     : (D/A)**2/amu
 output         dipole unit                     : D
 output         efield unit                     : eV/A/e
 output        entropy unit                     : J/mol/K

 wavefunctions paging                           : none
 random number generator seed                   : randomised (100446791)
 data distribution                              : optimal for this architecture
 optimization strategy                          : maximize speed(+++)

 *********************** Exchange-Correlation Parameters ***********************

 using functional                               : Perdew Burke Ernzerhof
 relativistic treatment                         : ZORA
 DFT+D: Semi-empirical dispersion correction    : off

 ************************* Pseudopotential Parameters **************************

[...]
  |    O          42      -87.33      88.66      0.31  -3.138E+00   0.10 |
  |    O          43      -87.58      91.93      0.24  -3.189E+00   0.10 |
  |    O          44     -164.17     157.78      0.79   1.054E+00   0.89 |
  |    O          45      -88.61      92.35      0.24  -3.151E+00   0.12 |
  |    O          46     -162.56     151.64      0.84   1.086E+00   0.81 |
  |    O          47     -162.17     152.11      0.83   1.069E+00   0.80 |
  |    O          48     -163.48     154.02      0.81   1.066E+00   0.89 |
  |    O          49     -162.56     151.63      0.84   1.086E+00   0.81 |
  |    O          50      -88.61      92.35      0.24  -3.151E+00   0.12 |
  |    O          51     -163.34     154.95      0.86   1.065E+00   0.81 |
  |    O          52     -166.11     156.53      0.79   1.032E+00   0.99 |
  |    O          53     -162.17     152.11      0.83   1.069E+00   0.80 |
  |    O          54     -163.48     154.02      0.81   1.066E+00   0.89 |
  |    O          55     -163.34     154.94      0.86   1.065E+00   0.81 |
  |    O          56     -166.11     156.52      0.79   1.032E+00   0.99 |
  |    Zr          1     1633.03    -126.38      0.10  -3.931E+01   0.05 |
  |    Zr          2     1619.92    -124.06      0.14  -3.746E+01   0.01 |
  |    Zr          3     1632.95    -130.11      0.09  -3.927E+01   0.06 |
  |    Zr          4     1632.95    -130.11      0.09  -3.927E+01   0.06 |
[...]
  |    La          2     4749.91     874.35      0.06  -8.312E+01   0.06 |
  |    La          3     4707.47     765.26      0.04  -8.252E+01   0.04 |
  |    La          4     4707.47     765.26      0.04  -8.252E+01   0.04 |
  |    La          5     4653.92     661.14      0.01  -7.991E+01   0.02 |
  |    La          6     4753.35     865.78      0.06  -8.414E+01   0.07 |
  |    La          7     4753.35     865.77      0.06  -8.414E+01   0.07 |
  |    La          8     4759.98     860.31      0.04  -8.470E+01   0.05 |
  |    La          9     4653.24     664.72      0.11  -7.866E+01   0.15 |
  |    La         10     4708.83     784.99      0.10  -8.291E+01   0.10 |
  |    La         11     4653.24     664.72      0.11  -7.866E+01   0.15 |
  |    La         12     4655.69     668.73      0.11  -7.868E+01   0.14 |
  |    La         13     4759.98     860.30      0.04  -8.470E+01   0.05 |
  |    La         14     4708.83     784.99      0.10  -8.291E+01   0.10 |
  |    La         15     4655.69     668.72      0.11  -7.868E+01   0.14 |
  |    La         16     4715.63     759.98      0.02  -8.302E+01   0.03 |

 *********************** Forces ***********************
 *            Cartesian components (eV/A)             *
 *                   x            y            z      *
 * O         1     -0.00694     -0.01555     -0.00766 *
 * O         2     -0.00805      0.00127     -0.00920 *
 * O         3     -0.00882     -0.01058     -0.00246 *
 * O         4     -0.00178     -0.00889      0.00216 *
 * O         5     -0.00127      0.00805      0.00921 *
 * O         6      0.01555      0.00694      0.00766 *
 * O         7      0.00890      0.00178     -0.00216 *
 * O         8      0.01058      0.00882      0.00247 *
 * O         9     -0.00036     -0.01371     -0.01492 *
 * O        10     -0.00666      0.00104      0.00587 *
 * O        11     -0.01064     -0.00485     -0.00415 *
 * O        12      0.01028     -0.01916     -0.00987 *
 * O        13      0.00056     -0.00855      0.00063 *
 * O        14      0.00462     -0.00647      0.00662 *
 * O        15     -0.02521      0.01401      0.01305 *
 * O        16     -0.00746      0.00093     -0.00741 *
 * O        17     -0.01714     -0.01425     -0.00251 *
 * O        18      0.01552     -0.02018     -0.00113 *
 * O        19     -0.02004      0.01374      0.00905 *
 * O        20     -0.02066     -0.00686     -0.00531 *
 * O        21     -0.00104      0.00666     -0.00587 *
 * O        22      0.01371      0.00036      0.01491 *
 * O        23      0.01916     -0.01029      0.00987 *
 * O        24      0.00485      0.01064      0.00415 *
 * O        25     -0.01401      0.02521     -0.01305 *
 * O        26     -0.00093      0.00746      0.00741 *
 * O        27      0.00855     -0.00056     -0.00063 *
 * O        28      0.00647     -0.00462     -0.00662 *
 * O        29      0.00686      0.02066      0.00531 *
 * O        30     -0.01374      0.02004     -0.00905 *
 * O        31      0.02018     -0.01552      0.00113 *
 * O        32      0.01425      0.01714      0.00251 *
 * O        33      0.00301      0.00087     -0.00076 *
 * O        34      0.00299      0.01996      0.00552 *
 * O        35      0.01428     -0.00061     -0.01758 *
 * O        36      0.00476     -0.00289      0.01629 *
 * O        37     -0.00401      0.00119      0.01137 *
 * O        38      0.01072      0.01250     -0.00410 *
 * O        39     -0.00087     -0.00301      0.00076 *
 * O        40     -0.01995     -0.00299     -0.00552 *
 * O        41      0.00290     -0.00476     -0.01628 *
 * O        42      0.00060     -0.01428      0.01758 *
 * O        43     -0.01250     -0.01072      0.00410 *
 * O        44     -0.00119      0.00401     -0.01137 *
 * O        45      0.00024      0.01362      0.01356 *
 * O        46     -0.01122     -0.00890     -0.00345 *
 * O        47      0.00207     -0.00835     -0.00895 *
 * O        48      0.00721     -0.00354      0.01390 *
 * O        49      0.00890      0.01122      0.00344 *
 * O        50     -0.01362     -0.00025     -0.01356 *
 * O        51      0.00539      0.00444      0.00876 *
 * O        52     -0.01967     -0.00446      0.00169 *
 * O        53      0.00835     -0.00207      0.00895 *
 * O        54      0.00354     -0.00721     -0.01390 *
 * O        55     -0.00444     -0.00539     -0.00876 *
 * O        56      0.00446      0.01967     -0.00169 *
 * Zr        1     -0.00910      0.00910     -0.00000 *
 * Zr        2     -0.00057      0.00058     -0.00000 *
 * Zr        3      0.00381     -0.00619      0.00081 *
 * Zr        4      0.00619     -0.00381     -0.00080 *
[...]
 * La        2      0.01340     -0.01341     -0.00000 *
 * La        3      0.00286      0.00828      0.01126 *
 * La        4     -0.00827     -0.00286     -0.01126 *
 * La        5     -0.00243      0.00244     -0.00000 *
 * La        6      0.01125     -0.00596     -0.00895 *
 * La        7      0.00596     -0.01126      0.00895 *
 * La        8      0.00617     -0.00126     -0.01327 *
 * La        9     -0.01189      0.00054     -0.00985 *
 * La       10      0.00012      0.00585      0.00966 *
 * La       11     -0.00054      0.01188      0.00985 *
 * La       12     -0.00805     -0.00774     -0.00533 *
 * La       13      0.00127     -0.00617      0.01326 *
 * La       14     -0.00585     -0.00011     -0.00966 *
 * La       15      0.00774      0.00805      0.00533 *
 * La       16     -0.01027      0.01027     -0.00000 *

 ***************** Stress Tensor *****************
 *          Cartesian components (GPa)           *
 *             x             y             z     *
 *  x      0.033391      0.028639      0.036891  *
 *  y      0.028639      0.033389      0.036903  *
 *  z      0.036891      0.036903     -0.019592  *
 *  Pressure:   -0.0157                          *

[...]

 Pseudo atomic calculation performed for Sn 4d10 5s2 5p2

[...]

 Pseudo atomic calculation performed for La 5s2 5p6 5d1 6s2

 Converged in 34 iterations to a total energy of -968.0372 eV

Charge spilling parameter for spin component 1 = 0.23%

     Atomic Populations (Mulliken)
Species   Ion     s      p      d      f     Total  Charge (e)
  O        1     1.87   5.00   0.00   0.00   6.87    -0.87
  O        2     1.87   5.00   0.00   0.00   6.87    -0.87
  O        3     1.87   5.00   0.00   0.00   6.87    -0.87
  O        4     1.87   5.00   0.00   0.00   6.87    -0.87
  O        5     1.87   5.00   0.00   0.00   6.87    -0.87
  O        6     1.87   5.00   0.00   0.00   6.87    -0.87
  O        7     1.87   5.00   0.00   0.00   6.87    -0.87
  O        8     1.87   5.00   0.00   0.00   6.87    -0.87
  O        9     1.87   4.98   0.00   0.00   6.85    -0.85
  O       10     1.86   4.94   0.00   0.00   6.80    -0.80
  O       11     1.86   4.94   0.00   0.00   6.80    -0.80
  O       12     1.87   4.99   0.00   0.00   6.85    -0.85
  O       13     1.88   5.02   0.00   0.00   6.91    -0.91
  O       14     1.86   4.94   0.00   0.00   6.80    -0.80
  O       15     1.87   4.98   0.00   0.00   6.85    -0.85
  O       16     1.87   4.98   0.00   0.00   6.85    -0.85
  O       17     1.87   4.99   0.00   0.00   6.85    -0.85
  O       18     1.87   4.99   0.00   0.00   6.85    -0.85
  O       19     1.87   4.98   0.00   0.00   6.85    -0.85
  O       20     1.87   4.98   0.00   0.00   6.85    -0.85
  O       21     1.86   4.94   0.00   0.00   6.80    -0.80
  O       22     1.87   4.98   0.00   0.00   6.85    -0.85
  O       23     1.87   4.99   0.00   0.00   6.85    -0.85
  O       24     1.86   4.94   0.00   0.00   6.80    -0.80
  O       25     1.87   4.98   0.00   0.00   6.85    -0.85
  O       26     1.87   4.98   0.00   0.00   6.85    -0.85
  O       27     1.88   5.02   0.00   0.00   6.91    -0.91
  O       28     1.86   4.94   0.00   0.00   6.80    -0.80
  O       29     1.87   4.98   0.00   0.00   6.85    -0.85
  O       30     1.87   4.98   0.00   0.00   6.85    -0.85
  O       31     1.87   4.99   0.00   0.00   6.85    -0.85
  O       32     1.87   4.98   0.00   0.00   6.85    -0.85
  O       33     1.86   4.94   0.00   0.00   6.80    -0.80
  O       34     1.87   4.98   0.00   0.00   6.85    -0.85
  O       35     1.87   4.99   0.00   0.00   6.85    -0.85
  O       36     1.87   4.99   0.00   0.00   6.85    -0.85
  O       37     1.86   4.94   0.00   0.00   6.80    -0.80
  O       38     1.87   4.99   0.00   0.00   6.85    -0.85
  O       39     1.86   4.94   0.00   0.00   6.80    -0.80
  O       40     1.87   4.98   0.00   0.00   6.85    -0.85
  O       41     1.87   4.99   0.00   0.00   6.85    -0.85
  O       42     1.87   4.99   0.00   0.00   6.85    -0.85
  O       43     1.87   4.99   0.00   0.00   6.85    -0.85
  O       44     1.86   4.94   0.00   0.00   6.80    -0.80
  O       45     1.87   4.98   0.00   0.00   6.85    -0.85
  O       46     1.86   4.94   0.00   0.00   6.80    -0.80
  O       47     1.86   4.94   0.00   0.00   6.80    -0.80
  O       48     1.86   4.94   0.00   0.00   6.80    -0.80
  O       49     1.86   4.94   0.00   0.00   6.80    -0.80
  O       50     1.87   4.98   0.00   0.00   6.85    -0.85
  O       51     1.86   4.95   0.00   0.00   6.80    -0.80
  O       52     1.86   4.94   0.00   0.00   6.80    -0.80
  O       53     1.86   4.94   0.00   0.00   6.80    -0.80
  O       54     1.86   4.94   0.00   0.00   6.80    -0.80
  O       55     1.86   4.95   0.00   0.00   6.80    -0.80
  O       56     1.86   4.94   0.00   0.00   6.80    -0.80
  Zr       1     2.38   6.48   1.93   0.00  10.79     1.21
  Zr       2     2.37   6.50   1.92   0.00  10.80     1.20
  Zr       3     2.37   6.48   1.93   0.00  10.78     1.22
  Zr       4     2.37   6.48   1.93   0.00  10.78     1.22
[...]
  La       2     2.05   6.14   1.19   0.00   9.39     1.61
  La       3     2.06   6.16   1.19   0.00   9.42     1.58
  La       4     2.06   6.16   1.19   0.00   9.42     1.58
  La       5     2.08   6.17   1.19   0.00   9.45     1.55
  La       6     2.04   6.15   1.19   0.00   9.38     1.62
  La       7     2.04   6.15   1.19   0.00   9.38     1.62
  La       8     2.02   6.15   1.19   0.00   9.37     1.63
  La       9     2.09   6.17   1.19   0.00   9.46     1.54
  La      10     2.07   6.16   1.19   0.00   9.42     1.58
  La      11     2.09   6.17   1.19   0.00   9.46     1.54
  La      12     2.07   6.18   1.19   0.00   9.44     1.56
  La      13     2.02   6.15   1.19   0.00   9.37     1.63
  La      14     2.07   6.16   1.19   0.00   9.42     1.58
  La      15     2.07   6.18   1.19   0.00   9.44     1.56
  La      16     2.04   6.17   1.19   0.00   9.40     1.60

            Bond              Population      Length (A)
         O 12 -- Sn 3              0.35        2.10155
         O 23 -- Sn 1              0.35        2.10155
         O 41 -- Sn 5              0.35        2.10315
         O 36 -- Sn 5              0.35        2.10315
         O 18 -- Sn 2              0.35        2.10400
         O 31 -- Sn 4              0.35        2.10400
         O 40 -- Sn 1              0.35        2.10545
         O 34 -- Sn 3              0.35        2.10545
         O 35 -- Sn 4              0.35        2.10581
         O 42 -- Sn 2              0.35        2.10581
         O 43 -- Sn 3              0.35        2.10582
         O 38 -- Sn 1              0.35        2.10582
         O 17 -- Sn 5              0.34        2.10595
         O 32 -- Sn 5              0.34        2.10595
         O 16 -- Sn 5              0.34        2.10612
         O 26 -- Sn 5              0.34        2.10612
         O 20 -- Sn 1              0.35        2.10707
         O 29 -- Sn 3              0.35        2.10707
         O 45 -- Sn 4              0.34        2.10801
         O 50 -- Sn 2              0.34        2.10801
         O 19 -- Sn 4              0.35        2.10821
         O 30 -- Sn 2              0.35        2.10821
         O 25 -- Sn 2              0.35        2.10841
         O 15 -- Sn 4              0.35        2.10841
         O 13 -- Sn 2              0.34        2.10891
         O 27 -- Sn 4              0.34        2.10891
         O 22 -- Sn 3              0.34        2.10910
         O 9  -- Sn 1              0.34        2.10910
         O 27 -- Sn 1              0.33        2.11004
         O 13 -- Sn 3              0.33        2.11004
         O 44 -- Zr 3              0.43        2.11486
         O 37 -- Zr 4              0.43        2.11487
         O 51 -- Zr 2              0.42        2.11677
         O 55 -- Zr 2              0.42        2.11677
         O 46 -- Zr 5              0.42        2.11739
         O 49 -- Zr 5              0.42        2.11739
         O 48 -- Zr 1              0.42        2.11754
         O 54 -- Zr 1              0.42        2.11754
         O 33 -- Zr 3              0.42        2.11764
         O 39 -- Zr 4              0.42        2.11764
         O 39 -- Zr 8              0.42        2.11781
         O 33 -- Zr 10             0.42        2.11781
         O 28 -- Zr 5              0.42        2.11792
         O 14 -- Zr 5              0.42        2.11792
         O 17 -- Zr 8              0.46        2.11799
         O 32 -- Zr 10             0.46        2.11799
         O 14 -- Zr 11             0.42        2.11800
         O 28 -- Zr 9              0.42        2.11800
         O 10 -- Zr 6              0.43        2.11854
         O 21 -- Zr 7              0.43        2.11854
         O 31 -- Zr 6              0.45        2.11868
         O 18 -- Zr 7              0.45        2.11868
         O 56 -- Zr 1              0.43        2.11902
         O 52 -- Zr 1              0.43        2.11902
         O 12 -- Zr 7              0.45        2.11910
         O 23 -- Zr 6              0.45        2.11910
         O 11 -- Zr 9              0.42        2.11913
         O 24 -- Zr 11             0.42        2.11913
         O 9  -- Zr 11             0.46        2.11915
         O 22 -- Zr 9              0.46        2.11915
[...]
         O 19 -- O 22             -0.03        2.82584
         O 47 -- O 51             -0.03        2.82771
         O 53 -- O 55             -0.03        2.82771
         O 33 -- O 40             -0.03        2.82791
         O 34 -- O 39             -0.03        2.82791
         O 45 -- O 50             -0.03        2.82799
         O 14 -- O 29             -0.03        2.82900
         O 20 -- O 28             -0.03        2.82900
         O 46 -- O 49             -0.03        2.82951
         O 46 -- O 53             -0.03        2.82996
         O 47 -- O 49             -0.03        2.82996
         O 15 -- O 33             -0.03        2.83130
         O 25 -- O 39             -0.03        2.83130
         O 19 -- O 28             -0.03        2.83175
         O 14 -- O 30             -0.03        2.83175

Writing analysis data to Zr11_14_nmr.castep_bin

Writing model to Zr11_14_nmr.check

 A BibTeX formatted list of references used in this run has been written to
 Zr11_14_nmr.bib

Initialisation time =     38.12 s
Calculation time    =   4433.37 s
Finalisation time   =      9.09 s
Total time          =   4480.58 s

Overall parallel efficiency rating: Satisfactory (68%)

Data was distributed by:-
G-vector (24-way); efficiency rating: Good (70%)
k-point (14-way); efficiency rating: Excellent (95%)