 Compiled for linux_x86_64_ifort17 on Mon, 09 Apr 2018 23:35:31 +0100
 from code version
 203e84763863+ Castep161_branch Fri, 04 Mar 2016 19:21:07 +0000
 Compiler: Intel Fortran 17.0.1.132; Optimisation: fast
 MATHLIBS: Intel MKL(2017.0.1) (LAPACK version 3.6.0)
 FFT Lib : mkl
 Fundamental constants values: CODATA 2010

 Run started: Fri, 11 Sep 2020 14:15:16 +0100
 |           N   N    M   M    RRRR                |
 |           NN  N    MM MM    R   R               |
 |           N N N    M M M    RRRR                |
 |           N  NN    M   M    R  R                |
 |           N   N    M   M    R   R               |
 | Welcome to Materials Studio CASTEP-NMR          |
 | Authors:                                        |
 | J.R. Yates, C.J. Pickard, F. Mauri              |
 | Contributors:                                   |
 | T.F.G. Green, S.A. Joyce                        |
 | Copyright (c) 2004 - 2015                       |
 | Please cite the appropriate publications in all |
 | work arising from your use of CASTEP NMR.       |
 | For NMR Shielding Tensors cite:                 |
 |    "All-electron magnetic response with         |
 |    pseudopotentials: NMR chemical shifts",      |
 |    C. J. Pickard, F. Mauri;                     |
 |    Physical Review B63 245101 (2001), and       |
 |    "Calculation of NMR Chemical Shifts          |
 |    for extended systems using                   |
 |    Ultrasoft Pseudopotentials",                 |
 |    J. R. Yates, C. J. Pickard and F. Mauri      |
 |    Physical Review B76 024401 (2007)            |
 | For Electric Field Gradients cite:              |
 |   "Accurate First Principles Prediction of 17O  |
 |    NMR Parameters in SiO2: Assignment of the    |
 |    Zeolite Ferrierite Spectrum"                 |
 |    M. Profeta, F. Mauri and C. J. Pickard       |
 |    J. Amer. Chem. Soc. 125 541 (2003)           |
 | For Spin-Spin (J) Couplings cite:               |
 |   "A first principles theory of NMR J-coupling  |
 |   in solid-state systems"                       |
 |   S.A. Joyce, J.R. Yates, C.J. Pickard, F. Mauri|
 |   J. Chem. Phys. 127 204107 (2007)              |
 |   "Relativistic NMR J-coupling with ultrasoft   |
 |   pseudopotentials and the zeroth-order regular |
 |   approximation"                                |
 |   T.F.G. Green and J.R. Yates                   |
 |   J. Chem. Phys. 140 234106 (2014)              |

 Atomic calculation performed for O: 1s2 2s2 2p4

 Converged in 44 iterations to an ae energy of -2040.855 eV

[...]

 Exceeded max iterations: converged to 0.000000062 eV

   | Pseudopotential Report - Date of generation 11-09-2020   |
   | Element: O Ionic charge:  6.00 Level of theory: PBE      |
   | Atomic Solver: ZORA (scalar)                             |
   |               Reference Electronic Structure             |
   |         Orbital         Occupation         Energy        |
   |            2s              2.000           -0.881        |
   |            2p              4.000           -0.332        |
   |                 Pseudopotential Definition               |
   |        Beta     l      e      Rc     scheme   norm       |
   |          1      0   -0.881   1.100     qc      0         |
   |          2      0    0.250   1.100     qc      0         |
   |          3      1   -0.332   1.100     qc      0         |
   |          4      1    0.250   1.100     qc      0         |
   |         loc     2    0.000   1.100     pn      0         |
   | Augmentation charge Rinner = 0.769                       |
   | Partial core correction Rc = 0.769                       |
   | "2|1.1|15|18|20|20:21(qc=7)"                             |
   |      Author: Chris J. Pickard, Cambridge University      |

 Atomic calculation performed for Zr: 1s2 2s2 2p6 3s2 3p6 3d10 4s2 4p6 4d2 5s2

[...]

 Warning: ion_atom_descreen_psp: negative charge density encountered
   | Pseudopotential Report - Date of generation 11-09-2020   |
   | Element: Zr Ionic charge: 12.00 Level of theory: PBE     |
   | Atomic Solver: ZORA (scalar)                             |
   |               Reference Electronic Structure             |
   |         Orbital         Occupation         Energy        |
   |            4s              2.000           -2.003        |
   |            4p              6.000           -1.193        |
   |            5s              2.000           -0.163        |
   |            4d              2.000           -0.132        |
   |                 Pseudopotential Definition               |
   |        Beta     l      e      Rc     scheme   norm       |
   |          1      0   -2.003   2.105     qc      0         |
   |          2      0   -0.163   2.105     qc      0         |
   |          3      0    0.250   2.105     qc      0         |
   |          4      1   -1.193   2.105     qc      0         |
   |          5      1    0.250   2.105     qc      0         |
   |          6      2   -0.132   2.105     qc      0         |
   |          7      2    0.250   2.105     qc      0         |
   |         loc     3    0.000   2.105     pn      0         |
   | Augmentation charge Rinner = 1.471                       |
   | Partial core correction Rc = 1.471                       |
   | "3|2.1|7|8|9|40U:50:41:42"                               |
   |      Author: Chris J. Pickard, Cambridge University      |

 Atomic calculation performed for Sn:

[...]

   | Pseudopotential Report - Date of generation 11-09-2020   |
   | Element: Sn Ionic charge: 14.00 Level of theory: PBE     |
   | Atomic Solver: ZORA (scalar)                             |
   |               Reference Electronic Structure             |
   |         Orbital         Occupation         Energy        |
   |            4d             10.000           -0.950        |
   |            5s              2.000           -0.388        |
   |            5p              2.000           -0.136        |
   |                 Pseudopotential Definition               |
   |        Beta     l      e      Rc     scheme   norm       |
   |          1      0   -0.388   2.199     qc      0         |
   |          2      0    0.250   2.199     qc      0         |
   |          3      1   -0.136   2.199     qc      0         |
   |          4      1    0.250   2.199     qc      0         |
   |          5      2   -0.950   2.199     qc      0         |
   |          6      2    0.250   2.199     qc      0         |
   |         loc     3    0.000   2.199     pn      0         |
   | Augmentation charge Rinner = 1.537                       |
   | Partial core correction Rc = 1.537                       |
   | "3|2.2|7|8|9|50:51:42"                                   |
   |      Author: Chris J. Pickard, Cambridge University      |

 Atomic calculation performed for La:

[...]

 Warning: ion_atom_descreen_psp: negative charge density encountered
   | Pseudopotential Report - Date of generation 11-09-2020   |
   | Element: La Ionic charge: 11.00 Level of theory: PBE     |
   | Atomic Solver: ZORA (scalar)                             |
   |               Reference Electronic Structure             |
   |         Orbital         Occupation         Energy        |
   |            5s              2.000           -1.430        |
   |            5p              6.000           -0.823        |
   |            6s              2.000           -0.135        |
   |            5d              1.000           -0.114        |
   |                 Pseudopotential Definition               |
   |        Beta     l      e      Rc     scheme   norm       |
   |          1      0   -1.430   2.298     qc      0         |
   |          2      0   -0.135   2.298     qc      0         |
   |          3      0    0.250   2.298     qc      0         |
   |          4      1   -0.823   2.298     qc      0         |
   |          5      1    0.250   2.298     qc      0         |
   |          6      2   -0.114   2.298     qc      0         |
   |          7      2    0.250   2.298     qc      0         |
   |         loc     2    0.000   2.298     pn      0         |
   | Augmentation charge Rinner = 1.606                       |
   | Partial core correction Rc = 1.606                       |
   | "2|2.3|5|6|7|50U:60:51:52(qc=4.5)"                       |
   |      Author: Chris J. Pickard, Cambridge University      |

 Pseudo atomic calculation performed for O 2s2 2p4

 Converged in 39 iterations to a total energy of -432.6554 eV

 Pseudo atomic calculation performed for Zr 4s2 4p6 4d2 5s2

[...]

 Calculation parallelised over 336 processes.
 Data is distributed by G-vector(24-way) and k-point(14-way)

 ************************************ Title ************************************
 nmr testing

 ***************************** General Parameters ******************************

 output verbosity                               : normal  (1)
 write checkpoint data to                       : Zr11_16_nmr.check
 type of calculation                            : Magnetic Resonance
 stress calculation                             : on
 density difference calculation                 : off
 electron localisation func (ELF) calculation   : off
 Hirshfeld analysis                             : off
 unlimited duration calculation
 timing information                             : on
 write final potential to formatted file        : off
 write final density to formatted file          : off
 write BibTeX reference list                    : on
 write OTFG pseudopotential files               : on
 checkpoint writing                             : both castep_bin and check files

 output         length unit                     : A
 output           mass unit                     : amu
 output           time unit                     : ps
 output         charge unit                     : e
 output           spin unit                     : hbar/2
 output         energy unit                     : eV
 output          force unit                     : eV/A
 output       velocity unit                     : A/ps
 output       pressure unit                     : GPa
 output     inv_length unit                     : 1/A
 output      frequency unit                     : cm-1
 output force constant unit                     : eV/A**2
 output         volume unit                     : A**3
 output   IR intensity unit                     : (D/A)**2/amu
 output         dipole unit                     : D
 output         efield unit                     : eV/A/e
 output        entropy unit                     : J/mol/K

 wavefunctions paging                           : none
 random number generator seed                   : randomised (141516771)
 data distribution                              : optimal for this architecture
 optimization strategy                          : maximize speed(+++)

 *********************** Exchange-Correlation Parameters ***********************

 using functional                               : Perdew Burke Ernzerhof
 relativistic treatment                         : ZORA
 DFT+D: Semi-empirical dispersion correction    : off

 ************************* Pseudopotential Parameters **************************

[...]
  |    O          42      -87.48      87.28      0.07  -3.175E+00   0.10 |
  |    O          43     -165.38     158.27      0.85   1.074E+00   0.89 |
  |    O          44      -88.72      92.79      0.32  -3.131E+00   0.11 |
  |    O          45      -86.66      93.94      0.26  -3.175E+00   0.11 |
  |    O          46     -163.59     149.31      0.83   1.083E+00   0.81 |
  |    O          47     -165.86     160.51      0.79   1.078E+00   0.95 |
  |    O          48     -161.84     147.05      0.82   1.078E+00   0.73 |
  |    O          49     -164.03     152.20      0.76   1.046E+00   0.90 |
  |    O          50      -86.20      86.14      0.06  -3.185E+00   0.10 |
  |    O          51     -162.84     154.50      0.82   1.057E+00   0.82 |
  |    O          52      -88.61      86.18      0.20  -3.251E+00   0.12 |
  |    O          53      -90.61      84.53      0.17  -3.207E+00   0.13 |
  |    O          54     -165.55     157.08      0.85   1.042E+00   0.92 |
  |    O          55      -88.15      78.93      0.27  -3.230E+00   0.11 |
  |    O          56     -164.53     159.20      0.81   1.053E+00   0.89 |
  |    Zr          1     1627.85    -127.16      0.08  -3.839E+01   0.05 |
  |    Zr          2     1626.72    -127.28      0.07  -3.823E+01   0.11 |
  |    Zr          3     1626.57    -126.30      0.10  -3.827E+01   0.06 |
  |    Zr          4     1627.91    -123.48      0.13  -4.033E+01   0.07 |
[...]
  |    La          2     4702.54     773.17      0.05  -8.161E+01   0.06 |
  |    La          3     4753.24     873.84      0.04  -8.513E+01   0.03 |
  |    La          4     4761.85     851.64      0.04  -8.620E+01   0.06 |
  |    La          5     4603.74     530.37      0.10  -7.569E+01   0.09 |
  |    La          6     4708.07     779.81      0.12  -8.277E+01   0.13 |
  |    La          7     4803.13     956.80      0.01  -8.699E+01   0.03 |
  |    La          8     4706.12     746.90      0.04  -8.096E+01   0.07 |
  |    La          9     4702.89     785.60      0.13  -8.143E+01   0.12 |
  |    La         10     4659.96     657.65      0.10  -7.969E+01   0.13 |
  |    La         11     4700.32     754.06      0.05  -8.008E+01   0.09 |
  |    La         12     4704.35     778.09      0.05  -8.192E+01   0.05 |
  |    La         13     4708.83     784.64      0.11  -8.275E+01   0.10 |
  |    La         14     4759.66     863.58      0.04  -8.526E+01   0.06 |
  |    La         15     4715.33     758.54      0.04  -8.329E+01   0.08 |
  |    La         16     4656.08     668.70      0.11  -7.867E+01   0.13 |

 *********************** Forces ***********************
 *            Cartesian components (eV/A)             *
 *                   x            y            z      *
 * O         1     -0.00749      0.00314     -0.00576 *
 * O         2     -0.00682      0.00944      0.00521 *
 * O         3     -0.00917     -0.00066      0.01085 *
 * O         4     -0.00352      0.00928      0.00556 *
 * O         5      0.00667     -0.00114      0.00100 *
 * O         6      0.01099     -0.00164      0.00168 *
 * O         7      0.00549     -0.00779     -0.00914 *
 * O         8      0.01661     -0.00179     -0.00505 *
 * O         9      0.00234      0.01269      0.01161 *
 * O        10     -0.00546      0.01081      0.00565 *
 * O        11     -0.01058      0.00485     -0.00424 *
 * O        12      0.00759      0.01543      0.01241 *
 * O        13      0.01606     -0.00001      0.02220 *
 * O        14     -0.01672      0.00469      0.02238 *
 * O        15     -0.00603      0.00504      0.01382 *
 * O        16     -0.02101     -0.00723     -0.00763 *
 * O        17     -0.01992     -0.00423     -0.00712 *
 * O        18     -0.00164     -0.00230      0.00859 *
 * O        19     -0.01464      0.01911     -0.00290 *
 * O        20     -0.01159     -0.00404      0.00619 *
 * O        21      0.01421      0.00530     -0.01794 *
 * O        22      0.00034     -0.00286     -0.00361 *
 * O        23     -0.00151     -0.01048     -0.00702 *
 * O        24      0.02029      0.00851     -0.01560 *
 * O        25     -0.00474      0.01936     -0.02663 *
 * O        26      0.00338     -0.00034     -0.00377 *
 * O        27      0.00157     -0.00888     -0.01269 *
 * O        28     -0.00415     -0.00445     -0.01144 *
 * O        29     -0.00464     -0.00204     -0.00462 *
 * O        30      0.00129     -0.00009     -0.00886 *
 * O        31      0.01702     -0.01066      0.00478 *
 * O        32      0.02465      0.02422      0.00239 *
 * O        33      0.01225      0.00239     -0.00264 *
 * O        34     -0.01499     -0.00369     -0.00578 *
 * O        35      0.00876     -0.00281     -0.01016 *
 * O        36      0.01258     -0.00143      0.02262 *
 * O        37     -0.00730     -0.00163      0.01352 *
 * O        38     -0.00234     -0.00769     -0.01022 *
 * O        39      0.01013     -0.01572     -0.00346 *
 * O        40      0.00883      0.01178      0.00823 *
 * O        41     -0.00172     -0.02220     -0.01955 *
 * O        42      0.00338     -0.01650      0.02924 *
 * O        43     -0.00217     -0.00294      0.01104 *
 * O        44     -0.00501      0.01079      0.00319 *
 * O        45      0.00567      0.00798      0.01550 *
 * O        46     -0.01354     -0.01425      0.00350 *
 * O        47      0.00497     -0.01070     -0.02331 *
 * O        48      0.00560      0.00486      0.00745 *
 * O        49     -0.00305      0.00773      0.00037 *
 * O        50     -0.01315     -0.00038     -0.02569 *
 * O        51      0.00156     -0.00011      0.00498 *
 * O        52     -0.00935     -0.01527     -0.01106 *
 * O        53      0.01419     -0.00874      0.00914 *
 * O        54      0.00639      0.00295     -0.00991 *
 * O        55     -0.02503     -0.00225      0.00815 *
 * O        56     -0.01048      0.00758     -0.00600 *
 * Zr        1      0.00209      0.02141     -0.01291 *
 * Zr        2     -0.00391     -0.00090      0.00383 *
 * Zr        3      0.00216      0.00671     -0.00166 *
 * Zr        4     -0.00867      0.00167      0.00126 *
[...]
 * La        2     -0.00005     -0.00732     -0.00384 *
 * La        3      0.00452      0.00553      0.00780 *
 * La        4     -0.00963     -0.00782     -0.00473 *
 * La        5     -0.00430      0.00072      0.00105 *
 * La        6      0.00537     -0.00416     -0.00621 *
 * La        7      0.00141     -0.00514      0.00505 *
 * La        8      0.00446      0.00882     -0.00668 *
 * La        9      0.00304     -0.00203     -0.00751 *
 * La       10     -0.00304      0.00378      0.00592 *
 * La       11      0.00733      0.01719      0.01304 *
 * La       12     -0.00582     -0.00864     -0.00384 *
 * La       13      0.00292      0.00473      0.00781 *
 * La       14     -0.00421      0.00560     -0.00590 *
 * La       15      0.00855      0.00601      0.00174 *
 * La       16     -0.00365     -0.00299      0.00025 *

 ***************** Stress Tensor *****************
 *          Cartesian components (GPa)           *
 *             x             y             z     *
 *  x      0.026921     -0.016696     -0.032178  *
 *  y     -0.016696     -0.030009      0.045515  *
 *  z     -0.032178      0.045515      0.055885  *
 *  Pressure:   -0.0176                          *

[...]

 Pseudo atomic calculation performed for Sn 4d10 5s2 5p2

[...]

 Pseudo atomic calculation performed for La 5s2 5p6 5d1 6s2

 Converged in 34 iterations to a total energy of -968.0372 eV

Charge spilling parameter for spin component 1 = 0.23%

     Atomic Populations (Mulliken)
Species   Ion     s      p      d      f     Total  Charge (e)
  O        1     1.87   5.00   0.00   0.00   6.87    -0.87
  O        2     1.87   5.00   0.00   0.00   6.87    -0.87
  O        3     1.87   5.00   0.00   0.00   6.87    -0.87
  O        4     1.87   5.00   0.00   0.00   6.87    -0.87
  O        5     1.87   5.00   0.00   0.00   6.87    -0.87
  O        6     1.87   5.00   0.00   0.00   6.87    -0.87
  O        7     1.87   5.00   0.00   0.00   6.87    -0.87
  O        8     1.87   5.00   0.00   0.00   6.87    -0.87
  O        9     1.87   4.98   0.00   0.00   6.85    -0.85
  O       10     1.86   4.94   0.00   0.00   6.80    -0.80
  O       11     1.86   4.94   0.00   0.00   6.80    -0.80
  O       12     1.87   4.99   0.00   0.00   6.85    -0.85
  O       13     1.87   4.99   0.00   0.00   6.85    -0.85
  O       14     1.87   4.98   0.00   0.00   6.85    -0.85
  O       15     1.87   4.98   0.00   0.00   6.85    -0.85
  O       16     1.87   4.99   0.00   0.00   6.85    -0.85
  O       17     1.87   4.98   0.00   0.00   6.85    -0.85
  O       18     1.88   5.02   0.00   0.00   6.90    -0.90
  O       19     1.87   4.99   0.00   0.00   6.85    -0.85
  O       20     1.86   4.94   0.00   0.00   6.80    -0.80
  O       21     1.87   4.99   0.00   0.00   6.85    -0.85
  O       22     1.86   4.94   0.00   0.00   6.80    -0.80
  O       23     1.86   4.94   0.00   0.00   6.80    -0.80
  O       24     1.87   4.99   0.00   0.00   6.85    -0.85
  O       25     1.87   4.99   0.00   0.00   6.85    -0.85
  O       26     1.88   5.02   0.00   0.00   6.90    -0.90
  O       27     1.87   4.99   0.00   0.00   6.85    -0.85
  O       28     1.86   4.94   0.00   0.00   6.80    -0.80
  O       29     1.86   4.94   0.00   0.00   6.80    -0.80
  O       30     1.88   5.02   0.00   0.00   6.91    -0.91
  O       31     1.87   4.99   0.00   0.00   6.85    -0.85
  O       32     1.87   4.99   0.00   0.00   6.85    -0.85
  O       33     1.86   4.95   0.00   0.00   6.80    -0.80
  O       34     1.86   4.94   0.00   0.00   6.80    -0.80
  O       35     1.87   4.98   0.00   0.00   6.85    -0.85
  O       36     1.87   4.99   0.00   0.00   6.85    -0.85
  O       37     1.86   4.94   0.00   0.00   6.80    -0.80
  O       38     1.86   4.95   0.00   0.00   6.80    -0.80
  O       39     1.86   4.94   0.00   0.00   6.80    -0.80
  O       40     1.86   4.94   0.00   0.00   6.80    -0.80
  O       41     1.87   4.98   0.00   0.00   6.85    -0.85
  O       42     1.87   4.99   0.00   0.00   6.85    -0.85
  O       43     1.86   4.95   0.00   0.00   6.80    -0.80
  O       44     1.87   4.98   0.00   0.00   6.85    -0.85
  O       45     1.87   4.98   0.00   0.00   6.85    -0.85
  O       46     1.86   4.95   0.00   0.00   6.80    -0.80
  O       47     1.85   4.94   0.00   0.00   6.80    -0.80
  O       48     1.86   4.95   0.00   0.00   6.80    -0.80
  O       49     1.86   4.94   0.00   0.00   6.80    -0.80
  O       50     1.87   4.99   0.00   0.00   6.85    -0.85
  O       51     1.86   4.94   0.00   0.00   6.80    -0.80
  O       52     1.87   4.99   0.00   0.00   6.85    -0.85
  O       53     1.87   4.99   0.00   0.00   6.85    -0.85
  O       54     1.86   4.94   0.00   0.00   6.80    -0.80
  O       55     1.87   4.99   0.00   0.00   6.85    -0.85
  O       56     1.86   4.94   0.00   0.00   6.80    -0.80
  Zr       1     2.38   6.49   1.92   0.00  10.79     1.21
  Zr       2     2.37   6.49   1.92   0.00  10.79     1.21
  Zr       3     2.38   6.49   1.92   0.00  10.79     1.21
  Zr       4     2.38   6.47   1.93   0.00  10.78     1.22
[...]
  La       2     2.07   6.16   1.19   0.00   9.42     1.58
  La       3     2.05   6.15   1.19   0.00   9.39     1.61
  La       4     2.04   6.16   1.19   0.00   9.39     1.61
  La       5     2.11   6.19   1.19   0.00   9.50     1.50
  La       6     2.06   6.16   1.19   0.00   9.42     1.58
  La       7     2.01   6.13   1.19   0.00   9.34     1.66
  La       8     2.07   6.17   1.19   0.00   9.43     1.57
  La       9     2.07   6.15   1.19   0.00   9.42     1.58
  La      10     2.09   6.18   1.19   0.00   9.46     1.54
  La      11     2.08   6.16   1.19   0.00   9.43     1.57
  La      12     2.05   6.16   1.19   0.00   9.40     1.60
  La      13     2.07   6.16   1.19   0.00   9.42     1.58
  La      14     2.03   6.15   1.19   0.00   9.37     1.63
  La      15     2.04   6.17   1.19   0.00   9.40     1.60
  La      16     2.07   6.18   1.19   0.00   9.44     1.56

            Bond              Population      Length (A)
         O 19 -- Sn 4              0.35        2.10087
         O 52 -- Sn 3              0.35        2.10233
         O 31 -- Sn 4              0.35        2.10328
         O 36 -- Sn 5              0.35        2.10328
         O 13 -- Sn 2              0.35        2.10330
         O 27 -- Sn 4              0.35        2.10342
         O 24 -- Sn 3              0.35        2.10391
         O 12 -- Sn 1              0.34        2.10428
         O 32 -- Sn 5              0.35        2.10451
         O 9  -- Sn 3              0.35        2.10544
         O 55 -- Sn 1              0.35        2.10549
         O 21 -- Sn 1              0.35        2.10584
         O 14 -- Sn 3              0.35        2.10614
         O 50 -- Sn 2              0.35        2.10615
         O 41 -- Sn 5              0.34        2.10634
         O 45 -- Sn 4              0.34        2.10651
         O 53 -- Sn 1              0.34        2.10661
         O 16 -- Sn 5              0.35        2.10699
         O 42 -- Sn 2              0.35        2.10715
         O 25 -- Sn 2              0.35        2.10761
         O 15 -- Sn 4              0.34        2.10791
         O 35 -- Sn 4              0.34        2.10798
         O 17 -- Sn 5              0.35        2.10993
         O 43 -- Zr 2              0.42        2.11106
         O 30 -- Sn 3              0.33        2.11128
         O 44 -- Sn 3              0.34        2.11157
         O 26 -- Sn 5              0.33        2.11211
         O 20 -- Zr 5              0.43        2.11240
         O 47 -- Zr 4              0.43        2.11319
         O 30 -- Sn 2              0.33        2.11356
         O 26 -- Sn 1              0.33        2.11381
         O 41 -- Zr 4              0.46        2.11424
         O 18 -- Sn 1              0.34        2.11475
         O 56 -- Zr 9              0.43        2.11541
         O 47 -- Zr 6              0.43        2.11543
         O 19 -- Zr 9              0.46        2.11552
         O 39 -- Zr 8              0.43        2.11572
         O 23 -- Zr 7              0.43        2.11626
         O 33 -- Zr 3              0.42        2.11661
         O 54 -- Zr 1              0.42        2.11665
         O 18 -- Sn 2              0.33        2.11672
         O 33 -- Zr 10             0.42        2.11672
         O 32 -- Zr 10             0.45        2.11676
         O 56 -- Zr 1              0.43        2.11697
         O 20 -- Zr 7              0.42        2.11713
         O 54 -- Zr 8              0.42        2.11723
         O 43 -- Zr 11             0.41        2.11748
         O 49 -- Zr 4              0.43        2.11771
         O 28 -- Zr 5              0.43        2.11779
         O 11 -- Zr 10             0.42        2.11786
         O 31 -- Zr 6              0.45        2.11823
         O 36 -- Zr 3              0.45        2.11832
         O 46 -- Zr 5              0.42        2.11836
         O 37 -- Zr 4              0.43        2.11836
         O 11 -- Zr 9              0.42        2.11839
         O 34 -- Zr 11             0.44        2.11851
         O 14 -- Zr 5              0.46        2.11898
         O 38 -- Zr 7              0.42        2.11923
         O 24 -- Zr 8              0.45        2.11925
         O 46 -- Zr 3              0.42        2.11939
[...]
         O 33 -- O 48             -0.03        2.82423
         O 36 -- O 44             -0.03        2.82457
         O 11 -- O 22             -0.03        2.82463
         O 20 -- O 28             -0.03        2.82538
         O 9  -- O 38             -0.03        2.82621
         O 51 -- O 55             -0.03        2.82734
         O 28 -- O 56             -0.03        2.82738
         O 38 -- O 40             -0.03        2.82749
         O 33 -- O 40             -0.03        2.82798
         O 14 -- O 29             -0.03        2.82959
         O 13 -- O 29             -0.03        2.83159
         O 16 -- O 51             -0.03        2.83298
         O 38 -- O 42             -0.03        2.83372
         O 48 -- O 50             -0.03        2.83450
         O 17 -- O 25             -0.03        2.83701

Writing analysis data to Zr11_16_nmr.castep_bin

Writing model to Zr11_16_nmr.check

 A BibTeX formatted list of references used in this run has been written to
 Zr11_16_nmr.bib

Initialisation time =     38.82 s
Calculation time    =   4497.63 s
Finalisation time   =     16.50 s
Total time          =   4552.95 s

Overall parallel efficiency rating: Satisfactory (67%)

Data was distributed by:-
G-vector (24-way); efficiency rating: Satisfactory (69%)
k-point (14-way); efficiency rating: Excellent (95%)