 Compiled for linux_x86_64_ifort17 on Mon, 09 Apr 2018 23:35:31 +0100
 from code version
 203e84763863+ Castep161_branch Fri, 04 Mar 2016 19:21:07 +0000
 Compiler: Intel Fortran 17.0.1.132; Optimisation: fast
 MATHLIBS: Intel MKL(2017.0.1) (LAPACK version 3.6.0)
 FFT Lib : mkl
 Fundamental constants values: CODATA 2010

 Run started: Fri, 11 Sep 2020 18:23:41 +0100
 |           N   N    M   M    RRRR                |
 |           NN  N    MM MM    R   R               |
 |           N N N    M M M    RRRR                |
 |           N  NN    M   M    R  R                |
 |           N   N    M   M    R   R               |
 | Welcome to Materials Studio CASTEP-NMR          |
 | Authors:                                        |
 | J.R. Yates, C.J. Pickard, F. Mauri              |
 | Contributors:                                   |
 | T.F.G. Green, S.A. Joyce                        |
 | Copyright (c) 2004 - 2015                       |
 | Please cite the appropriate publications in all |
 | work arising from your use of CASTEP NMR.       |
 | For NMR Shielding Tensors cite:                 |
 |    "All-electron magnetic response with         |
 |    pseudopotentials: NMR chemical shifts",      |
 |    C. J. Pickard, F. Mauri;                     |
 |    Physical Review B63 245101 (2001), and       |
 |    "Calculation of NMR Chemical Shifts          |
 |    for extended systems using                   |
 |    Ultrasoft Pseudopotentials",                 |
 |    J. R. Yates, C. J. Pickard and F. Mauri      |
 |    Physical Review B76 024401 (2007)            |
 | For Electric Field Gradients cite:              |
 |   "Accurate First Principles Prediction of 17O  |
 |    NMR Parameters in SiO2: Assignment of the    |
 |    Zeolite Ferrierite Spectrum"                 |
 |    M. Profeta, F. Mauri and C. J. Pickard       |
 |    J. Amer. Chem. Soc. 125 541 (2003)           |
 | For Spin-Spin (J) Couplings cite:               |
 |   "A first principles theory of NMR J-coupling  |
 |   in solid-state systems"                       |
 |   S.A. Joyce, J.R. Yates, C.J. Pickard, F. Mauri|
 |   J. Chem. Phys. 127 204107 (2007)              |
 |   "Relativistic NMR J-coupling with ultrasoft   |
 |   pseudopotentials and the zeroth-order regular |
 |   approximation"                                |
 |   T.F.G. Green and J.R. Yates                   |
 |   J. Chem. Phys. 140 234106 (2014)              |

 Atomic calculation performed for O: 1s2 2s2 2p4

 Converged in 44 iterations to an ae energy of -2040.855 eV

[...]

 Exceeded max iterations: converged to 0.000000062 eV

   | Pseudopotential Report - Date of generation 11-09-2020   |
   | Element: O Ionic charge:  6.00 Level of theory: PBE      |
   | Atomic Solver: ZORA (scalar)                             |
   |               Reference Electronic Structure             |
   |         Orbital         Occupation         Energy        |
   |            2s              2.000           -0.881        |
   |            2p              4.000           -0.332        |
   |                 Pseudopotential Definition               |
   |        Beta     l      e      Rc     scheme   norm       |
   |          1      0   -0.881   1.100     qc      0         |
   |          2      0    0.250   1.100     qc      0         |
   |          3      1   -0.332   1.100     qc      0         |
   |          4      1    0.250   1.100     qc      0         |
   |         loc     2    0.000   1.100     pn      0         |
   | Augmentation charge Rinner = 0.769                       |
   | Partial core correction Rc = 0.769                       |
   | "2|1.1|15|18|20|20:21(qc=7)"                             |
   |      Author: Chris J. Pickard, Cambridge University      |

 Atomic calculation performed for Zr: 1s2 2s2 2p6 3s2 3p6 3d10 4s2 4p6 4d2 5s2

[...]

 Warning: ion_atom_descreen_psp: negative charge density encountered
   | Pseudopotential Report - Date of generation 11-09-2020   |
   | Element: Zr Ionic charge: 12.00 Level of theory: PBE     |
   | Atomic Solver: ZORA (scalar)                             |
   |               Reference Electronic Structure             |
   |         Orbital         Occupation         Energy        |
   |            4s              2.000           -2.003        |
   |            4p              6.000           -1.193        |
   |            5s              2.000           -0.163        |
   |            4d              2.000           -0.132        |
   |                 Pseudopotential Definition               |
   |        Beta     l      e      Rc     scheme   norm       |
   |          1      0   -2.003   2.105     qc      0         |
   |          2      0   -0.163   2.105     qc      0         |
   |          3      0    0.250   2.105     qc      0         |
   |          4      1   -1.193   2.105     qc      0         |
   |          5      1    0.250   2.105     qc      0         |
   |          6      2   -0.132   2.105     qc      0         |
   |          7      2    0.250   2.105     qc      0         |
   |         loc     3    0.000   2.105     pn      0         |
   | Augmentation charge Rinner = 1.471                       |
   | Partial core correction Rc = 1.471                       |
   | "3|2.1|7|8|9|40U:50:41:42"                               |
   |      Author: Chris J. Pickard, Cambridge University      |

 Atomic calculation performed for Sn:

[...]

   | Pseudopotential Report - Date of generation 11-09-2020   |
   | Element: Sn Ionic charge: 14.00 Level of theory: PBE     |
   | Atomic Solver: ZORA (scalar)                             |
   |               Reference Electronic Structure             |
   |         Orbital         Occupation         Energy        |
   |            4d             10.000           -0.950        |
   |            5s              2.000           -0.388        |
   |            5p              2.000           -0.136        |
   |                 Pseudopotential Definition               |
   |        Beta     l      e      Rc     scheme   norm       |
   |          1      0   -0.388   2.199     qc      0         |
   |          2      0    0.250   2.199     qc      0         |
   |          3      1   -0.136   2.199     qc      0         |
   |          4      1    0.250   2.199     qc      0         |
   |          5      2   -0.950   2.199     qc      0         |
   |          6      2    0.250   2.199     qc      0         |
   |         loc     3    0.000   2.199     pn      0         |
   | Augmentation charge Rinner = 1.537                       |
   | Partial core correction Rc = 1.537                       |
   | "3|2.2|7|8|9|50:51:42"                                   |
   |      Author: Chris J. Pickard, Cambridge University      |

 Atomic calculation performed for La:

[...]

 Warning: ion_atom_descreen_psp: negative charge density encountered
   | Pseudopotential Report - Date of generation 11-09-2020   |
   | Element: La Ionic charge: 11.00 Level of theory: PBE     |
   | Atomic Solver: ZORA (scalar)                             |
   |               Reference Electronic Structure             |
   |         Orbital         Occupation         Energy        |
   |            5s              2.000           -1.430        |
   |            5p              6.000           -0.823        |
   |            6s              2.000           -0.135        |
   |            5d              1.000           -0.114        |
   |                 Pseudopotential Definition               |
   |        Beta     l      e      Rc     scheme   norm       |
   |          1      0   -1.430   2.298     qc      0         |
   |          2      0   -0.135   2.298     qc      0         |
   |          3      0    0.250   2.298     qc      0         |
   |          4      1   -0.823   2.298     qc      0         |
   |          5      1    0.250   2.298     qc      0         |
   |          6      2   -0.114   2.298     qc      0         |
   |          7      2    0.250   2.298     qc      0         |
   |         loc     2    0.000   2.298     pn      0         |
   | Augmentation charge Rinner = 1.606                       |
   | Partial core correction Rc = 1.606                       |
   | "2|2.3|5|6|7|50U:60:51:52(qc=4.5)"                       |
   |      Author: Chris J. Pickard, Cambridge University      |

 Pseudo atomic calculation performed for O 2s2 2p4

 Converged in 39 iterations to a total energy of -432.6554 eV

 Pseudo atomic calculation performed for Zr 4s2 4p6 4d2 5s2

[...]

 Calculation parallelised over 336 processes.
 Data is distributed by G-vector(24-way) and k-point(14-way)

 ************************************ Title ************************************
 nmr testing

 ***************************** General Parameters ******************************

 output verbosity                               : normal  (1)
 write checkpoint data to                       : Zr11_19_nmr.check
 type of calculation                            : Magnetic Resonance
 stress calculation                             : on
 density difference calculation                 : off
 electron localisation func (ELF) calculation   : off
 Hirshfeld analysis                             : off
 unlimited duration calculation
 timing information                             : on
 write final potential to formatted file        : off
 write final density to formatted file          : off
 write BibTeX reference list                    : on
 write OTFG pseudopotential files               : on
 checkpoint writing                             : both castep_bin and check files

 output         length unit                     : A
 output           mass unit                     : amu
 output           time unit                     : ps
 output         charge unit                     : e
 output           spin unit                     : hbar/2
 output         energy unit                     : eV
 output          force unit                     : eV/A
 output       velocity unit                     : A/ps
 output       pressure unit                     : GPa
 output     inv_length unit                     : 1/A
 output      frequency unit                     : cm-1
 output force constant unit                     : eV/A**2
 output         volume unit                     : A**3
 output   IR intensity unit                     : (D/A)**2/amu
 output         dipole unit                     : D
 output         efield unit                     : eV/A/e
 output        entropy unit                     : J/mol/K

 wavefunctions paging                           : none
 random number generator seed                   : randomised (182341641)
 data distribution                              : optimal for this architecture
 optimization strategy                          : maximize speed(+++)

 *********************** Exchange-Correlation Parameters ***********************

 using functional                               : Perdew Burke Ernzerhof
 relativistic treatment                         : ZORA
 DFT+D: Semi-empirical dispersion correction    : off

 ************************* Pseudopotential Parameters **************************

[...]
  |    O          42      -89.14      86.20      0.06  -3.185E+00   0.09 |
  |    O          43      -90.37      93.57      0.20  -3.185E+00   0.11 |
  |    O          44      -89.40      85.05      0.20  -3.169E+00   0.14 |
  |    O          45      -86.14      92.89      0.26  -3.177E+00   0.10 |
  |    O          46     -161.78     152.69      0.83   1.079E+00   0.80 |
  |    O          47     -163.82     153.71      0.75   1.079E+00   0.87 |
  |    O          48     -160.66     144.80      0.83   1.098E+00   0.72 |
  |    O          49     -166.80     159.85      0.80   1.045E+00   0.99 |
  |    O          50      -87.51      85.41      0.06  -3.159E+00   0.10 |
  |    O          51     -165.23     152.89      0.81   1.052E+00   0.83 |
  |    O          52      -88.68      85.67      0.16  -3.252E+00   0.12 |
  |    O          53      -87.20      75.50      0.20  -3.187E+00   0.12 |
  |    O          54     -165.28     159.08      0.86   1.077E+00   0.88 |
  |    O          55      -90.36      85.33      0.15  -3.234E+00   0.12 |
  |    O          56     -165.22     157.36      0.79   1.022E+00   0.92 |
  |    Zr          1     1627.49    -127.20      0.12  -3.831E+01   0.06 |
  |    Zr          2     1612.71    -120.26      0.03  -3.741E+01   0.03 |
  |    Zr          3     1632.81    -131.23      0.11  -3.911E+01   0.11 |
  |    Zr          4     1628.24    -124.60      0.15  -4.027E+01   0.09 |
[...]
  |    La          2     4749.61     870.77      0.06  -8.282E+01   0.06 |
  |    La          3     4707.16     773.49      0.04  -8.368E+01   0.04 |
  |    La          4     4761.58     850.01      0.04  -8.606E+01   0.06 |
  |    La          5     4655.04     667.21      0.11  -7.858E+01   0.14 |
  |    La          6     4660.22     661.35      0.10  -8.040E+01   0.15 |
  |    La          7     4803.16     957.47      0.01  -8.698E+01   0.02 |
  |    La          8     4705.96     749.30      0.06  -8.154E+01   0.10 |
  |    La          9     4655.09     669.51      0.11  -7.857E+01   0.15 |
  |    La         10     4707.08     780.34      0.12  -8.313E+01   0.14 |
  |    La         11     4652.75     634.96      0.01  -7.735E+01   0.03 |
  |    La         12     4750.88     877.33      0.06  -8.361E+01   0.06 |
  |    La         13     4704.83     790.63      0.13  -8.168E+01   0.13 |
  |    La         14     4759.42     861.90      0.04  -8.514E+01   0.06 |
  |    La         15     4714.28     744.36      0.04  -8.213E+01   0.10 |
  |    La         16     4660.70     660.14      0.09  -7.983E+01   0.11 |

 *********************** Forces ***********************
 *            Cartesian components (eV/A)             *
 *                   x            y            z      *
 * O         1     -0.01063      0.00014     -0.00214 *
 * O         2     -0.00425      0.00912      0.00016 *
 * O         3     -0.01168      0.00729      0.00288 *
 * O         4     -0.01198      0.01193      0.00378 *
 * O         5      0.00242     -0.01396      0.00461 *
 * O         6      0.00628     -0.00309     -0.00404 *
 * O         7      0.00603     -0.01449     -0.01015 *
 * O         8      0.00742     -0.00780     -0.00490 *
 * O         9     -0.00302      0.00352      0.00846 *
 * O        10      0.00508      0.00690      0.00380 *
 * O        11     -0.00397     -0.00384      0.00355 *
 * O        12     -0.00214      0.00475      0.00083 *
 * O        13      0.00167     -0.00878      0.00383 *
 * O        14     -0.00938      0.00259      0.01963 *
 * O        15     -0.00913      0.00016      0.01123 *
 * O        16      0.00327      0.00494      0.00899 *
 * O        17      0.00347      0.00751      0.00464 *
 * O        18     -0.00084     -0.00027      0.00213 *
 * O        19     -0.00603      0.01624     -0.00572 *
 * O        20     -0.00444     -0.00200      0.00768 *
 * O        21      0.01345     -0.00755     -0.01193 *
 * O        22      0.01945      0.00842      0.01237 *
 * O        23      0.00646     -0.01087     -0.00387 *
 * O        24      0.02012      0.01079     -0.01812 *
 * O        25     -0.00619      0.02720     -0.02514 *
 * O        26      0.00065     -0.00708     -0.01376 *
 * O        27     -0.00508     -0.00504     -0.01489 *
 * O        28      0.00730     -0.00297     -0.01305 *
 * O        29      0.01638      0.01969      0.01067 *
 * O        30     -0.00108      0.00067     -0.00816 *
 * O        31      0.01666     -0.00903      0.00176 *
 * O        32      0.00150      0.00525     -0.00864 *
 * O        33      0.00798      0.00437     -0.00478 *
 * O        34      0.00297      0.02272      0.01814 *
 * O        35      0.00361     -0.00070     -0.00908 *
 * O        36     -0.01142     -0.01293      0.00495 *
 * O        37     -0.01245      0.00013      0.02306 *
 * O        38     -0.00791     -0.00959     -0.00478 *
 * O        39      0.00545     -0.00294     -0.00201 *
 * O        40     -0.00016      0.00905      0.00199 *
 * O        41      0.01766      0.00017      0.00316 *
 * O        42     -0.00092     -0.01912      0.02650 *
 * O        43     -0.02244     -0.02351      0.00102 *
 * O        44     -0.00644      0.00607     -0.00215 *
 * O        45      0.00065      0.00985      0.00514 *
 * O        46     -0.00699     -0.01052      0.00089 *
 * O        47      0.00644     -0.01186     -0.01102 *
 * O        48     -0.00370     -0.00018      0.00576 *
 * O        49     -0.00461      0.02048      0.00214 *
 * O        50     -0.01428      0.00277     -0.02054 *
 * O        51      0.00441     -0.00489      0.00588 *
 * O        52     -0.01287     -0.01841     -0.00650 *
 * O        53      0.01214     -0.00337     -0.00475 *
 * O        54      0.01487      0.00753     -0.00903 *
 * O        55     -0.02081     -0.01290      0.01127 *
 * O        56      0.00034      0.00867     -0.00002 *
 * Zr        1      0.00860      0.02015     -0.00722 *
 * Zr        2      0.00050      0.00395     -0.00426 *
 * Zr        3      0.00200     -0.00218      0.00049 *
 * Zr        4      0.01518     -0.00086     -0.00273 *
[...]
 * La        2     -0.00663     -0.00998     -0.00125 *
 * La        3      0.00291      0.00816      0.00757 *
 * La        4     -0.01082     -0.00848     -0.00080 *
 * La        5     -0.00695     -0.00166      0.00012 *
 * La        6      0.00687     -0.00362     -0.00759 *
 * La        7      0.00616     -0.00534      0.00105 *
 * La        8      0.00520      0.00325     -0.01362 *
 * La        9      0.00380     -0.00348     -0.00576 *
 * La       10     -0.00525      0.00619      0.00798 *
 * La       11      0.00459      0.01105      0.01177 *
 * La       12     -0.01031     -0.00896     -0.00874 *
 * La       13      0.00269      0.00247      0.00645 *
 * La       14     -0.00269      0.00248      0.00105 *
 * La       15      0.00811      0.00870     -0.00021 *
 * La       16     -0.01061     -0.00426     -0.00126 *

 ***************** Stress Tensor *****************
 *          Cartesian components (GPa)           *
 *             x             y             z     *
 *  x     -0.000673     -0.010225     -0.059008  *
 *  y     -0.010225      0.006981      0.039604  *
 *  z     -0.059008      0.039604      0.043898  *
 *  Pressure:   -0.0167                          *

[...]

 Pseudo atomic calculation performed for Sn 4d10 5s2 5p2

[...]

 Pseudo atomic calculation performed for La 5s2 5p6 5d1 6s2

 Converged in 34 iterations to a total energy of -968.0372 eV

Charge spilling parameter for spin component 1 = 0.23%

     Atomic Populations (Mulliken)
Species   Ion     s      p      d      f     Total  Charge (e)
  O        1     1.87   5.00   0.00   0.00   6.87    -0.87
  O        2     1.87   5.00   0.00   0.00   6.87    -0.87
  O        3     1.87   5.00   0.00   0.00   6.87    -0.87
  O        4     1.87   5.00   0.00   0.00   6.87    -0.87
  O        5     1.87   5.00   0.00   0.00   6.87    -0.87
  O        6     1.87   5.00   0.00   0.00   6.87    -0.87
  O        7     1.87   5.00   0.00   0.00   6.87    -0.87
  O        8     1.87   5.00   0.00   0.00   6.87    -0.87
  O        9     1.87   4.99   0.00   0.00   6.85    -0.85
  O       10     1.86   4.94   0.00   0.00   6.80    -0.80
  O       11     1.86   4.94   0.00   0.00   6.80    -0.80
  O       12     1.88   5.02   0.00   0.00   6.91    -0.91
  O       13     1.88   5.02   0.00   0.00   6.91    -0.91
  O       14     1.87   4.98   0.00   0.00   6.85    -0.85
  O       15     1.87   4.99   0.00   0.00   6.85    -0.85
  O       16     1.86   4.94   0.00   0.00   6.80    -0.80
  O       17     1.86   4.94   0.00   0.00   6.80    -0.80
  O       18     1.88   5.02   0.00   0.00   6.91    -0.91
  O       19     1.87   4.99   0.00   0.00   6.85    -0.85
  O       20     1.86   4.94   0.00   0.00   6.80    -0.80
  O       21     1.87   4.98   0.00   0.00   6.85    -0.85
  O       22     1.87   4.98   0.00   0.00   6.85    -0.85
  O       23     1.86   4.94   0.00   0.00   6.80    -0.80
  O       24     1.87   4.99   0.00   0.00   6.85    -0.85
  O       25     1.87   4.99   0.00   0.00   6.85    -0.85
  O       26     1.87   4.99   0.00   0.00   6.85    -0.85
  O       27     1.87   4.99   0.00   0.00   6.85    -0.85
  O       28     1.86   4.94   0.00   0.00   6.80    -0.80
  O       29     1.87   4.98   0.00   0.00   6.85    -0.85
  O       30     1.88   5.02   0.00   0.00   6.90    -0.90
  O       31     1.87   4.99   0.00   0.00   6.85    -0.85
  O       32     1.86   4.94   0.00   0.00   6.80    -0.80
  O       33     1.86   4.94   0.00   0.00   6.80    -0.80
  O       34     1.87   4.99   0.00   0.00   6.85    -0.85
  O       35     1.87   4.98   0.00   0.00   6.85    -0.85
  O       36     1.86   4.94   0.00   0.00   6.80    -0.80
  O       37     1.85   4.94   0.00   0.00   6.80    -0.80
  O       38     1.86   4.94   0.00   0.00   6.80    -0.80
  O       39     1.86   4.94   0.00   0.00   6.80    -0.80
  O       40     1.86   4.95   0.00   0.00   6.80    -0.80
  O       41     1.86   4.94   0.00   0.00   6.80    -0.80
  O       42     1.87   4.99   0.00   0.00   6.86    -0.86
  O       43     1.87   4.99   0.00   0.00   6.86    -0.86
  O       44     1.87   4.98   0.00   0.00   6.85    -0.85
  O       45     1.87   4.98   0.00   0.00   6.85    -0.85
  O       46     1.86   4.95   0.00   0.00   6.80    -0.80
  O       47     1.86   4.94   0.00   0.00   6.80    -0.80
  O       48     1.86   4.95   0.00   0.00   6.80    -0.80
  O       49     1.86   4.94   0.00   0.00   6.80    -0.80
  O       50     1.87   4.99   0.00   0.00   6.85    -0.85
  O       51     1.86   4.94   0.00   0.00   6.80    -0.80
  O       52     1.87   4.99   0.00   0.00   6.85    -0.85
  O       53     1.87   4.98   0.00   0.00   6.85    -0.85
  O       54     1.86   4.95   0.00   0.00   6.80    -0.80
  O       55     1.87   4.99   0.00   0.00   6.85    -0.85
  O       56     1.86   4.94   0.00   0.00   6.80    -0.80
  Zr       1     2.38   6.49   1.92   0.00  10.79     1.21
  Zr       2     2.37   6.50   1.92   0.00  10.80     1.20
  Zr       3     2.37   6.48   1.93   0.00  10.78     1.22
  Zr       4     2.38   6.47   1.93   0.00  10.78     1.22
[...]
  La       2     2.06   6.14   1.19   0.00   9.39     1.61
  La       3     2.07   6.16   1.19   0.00   9.42     1.58
  La       4     2.05   6.15   1.19   0.00   9.39     1.61
  La       5     2.10   6.17   1.19   0.00   9.46     1.54
  La       6     2.09   6.18   1.19   0.00   9.46     1.54
  La       7     2.01   6.14   1.19   0.00   9.34     1.66
  La       8     2.07   6.16   1.19   0.00   9.43     1.57
  La       9     2.10   6.17   1.19   0.00   9.46     1.54
  La      10     2.07   6.16   1.19   0.00   9.42     1.58
  La      11     2.11   6.18   1.19   0.00   9.48     1.52
  La      12     2.03   6.14   1.19   0.00   9.37     1.63
  La      13     2.05   6.16   1.19   0.00   9.40     1.60
  La      14     2.03   6.15   1.19   0.00   9.37     1.63
  La      15     2.05   6.17   1.19   0.00   9.41     1.59
  La      16     2.09   6.18   1.19   0.00   9.46     1.54

            Bond              Population      Length (A)
         O 31 -- Sn 5              0.35        2.10095
         O 52 -- Sn 4              0.35        2.10158
         O 24 -- Sn 4              0.35        2.10191
         O 55 -- Sn 1              0.35        2.10283
         O 19 -- Sn 5              0.34        2.10345
         O 27 -- Sn 5              0.35        2.10350
         O 43 -- Sn 3              0.35        2.10392
         O 15 -- Sn 5              0.35        2.10475
         O 9  -- Sn 4              0.35        2.10492
         O 12 -- Sn 3              0.34        2.10507
         O 42 -- Sn 2              0.35        2.10628
         O 34 -- Sn 3              0.34        2.10631
         O 45 -- Sn 5              0.34        2.10681
         O 26 -- Sn 1              0.34        2.10748
         O 12 -- Sn 1              0.34        2.10802
         O 25 -- Sn 2              0.35        2.10810
         O 50 -- Sn 2              0.34        2.10872
         O 44 -- Sn 4              0.34        2.10883
         O 18 -- Sn 1              0.34        2.10889
         O 14 -- Sn 4              0.34        2.10921
         O 53 -- Sn 1              0.34        2.10940
         O 54 -- Zr 8              0.42        2.10952
         O 18 -- Sn 2              0.33        2.10993
         O 13 -- Sn 3              0.34        2.10994
         O 35 -- Sn 5              0.34        2.11011
         O 21 -- Sn 1              0.35        2.11066
         O 13 -- Sn 2              0.34        2.11070
         O 22 -- Sn 3              0.34        2.11134
         O 29 -- Sn 3              0.35        2.11208
         O 32 -- Zr 10             0.42        2.11314
         O 23 -- Zr 6              0.42        2.11353
         O 36 -- Zr 3              0.42        2.11408
         O 49 -- Zr 4              0.43        2.11414
         O 23 -- Zr 7              0.42        2.11454
         O 37 -- Zr 4              0.42        2.11508
         O 31 -- Zr 6              0.46        2.11510
         O 30 -- Sn 2              0.33        2.11520
         O 37 -- Zr 9              0.43        2.11531
         O 47 -- Zr 4              0.43        2.11536
         O 30 -- Sn 4              0.33        2.11537
         O 54 -- Zr 1              0.41        2.11625
         O 28 -- Zr 5              0.42        2.11650
         O 43 -- Zr 2              0.44        2.11666
         O 36 -- Zr 11             0.42        2.11670
         O 49 -- Zr 5              0.43        2.11680
         O 24 -- Zr 8              0.45        2.11683
         O 20 -- Zr 7              0.43        2.11732
         O 40 -- Zr 7              0.42        2.11737
         O 16 -- Zr 11             0.43        2.11737
         O 11 -- Zr 10             0.42        2.11749
         O 56 -- Zr 1              0.43        2.11775
         O 40 -- Zr 3              0.42        2.11803
         O 46 -- Zr 5              0.42        2.11837
         O 51 -- Zr 2              0.43        2.11838
         O 33 -- Zr 10             0.42        2.11846
         O 19 -- Zr 9              0.45        2.11851
         O 28 -- Zr 9              0.42        2.11857
         O 33 -- Zr 3              0.42        2.11860
         O 32 -- Zr 11             0.42        2.11871
         O 55 -- Zr 2              0.45        2.11939
[...]
         O 9  -- O 38             -0.03        2.82585
         O 10 -- O 23             -0.03        2.82676
         O 33 -- O 48             -0.03        2.82764
         O 25 -- O 39             -0.03        2.82874
         O 11 -- O 21             -0.03        2.82898
         O 33 -- O 40             -0.03        2.82968
         O 17 -- O 25             -0.03        2.82983
         O 29 -- O 46             -0.03        2.82990
         O 46 -- O 53             -0.03        2.83035
         O 17 -- O 26             -0.03        2.83137
         O 38 -- O 42             -0.03        2.83212
         O 34 -- O 39             -0.03        2.83258
         O 11 -- O 22             -0.03        2.83392
         O 48 -- O 50             -0.03        2.83514
         O 14 -- O 29             -0.03        2.83720

Writing analysis data to Zr11_19_nmr.castep_bin

Writing model to Zr11_19_nmr.check

 A BibTeX formatted list of references used in this run has been written to
 Zr11_19_nmr.bib

Initialisation time =     36.58 s
Calculation time    =   4313.76 s
Finalisation time   =      9.54 s
Total time          =   4359.88 s

Overall parallel efficiency rating: Good (70%)

Data was distributed by:-
G-vector (24-way); efficiency rating: Good (73%)
k-point (14-way); efficiency rating: Excellent (95%)