 Compiled for linux_x86_64_ifort17 on Mon, 09 Apr 2018 23:35:31 +0100
 from code version
 203e84763863+ Castep161_branch Fri, 04 Mar 2016 19:21:07 +0000
 Compiler: Intel Fortran 17.0.1.132; Optimisation: fast
 MATHLIBS: Intel MKL(2017.0.1) (LAPACK version 3.6.0)
 FFT Lib : mkl
 Fundamental constants values: CODATA 2010

 Run started: Sat, 12 Sep 2020 23:15:09 +0100
 |           N   N    M   M    RRRR                |
 |           NN  N    MM MM    R   R               |
 |           N N N    M M M    RRRR                |
 |           N  NN    M   M    R  R                |
 |           N   N    M   M    R   R               |
 | Welcome to Materials Studio CASTEP-NMR          |
 | Authors:                                        |
 | J.R. Yates, C.J. Pickard, F. Mauri              |
 | Contributors:                                   |
 | T.F.G. Green, S.A. Joyce                        |
 | Copyright (c) 2004 - 2015                       |
 | Please cite the appropriate publications in all |
 | work arising from your use of CASTEP NMR.       |
 | For NMR Shielding Tensors cite:                 |
 |    "All-electron magnetic response with         |
 |    pseudopotentials: NMR chemical shifts",      |
 |    C. J. Pickard, F. Mauri;                     |
 |    Physical Review B63 245101 (2001), and       |
 |    "Calculation of NMR Chemical Shifts          |
 |    for extended systems using                   |
 |    Ultrasoft Pseudopotentials",                 |
 |    J. R. Yates, C. J. Pickard and F. Mauri      |
 |    Physical Review B76 024401 (2007)            |
 | For Electric Field Gradients cite:              |
 |   "Accurate First Principles Prediction of 17O  |
 |    NMR Parameters in SiO2: Assignment of the    |
 |    Zeolite Ferrierite Spectrum"                 |
 |    M. Profeta, F. Mauri and C. J. Pickard       |
 |    J. Amer. Chem. Soc. 125 541 (2003)           |
 | For Spin-Spin (J) Couplings cite:               |
 |   "A first principles theory of NMR J-coupling  |
 |   in solid-state systems"                       |
 |   S.A. Joyce, J.R. Yates, C.J. Pickard, F. Mauri|
 |   J. Chem. Phys. 127 204107 (2007)              |
 |   "Relativistic NMR J-coupling with ultrasoft   |
 |   pseudopotentials and the zeroth-order regular |
 |   approximation"                                |
 |   T.F.G. Green and J.R. Yates                   |
 |   J. Chem. Phys. 140 234106 (2014)              |

 Atomic calculation performed for O: 1s2 2s2 2p4

 Converged in 44 iterations to an ae energy of -2040.855 eV

 Atomic calculation performed for O: 1s2 2s2 2p4

 Exceeded max iterations: converged to 0.000000062 eV

   | Pseudopotential Report - Date of generation 12-09-2020   |
   | Element: O Ionic charge:  6.00 Level of theory: PBE      |
   | Atomic Solver: ZORA (scalar)                             |
   |               Reference Electronic Structure             |
   |         Orbital         Occupation         Energy        |
   |            2s              2.000           -0.881        |
   |            2p              4.000           -0.332        |
   |                 Pseudopotential Definition               |
   |        Beta     l      e      Rc     scheme   norm       |
   |          1      0   -0.881   1.100     qc      0         |
   |          2      0    0.250   1.100     qc      0         |
   |          3      1   -0.332   1.100     qc      0         |
   |          4      1    0.250   1.100     qc      0         |
   |         loc     2    0.000   1.100     pn      0         |
   | Augmentation charge Rinner = 0.769                       |
   | Partial core correction Rc = 0.769                       |
   | "2|1.1|15|18|20|20:21(qc=7)"                             |
   |      Author: Chris J. Pickard, Cambridge University      |

 Atomic calculation performed for Zr: 1s2 2s2 2p6 3s2 3p6 3d10 4s2 4p6 4d2 5s2

[...]

 Atomic calculation performed for Zr: 1s2 2s2 2p6 3s2 3p6 3d10 4s2 4p6 4d2 5s2

[...]

 Warning: ion_atom_descreen_psp: negative charge density encountered
   | Pseudopotential Report - Date of generation 12-09-2020   |
   | Element: Zr Ionic charge: 12.00 Level of theory: PBE     |
   | Atomic Solver: ZORA (scalar)                             |
   |               Reference Electronic Structure             |
   |         Orbital         Occupation         Energy        |
   |            4s              2.000           -2.003        |
   |            4p              6.000           -1.193        |
   |            5s              2.000           -0.163        |
   |            4d              2.000           -0.132        |
   |                 Pseudopotential Definition               |
   |        Beta     l      e      Rc     scheme   norm       |
   |          1      0   -2.003   2.105     qc      0         |
   |          2      0   -0.163   2.105     qc      0         |
   |          3      0    0.250   2.105     qc      0         |
   |          4      1   -1.193   2.105     qc      0         |
   |          5      1    0.250   2.105     qc      0         |
   |          6      2   -0.132   2.105     qc      0         |
   |          7      2    0.250   2.105     qc      0         |
   |         loc     3    0.000   2.105     pn      0         |
   | Augmentation charge Rinner = 1.471                       |
   | Partial core correction Rc = 1.471                       |
   | "3|2.1|7|8|9|40U:50:41:42"                               |
   |      Author: Chris J. Pickard, Cambridge University      |

 Atomic calculation performed for Sn:

[...]

 Atomic calculation performed for Sn:

[...]

   | Pseudopotential Report - Date of generation 12-09-2020   |
   | Element: Sn Ionic charge: 14.00 Level of theory: PBE     |
   | Atomic Solver: ZORA (scalar)                             |
   |               Reference Electronic Structure             |
   |         Orbital         Occupation         Energy        |
   |            4d             10.000           -0.950        |
   |            5s              2.000           -0.388        |
   |            5p              2.000           -0.136        |
   |                 Pseudopotential Definition               |
   |        Beta     l      e      Rc     scheme   norm       |
   |          1      0   -0.388   2.199     qc      0         |
   |          2      0    0.250   2.199     qc      0         |
   |          3      1   -0.136   2.199     qc      0         |
   |          4      1    0.250   2.199     qc      0         |
   |          5      2   -0.950   2.199     qc      0         |
   |          6      2    0.250   2.199     qc      0         |
   |         loc     3    0.000   2.199     pn      0         |
   | Augmentation charge Rinner = 1.537                       |
   | Partial core correction Rc = 1.537                       |
   | "3|2.2|7|8|9|50:51:42"                                   |
   |      Author: Chris J. Pickard, Cambridge University      |

 Atomic calculation performed for La:

 Converged in 56 iterations to an ae energy of -230121.495 eV

 Atomic calculation performed for La:

 Exceeded max iterations: converged to 0.000000907 eV

 Warning: ion_atom_descreen_psp: negative charge density encountered
   | Pseudopotential Report - Date of generation 12-09-2020   |
   | Element: La Ionic charge: 11.00 Level of theory: PBE     |
   | Atomic Solver: ZORA (scalar)                             |
   |               Reference Electronic Structure             |
   |         Orbital         Occupation         Energy        |
   |            5s              2.000           -1.430        |
   |            5p              6.000           -0.823        |
   |            6s              2.000           -0.135        |
   |            5d              1.000           -0.114        |
   |                 Pseudopotential Definition               |
   |        Beta     l      e      Rc     scheme   norm       |
   |          1      0   -1.430   2.298     qc      0         |
   |          2      0   -0.135   2.298     qc      0         |
   |          3      0    0.250   2.298     qc      0         |
   |          4      1   -0.823   2.298     qc      0         |
   |          5      1    0.250   2.298     qc      0         |
   |          6      2   -0.114   2.298     qc      0         |
   |          7      2    0.250   2.298     qc      0         |
   |         loc     2    0.000   2.298     pn      0         |
   | Augmentation charge Rinner = 1.606                       |
   | Partial core correction Rc = 1.606                       |
   | "2|2.3|5|6|7|50U:60:51:52(qc=4.5)"                       |
   |      Author: Chris J. Pickard, Cambridge University      |

 Pseudo atomic calculation performed for O 2s2 2p4

 Converged in 39 iterations to a total energy of -432.6554 eV

 Pseudo atomic calculation performed for Zr 4s2 4p6 4d2 5s2

[...]

 Calculation parallelised over 336 processes.
 Data is distributed by G-vector(24-way) and k-point(14-way)

 ************************************ Title ************************************
 nmr testing

 ***************************** General Parameters ******************************

 output verbosity                               : normal  (1)
 write checkpoint data to                       : Zr11_20_nmr.check
 type of calculation                            : Magnetic Resonance
 stress calculation                             : on
 density difference calculation                 : off
 electron localisation func (ELF) calculation   : off
 Hirshfeld analysis                             : off
 unlimited duration calculation
 timing information                             : on
 write final potential to formatted file        : off
 write final density to formatted file          : off
 write BibTeX reference list                    : on
 write OTFG pseudopotential files               : on
 checkpoint writing                             : both castep_bin and check files

 output         length unit                     : A
 output           mass unit                     : amu
 output           time unit                     : ps
 output         charge unit                     : e
 output           spin unit                     : hbar/2
 output         energy unit                     : eV
 output          force unit                     : eV/A
 output       velocity unit                     : A/ps
 output       pressure unit                     : GPa
 output     inv_length unit                     : 1/A
 output      frequency unit                     : cm-1
 output force constant unit                     : eV/A**2
 output         volume unit                     : A**3
 output   IR intensity unit                     : (D/A)**2/amu
 output         dipole unit                     : D
 output         efield unit                     : eV/A/e
 output        entropy unit                     : J/mol/K

 wavefunctions paging                           : none
 random number generator seed                   : randomised (231509975)
 data distribution                              : optimal for this architecture
 optimization strategy                          : maximize speed(+++)

[...]
  |    O          42      -87.81      92.18      0.23  -3.193E+00   0.11 |
  |    O          43     -164.14     157.73      0.85   1.088E+00   0.86 |
  |    O          44     -165.10     146.79      0.74   1.044E+00   0.82 |
  |    O          45      -87.68      93.57      0.20  -3.194E+00   0.11 |
  |    O          46     -164.82     147.70      0.78   1.050E+00   0.81 |
  |    O          47     -166.56     159.18      0.80   1.052E+00   0.98 |
  |    O          48      -87.40      85.28      0.16  -3.163E+00   0.11 |
  |    O          49     -164.26     156.67      0.76   1.093E+00   0.86 |
  |    O          50      -83.91      82.90      0.26  -3.107E+00   0.08 |
  |    O          51     -161.97     151.65      0.83   1.062E+00   0.80 |
  |    O          52     -163.75     157.59      0.81   1.069E+00   0.87 |
  |    O          53      -92.23      88.24      0.16  -3.202E+00   0.13 |
  |    O          54     -165.35     155.44      0.81   1.021E+00   0.94 |
  |    O          55      -89.51      76.74      0.22  -3.220E+00   0.12 |
  |    O          56     -167.39     163.10      0.83   1.040E+00   0.98 |
  |    Zr          1     1628.12    -130.07      0.23  -3.820E+01   0.05 |
  |    Zr          2     1627.28    -126.83      0.07  -3.821E+01   0.15 |
  |    Zr          3     1609.60    -116.32      0.07  -3.823E+01   0.03 |
  |    Zr          4     1627.98    -125.21      0.15  -4.012E+01   0.10 |
[...]
  |    La          2     4752.30     873.66      0.04  -8.553E+01   0.08 |
  |    La          3     4753.17     867.01      0.03  -8.409E+01   0.03 |
  |    La          4     4711.83     758.11      0.04  -8.405E+01   0.09 |
  |    La          5     4611.90     528.61      0.08  -7.740E+01   0.11 |
  |    La          6     4707.28     751.13      0.03  -8.109E+01   0.07 |
  |    La          7     4799.79     966.26      0.01  -8.636E+01   0.03 |
  |    La          8     4658.48     622.95      0.01  -7.829E+01   0.03 |
  |    La          9     4706.57     779.16      0.11  -8.319E+01   0.13 |
  |    La         10     4707.36     752.19      0.03  -8.093E+01   0.08 |
  |    La         11     4750.23     875.76      0.05  -8.350E+01   0.06 |
  |    La         12     4655.17     639.41      0.01  -7.731E+01   0.03 |
  |    La         13     4705.25     749.56      0.03  -8.136E+01   0.08 |
  |    La         14     4710.78     744.23      0.04  -8.293E+01   0.10 |
  |    La         15     4708.46     769.94      0.06  -8.318E+01   0.11 |
  |    La         16     4703.70     775.84      0.05  -8.169E+01   0.07 |

 *********************** Forces ***********************
 *            Cartesian components (eV/A)             *
 *                   x            y            z      *
 * O         1      0.00336     -0.00797     -0.00250 *
 * O         2     -0.00643      0.00446      0.00665 *
 * O         3      0.00141     -0.01166      0.01718 *
 * O         4     -0.00022     -0.00652      0.00402 *
 * O         5     -0.00432      0.00258     -0.00460 *
 * O         6      0.00772      0.00816      0.00079 *
 * O         7     -0.00028      0.00097     -0.00829 *
 * O         8      0.00503      0.01359     -0.00929 *
 * O         9      0.01234      0.00576     -0.00146 *
 * O        10     -0.01223      0.01021     -0.00026 *
 * O        11      0.00243      0.02512     -0.02709 *
 * O        12     -0.00405      0.01350      0.00756 *
 * O        13      0.01167      0.00132      0.00780 *
 * O        14      0.00186     -0.00281     -0.00186 *
 * O        15     -0.00507      0.01029      0.00099 *
 * O        16     -0.01427     -0.01042     -0.01560 *
 * O        17     -0.01777     -0.00730     -0.01216 *
 * O        18     -0.00184      0.00234      0.00367 *
 * O        19     -0.02519      0.01960     -0.00980 *
 * O        20     -0.00587      0.00942      0.00415 *
 * O        21     -0.00081     -0.00685     -0.00778 *
 * O        22     -0.00202     -0.00553     -0.00584 *
 * O        23      0.00561     -0.01647      0.00082 *
 * O        24     -0.00001      0.01950      0.00202 *
 * O        25     -0.01050      0.00385     -0.01442 *
 * O        26      0.00616     -0.00034     -0.01472 *
 * O        27      0.00933     -0.01109     -0.00554 *
 * O        28      0.00037     -0.00257     -0.00895 *
 * O        29     -0.00354      0.00153     -0.00252 *
 * O        30     -0.00567      0.00990     -0.00634 *
 * O        31      0.01536     -0.01923     -0.00850 *
 * O        32     -0.00201     -0.00654      0.00503 *
 * O        33      0.00253     -0.02443      0.02288 *
 * O        34     -0.01059     -0.00454     -0.00327 *
 * O        35      0.00268     -0.00851     -0.00560 *
 * O        36      0.02177     -0.00323      0.03034 *
 * O        37     -0.00894     -0.00749      0.00150 *
 * O        38     -0.00974     -0.00092     -0.01098 *
 * O        39      0.00971     -0.01768      0.00585 *
 * O        40      0.00750      0.00568      0.01205 *
 * O        41     -0.01175     -0.01330     -0.02105 *
 * O        42     -0.00211     -0.01106      0.00940 *
 * O        43      0.00535     -0.00357      0.01310 *
 * O        44      0.00694      0.00507     -0.00487 *
 * O        45      0.00559      0.01293      0.02629 *
 * O        46     -0.00228     -0.00275      0.00270 *
 * O        47      0.00178     -0.00310     -0.02226 *
 * O        48      0.01287      0.02040     -0.00688 *
 * O        49      0.00153      0.00499      0.00654 *
 * O        50     -0.00563      0.00658     -0.02186 *
 * O        51      0.00662     -0.00442      0.01284 *
 * O        52     -0.00880      0.00407      0.00647 *
 * O        53      0.02401     -0.01234      0.00617 *
 * O        54      0.00061     -0.00458     -0.01159 *
 * O        55     -0.01625      0.00542      0.00453 *
 * O        56     -0.01264      0.01443     -0.01022 *
 * Zr        1     -0.01761      0.02027     -0.01145 *
 * Zr        2     -0.00003     -0.00450      0.00584 *
 * Zr        3      0.00754      0.00333      0.00345 *
 * Zr        4     -0.01112      0.00031     -0.00465 *
[...]
 * La        2      0.00952     -0.00996     -0.00089 *
 * La        3      0.00279     -0.00062      0.00600 *
 * La        4      0.00324     -0.00160     -0.00014 *
 * La        5     -0.00546      0.00134     -0.00257 *
 * La        6      0.01593      0.01192      0.00270 *
 * La        7      0.00023     -0.01244      0.01279 *
 * La        8     -0.00022      0.00438     -0.00870 *
 * La        9     -0.00254     -0.00267     -0.00342 *
 * La       10     -0.00442      0.00011      0.00246 *
 * La       11      0.00024      0.01241      0.00793 *
 * La       12     -0.01302     -0.00854     -0.00422 *
 * La       13      0.01371     -0.00458      0.00411 *
 * La       14     -0.01185      0.00126     -0.01093 *
 * La       15      0.01073      0.01413     -0.00053 *
 * La       16     -0.00403      0.00450     -0.00201 *

 ***************** Stress Tensor *****************
 *          Cartesian components (GPa)           *
 *             x             y             z     *
 *  x     -0.050672     -0.040827      0.039917  *
 *  y     -0.040827      0.047049      0.004365  *
 *  z      0.039917      0.004365      0.045200  *
 *  Pressure:   -0.0139                          *

[...]

 Pseudo atomic calculation performed for Sn 4d10 5s2 5p2

[...]

 Pseudo atomic calculation performed for La 5s2 5p6 5d1 6s2

 Converged in 34 iterations to a total energy of -968.0372 eV

Charge spilling parameter for spin component 1 = 0.23%

     Atomic Populations (Mulliken)
Species   Ion     s      p      d      f     Total  Charge (e)
  O        1     1.87   5.00   0.00   0.00   6.87    -0.87
  O        2     1.87   5.00   0.00   0.00   6.87    -0.87
  O        3     1.87   5.00   0.00   0.00   6.87    -0.87
  O        4     1.87   5.00   0.00   0.00   6.87    -0.87
  O        5     1.87   5.00   0.00   0.00   6.87    -0.87
  O        6     1.87   5.00   0.00   0.00   6.87    -0.87
  O        7     1.87   5.00   0.00   0.00   6.87    -0.87
  O        8     1.87   5.00   0.00   0.00   6.87    -0.87
  O        9     1.86   4.94   0.00   0.00   6.80    -0.80
  O       10     1.86   4.94   0.00   0.00   6.80    -0.80
  O       11     1.87   4.99   0.00   0.00   6.85    -0.85
  O       12     1.87   4.99   0.00   0.00   6.85    -0.85
  O       13     1.87   4.99   0.00   0.00   6.85    -0.85
  O       14     1.85   4.94   0.00   0.00   6.80    -0.80
  O       15     1.88   5.02   0.00   0.00   6.90    -0.90
  O       16     1.87   4.99   0.00   0.00   6.85    -0.85
  O       17     1.87   4.98   0.00   0.00   6.85    -0.85
  O       18     1.88   5.02   0.00   0.00   6.90    -0.90
  O       19     1.87   4.99   0.00   0.00   6.85    -0.85
  O       20     1.86   4.94   0.00   0.00   6.80    -0.80
  O       21     1.88   5.02   0.00   0.00   6.91    -0.91
  O       22     1.86   4.94   0.00   0.00   6.80    -0.80
  O       23     1.86   4.94   0.00   0.00   6.80    -0.80
  O       24     1.86   4.94   0.00   0.00   6.80    -0.80
  O       25     1.87   4.98   0.00   0.00   6.85    -0.85
  O       26     1.88   5.02   0.00   0.00   6.91    -0.91
  O       27     1.87   4.99   0.00   0.00   6.85    -0.85
  O       28     1.86   4.94   0.00   0.00   6.80    -0.80
  O       29     1.86   4.94   0.00   0.00   6.80    -0.80
  O       30     1.87   4.98   0.00   0.00   6.85    -0.85
  O       31     1.87   4.98   0.00   0.00   6.85    -0.85
  O       32     1.88   5.02   0.00   0.00   6.91    -0.91
  O       33     1.87   4.99   0.00   0.00   6.85    -0.85
  O       34     1.86   4.94   0.00   0.00   6.80    -0.80
  O       35     1.87   4.98   0.00   0.00   6.85    -0.85
  O       36     1.87   4.99   0.00   0.00   6.85    -0.85
  O       37     1.86   4.94   0.00   0.00   6.80    -0.80
  O       38     1.86   4.95   0.00   0.00   6.80    -0.80
  O       39     1.86   4.94   0.00   0.00   6.80    -0.80
  O       40     1.86   4.94   0.00   0.00   6.80    -0.80
  O       41     1.87   4.99   0.00   0.00   6.85    -0.85
  O       42     1.87   4.99   0.00   0.00   6.85    -0.85
  O       43     1.86   4.95   0.00   0.00   6.80    -0.80
  O       44     1.86   4.94   0.00   0.00   6.80    -0.80
  O       45     1.87   4.99   0.00   0.00   6.85    -0.85
  O       46     1.86   4.94   0.00   0.00   6.80    -0.80
  O       47     1.86   4.94   0.00   0.00   6.80    -0.80
  O       48     1.87   4.99   0.00   0.00   6.85    -0.85
  O       49     1.86   4.94   0.00   0.00   6.80    -0.80
  O       50     1.87   4.98   0.00   0.00   6.85    -0.85
  O       51     1.86   4.94   0.00   0.00   6.80    -0.80
  O       52     1.86   4.94   0.00   0.00   6.80    -0.80
  O       53     1.87   4.99   0.00   0.00   6.86    -0.86
  O       54     1.86   4.94   0.00   0.00   6.80    -0.80
  O       55     1.87   4.99   0.00   0.00   6.85    -0.85
  O       56     1.85   4.94   0.00   0.00   6.80    -0.80
  Zr       1     2.38   6.49   1.92   0.00  10.79     1.21
  Zr       2     2.38   6.49   1.92   0.00  10.79     1.21
  Zr       3     2.37   6.50   1.92   0.00  10.79     1.21
  Zr       4     2.37   6.47   1.93   0.00  10.77     1.23
[...]
  La       2     2.05   6.14   1.19   0.00   9.39     1.61
  La       3     2.05   6.15   1.19   0.00   9.40     1.60
  La       4     2.06   6.17   1.19   0.00   9.42     1.58
  La       5     2.11   6.20   1.19   0.00   9.50     1.50
  La       6     2.08   6.16   1.19   0.00   9.43     1.57
  La       7     2.01   6.13   1.19   0.00   9.33     1.67
  La       8     2.10   6.18   1.19   0.00   9.47     1.53
  La       9     2.07   6.16   1.19   0.00   9.42     1.58
  La      10     2.08   6.16   1.19   0.00   9.43     1.57
  La      11     2.03   6.14   1.19   0.00   9.37     1.63
  La      12     2.09   6.18   1.19   0.00   9.46     1.54
  La      13     2.07   6.17   1.19   0.00   9.43     1.57
  La      14     2.07   6.17   1.19   0.00   9.43     1.57
  La      15     2.05   6.16   1.19   0.00   9.40     1.60
  La      16     2.05   6.16   1.19   0.00   9.40     1.60

            Bond              Population      Length (A)
         O 13 -- Sn 3              0.35        2.10050
         O 19 -- Sn 4              0.35        2.10093
         O 36 -- Sn 5              0.35        2.10096
         O 33 -- Sn 2              0.35        2.10297
         O 45 -- Sn 4              0.35        2.10301
         O 27 -- Sn 4              0.35        2.10341
         O 42 -- Sn 3              0.35        2.10349
         O 53 -- Sn 1              0.34        2.10389
         O 12 -- Sn 1              0.34        2.10557
         O 11 -- Sn 2              0.35        2.10674
         O 30 -- Sn 3              0.34        2.10709
         O 55 -- Sn 1              0.34        2.10711
         O 41 -- Sn 5              0.34        2.10733
         O 31 -- Sn 4              0.35        2.10769
         O 56 -- Zr 9              0.42        2.10789
         O 25 -- Sn 3              0.35        2.10796
         O 26 -- Sn 5              0.34        2.10844
         O 48 -- Sn 2              0.34        2.10885
         O 50 -- Sn 3              0.35        2.10956
         O 32 -- Sn 5              0.34        2.10982
         O 16 -- Sn 5              0.35        2.10998
         O 17 -- Sn 5              0.34        2.11092
         O 32 -- Sn 2              0.34        2.11101
         O 26 -- Sn 1              0.34        2.11134
         O 35 -- Sn 4              0.34        2.11188
         O 43 -- Zr 2              0.42        2.11202
         O 21 -- Sn 1              0.34        2.11203
         O 36 -- Zr 3              0.44        2.11298
         O 47 -- Zr 4              0.43        2.11325
         O 39 -- Zr 8              0.42        2.11328
         O 49 -- Zr 4              0.43        2.11351
         O 21 -- Sn 2              0.33        2.11354
         O 14 -- Zr 11             0.43        2.11373
         O 24 -- Zr 8              0.42        2.11449
         O 10 -- Zr 6              0.43        2.11457
         O 20 -- Zr 7              0.43        2.11493
         O 15 -- Sn 4              0.33        2.11541
         O 43 -- Zr 10             0.41        2.11569
         O 18 -- Sn 3              0.33        2.11572
         O 14 -- Zr 5              0.43        2.11576
         O 15 -- Sn 2              0.33        2.11592
         O 52 -- Zr 1              0.43        2.11610
         O 39 -- Zr 4              0.42        2.11623
         O 30 -- Zr 11             0.46        2.11623
         O 20 -- Zr 5              0.43        2.11640
         O 19 -- Zr 9              0.45        2.11656
         O 56 -- Zr 1              0.42        2.11703
         O 29 -- Zr 10             0.43        2.11714
         O 24 -- Zr 11             0.42        2.11731
         O 52 -- Zr 11             0.42        2.11741
         O 23 -- Zr 7              0.43        2.11751
         O 49 -- Zr 5              0.43        2.11760
         O 18 -- Sn 1              0.34        2.11777
         O 47 -- Zr 6              0.43        2.11781
         O 53 -- Zr 3              0.44        2.11783
         O 45 -- Zr 1              0.45        2.11791
         O 54 -- Zr 1              0.43        2.11795
         O 38 -- Zr 7              0.42        2.11795
         O 41 -- Zr 4              0.46        2.11805
         O 23 -- Zr 6              0.43        2.11830
[...]
         O 38 -- O 42             -0.03        2.82400
         O 35 -- O 42             -0.03        2.82415
         O 45 -- O 50             -0.03        2.82459
         O 20 -- O 28             -0.03        2.82525
         O 51 -- O 55             -0.03        2.82878
         O 11 -- O 37             -0.03        2.82944
         O 27 -- O 40             -0.03        2.82985
         O 12 -- O 22             -0.03        2.82994
         O 33 -- O 40             -0.03        2.83097
         O 11 -- O 22             -0.03        2.83209
         O 16 -- O 51             -0.03        2.83227
         O 37 -- O 41             -0.03        2.83366
         O 16 -- O 31             -0.03        2.83661
         O 17 -- O 25             -0.03        2.83963
         O 48 -- O 50             -0.03        2.83974

Writing analysis data to Zr11_20_nmr.castep_bin

Writing model to Zr11_20_nmr.check

 A BibTeX formatted list of references used in this run has been written to
 Zr11_20_nmr.bib

Initialisation time =     35.03 s
Calculation time    =   4342.50 s
Finalisation time   =      9.17 s
Total time          =   4386.69 s

Overall parallel efficiency rating: Good (70%)

Data was distributed by:-
G-vector (24-way); efficiency rating: Good (73%)
k-point (14-way); efficiency rating: Excellent (94%)