 Compiled for linux_x86_64_ifort17 on Mon, 09 Apr 2018 23:35:31 +0100
 from code version
 203e84763863+ Castep161_branch Fri, 04 Mar 2016 19:21:07 +0000
 Compiler: Intel Fortran 17.0.1.132; Optimisation: fast
 MATHLIBS: Intel MKL(2017.0.1) (LAPACK version 3.6.0)
 FFT Lib : mkl
 Fundamental constants values: CODATA 2010

 Run started: Sat, 12 Sep 2020 14:37:42 +0100
 |           N   N    M   M    RRRR                |
 |           NN  N    MM MM    R   R               |
 |           N N N    M M M    RRRR                |
 |           N  NN    M   M    R  R                |
 |           N   N    M   M    R   R               |
 | Welcome to Materials Studio CASTEP-NMR          |
 | Authors:                                        |
 | J.R. Yates, C.J. Pickard, F. Mauri              |
 | Contributors:                                   |
 | T.F.G. Green, S.A. Joyce                        |
 | Copyright (c) 2004 - 2015                       |
 | Please cite the appropriate publications in all |
 | work arising from your use of CASTEP NMR.       |
 | For NMR Shielding Tensors cite:                 |
 |    "All-electron magnetic response with         |
 |    pseudopotentials: NMR chemical shifts",      |
 |    C. J. Pickard, F. Mauri;                     |
 |    Physical Review B63 245101 (2001), and       |
 |    "Calculation of NMR Chemical Shifts          |
 |    for extended systems using                   |
 |    Ultrasoft Pseudopotentials",                 |
 |    J. R. Yates, C. J. Pickard and F. Mauri      |
 |    Physical Review B76 024401 (2007)            |
 | For Electric Field Gradients cite:              |
 |   "Accurate First Principles Prediction of 17O  |
 |    NMR Parameters in SiO2: Assignment of the    |
 |    Zeolite Ferrierite Spectrum"                 |
 |    M. Profeta, F. Mauri and C. J. Pickard       |
 |    J. Amer. Chem. Soc. 125 541 (2003)           |
 | For Spin-Spin (J) Couplings cite:               |
 |   "A first principles theory of NMR J-coupling  |
 |   in solid-state systems"                       |
 |   S.A. Joyce, J.R. Yates, C.J. Pickard, F. Mauri|
 |   J. Chem. Phys. 127 204107 (2007)              |
 |   "Relativistic NMR J-coupling with ultrasoft   |
 |   pseudopotentials and the zeroth-order regular |
 |   approximation"                                |
 |   T.F.G. Green and J.R. Yates                   |
 |   J. Chem. Phys. 140 234106 (2014)              |

 Atomic calculation performed for O: 1s2 2s2 2p4

 Converged in 44 iterations to an ae energy of -2040.855 eV

[...]

 Exceeded max iterations: converged to 0.000000062 eV

   | Pseudopotential Report - Date of generation 12-09-2020   |
   | Element: O Ionic charge:  6.00 Level of theory: PBE      |
   | Atomic Solver: ZORA (scalar)                             |
   |               Reference Electronic Structure             |
   |         Orbital         Occupation         Energy        |
   |            2s              2.000           -0.881        |
   |            2p              4.000           -0.332        |
   |                 Pseudopotential Definition               |
   |        Beta     l      e      Rc     scheme   norm       |
   |          1      0   -0.881   1.100     qc      0         |
   |          2      0    0.250   1.100     qc      0         |
   |          3      1   -0.332   1.100     qc      0         |
   |          4      1    0.250   1.100     qc      0         |
   |         loc     2    0.000   1.100     pn      0         |
   | Augmentation charge Rinner = 0.769                       |
   | Partial core correction Rc = 0.769                       |
   | "2|1.1|15|18|20|20:21(qc=7)"                             |
   |      Author: Chris J. Pickard, Cambridge University      |

 Atomic calculation performed for Zr: 1s2 2s2 2p6 3s2 3p6 3d10 4s2 4p6 4d2 5s2

[...]

 Warning: ion_atom_descreen_psp: negative charge density encountered
   | Pseudopotential Report - Date of generation 12-09-2020   |
   | Element: Zr Ionic charge: 12.00 Level of theory: PBE     |
   | Atomic Solver: ZORA (scalar)                             |
   |               Reference Electronic Structure             |
   |         Orbital         Occupation         Energy        |
   |            4s              2.000           -2.003        |
   |            4p              6.000           -1.193        |
   |            5s              2.000           -0.163        |
   |            4d              2.000           -0.132        |
   |                 Pseudopotential Definition               |
   |        Beta     l      e      Rc     scheme   norm       |
   |          1      0   -2.003   2.105     qc      0         |
   |          2      0   -0.163   2.105     qc      0         |
   |          3      0    0.250   2.105     qc      0         |
   |          4      1   -1.193   2.105     qc      0         |
   |          5      1    0.250   2.105     qc      0         |
   |          6      2   -0.132   2.105     qc      0         |
   |          7      2    0.250   2.105     qc      0         |
   |         loc     3    0.000   2.105     pn      0         |
   | Augmentation charge Rinner = 1.471                       |
   | Partial core correction Rc = 1.471                       |
   | "3|2.1|7|8|9|40U:50:41:42"                               |
   |      Author: Chris J. Pickard, Cambridge University      |

 Atomic calculation performed for Sn:

[...]

   | Pseudopotential Report - Date of generation 12-09-2020   |
   | Element: Sn Ionic charge: 14.00 Level of theory: PBE     |
   | Atomic Solver: ZORA (scalar)                             |
   |               Reference Electronic Structure             |
   |         Orbital         Occupation         Energy        |
   |            4d             10.000           -0.950        |
   |            5s              2.000           -0.388        |
   |            5p              2.000           -0.136        |
   |                 Pseudopotential Definition               |
   |        Beta     l      e      Rc     scheme   norm       |
   |          1      0   -0.388   2.199     qc      0         |
   |          2      0    0.250   2.199     qc      0         |
   |          3      1   -0.136   2.199     qc      0         |
   |          4      1    0.250   2.199     qc      0         |
   |          5      2   -0.950   2.199     qc      0         |
   |          6      2    0.250   2.199     qc      0         |
   |         loc     3    0.000   2.199     pn      0         |
   | Augmentation charge Rinner = 1.537                       |
   | Partial core correction Rc = 1.537                       |
   | "3|2.2|7|8|9|50:51:42"                                   |
   |      Author: Chris J. Pickard, Cambridge University      |

 Atomic calculation performed for La:

[...]

 Warning: ion_atom_descreen_psp: negative charge density encountered
   | Pseudopotential Report - Date of generation 12-09-2020   |
   | Element: La Ionic charge: 11.00 Level of theory: PBE     |
   | Atomic Solver: ZORA (scalar)                             |
   |               Reference Electronic Structure             |
   |         Orbital         Occupation         Energy        |
   |            5s              2.000           -1.430        |
   |            5p              6.000           -0.823        |
   |            6s              2.000           -0.135        |
   |            5d              1.000           -0.114        |
   |                 Pseudopotential Definition               |
   |        Beta     l      e      Rc     scheme   norm       |
   |          1      0   -1.430   2.298     qc      0         |
   |          2      0   -0.135   2.298     qc      0         |
   |          3      0    0.250   2.298     qc      0         |
   |          4      1   -0.823   2.298     qc      0         |
   |          5      1    0.250   2.298     qc      0         |
   |          6      2   -0.114   2.298     qc      0         |
   |          7      2    0.250   2.298     qc      0         |
   |         loc     2    0.000   2.298     pn      0         |
   | Augmentation charge Rinner = 1.606                       |
   | Partial core correction Rc = 1.606                       |
   | "2|2.3|5|6|7|50U:60:51:52(qc=4.5)"                       |
   |      Author: Chris J. Pickard, Cambridge University      |

 Pseudo atomic calculation performed for O 2s2 2p4

 Converged in 39 iterations to a total energy of -432.6554 eV

 Pseudo atomic calculation performed for Zr 4s2 4p6 4d2 5s2

[...]

 Calculation parallelised over 336 processes.
 Data is distributed by G-vector(24-way) and k-point(14-way)

 ************************************ Title ************************************
 nmr testing

 ***************************** General Parameters ******************************

 output verbosity                               : normal  (1)
 write checkpoint data to                       : Zr11_21_nmr.check
 type of calculation                            : Magnetic Resonance
 stress calculation                             : on
 density difference calculation                 : off
 electron localisation func (ELF) calculation   : off
 Hirshfeld analysis                             : off
 unlimited duration calculation
 timing information                             : on
 write final potential to formatted file        : off
 write final density to formatted file          : off
 write BibTeX reference list                    : on
 write OTFG pseudopotential files               : on
 checkpoint writing                             : both castep_bin and check files

 output         length unit                     : A
 output           mass unit                     : amu
 output           time unit                     : ps
 output         charge unit                     : e
 output           spin unit                     : hbar/2
 output         energy unit                     : eV
 output          force unit                     : eV/A
 output       velocity unit                     : A/ps
 output       pressure unit                     : GPa
 output     inv_length unit                     : 1/A
 output      frequency unit                     : cm-1
 output force constant unit                     : eV/A**2
 output         volume unit                     : A**3
 output   IR intensity unit                     : (D/A)**2/amu
 output         dipole unit                     : D
 output         efield unit                     : eV/A/e
 output        entropy unit                     : J/mol/K

 wavefunctions paging                           : none
 random number generator seed                   : randomised (143742280)
 data distribution                              : optimal for this architecture
 optimization strategy                          : maximize speed(+++)

 *********************** Exchange-Correlation Parameters ***********************

 using functional                               : Perdew Burke Ernzerhof
 relativistic treatment                         : ZORA
 DFT+D: Semi-empirical dispersion correction    : off

 ************************* Pseudopotential Parameters **************************

[...]
  |    O          42      -86.71      86.37      0.06  -3.195E+00   0.09 |
  |    O          43     -165.22     157.05      0.86   1.072E+00   0.88 |
  |    O          44      -89.00      91.62      0.29  -3.133E+00   0.11 |
  |    O          45      -88.43      93.52      0.21  -3.183E+00   0.10 |
  |    O          46     -164.83     157.28      0.81   1.049E+00   0.89 |
  |    O          47     -166.33     158.93      0.75   1.057E+00   0.97 |
  |    O          48      -86.65      84.52      0.16  -3.132E+00   0.08 |
  |    O          49     -166.33     158.92      0.75   1.057E+00   0.97 |
  |    O          50      -86.65      84.52      0.16  -3.132E+00   0.08 |
  |    O          51     -164.83     157.28      0.81   1.049E+00   0.89 |
  |    O          52      -88.43      93.52      0.21  -3.183E+00   0.10 |
  |    O          53      -90.93      85.53      0.21  -3.206E+00   0.13 |
  |    O          54     -166.18     160.64      0.85   1.052E+00   0.90 |
  |    O          55      -90.93      85.52      0.21  -3.206E+00   0.13 |
  |    O          56     -166.18     160.63      0.85   1.052E+00   0.90 |
  |    Zr          1     1621.85    -126.92      0.20  -3.739E+01   0.01 |
  |    Zr          2     1627.26    -127.28      0.09  -3.822E+01   0.08 |
  |    Zr          3     1627.26    -127.28      0.09  -3.822E+01   0.08 |
  |    Zr          4     1623.47    -120.25      0.08  -4.130E+01   0.04 |
[...]
  |    La          2     4753.01     873.65      0.04  -8.524E+01   0.03 |
  |    La          3     4753.01     873.65      0.04  -8.524E+01   0.03 |
  |    La          4     4719.29     751.00      0.03  -8.431E+01   0.06 |
  |    La          5     4660.75     659.13      0.10  -7.974E+01   0.13 |
  |    La          6     4660.75     659.12      0.10  -7.974E+01   0.13 |
  |    La          7     4803.00     960.91      0.01  -8.744E+01   0.03 |
  |    La          8     4651.35     627.08      0.01  -7.714E+01   0.01 |
  |    La          9     4707.78     778.76      0.12  -8.262E+01   0.13 |
  |    La         10     4707.78     778.76      0.12  -8.262E+01   0.13 |
  |    La         11     4702.09     758.15      0.05  -8.045E+01   0.08 |
  |    La         12     4702.09     758.15      0.05  -8.045E+01   0.08 |
  |    La         13     4653.31     662.72      0.12  -7.848E+01   0.15 |
  |    La         14     4759.09     860.58      0.05  -8.522E+01   0.09 |
  |    La         15     4759.09     860.58      0.05  -8.522E+01   0.09 |
  |    La         16     4653.31     662.72      0.12  -7.848E+01   0.15 |

 *********************** Forces ***********************
 *            Cartesian components (eV/A)             *
 *                   x            y            z      *
 * O         1     -0.01152      0.00004     -0.00141 *
 * O         2     -0.00410      0.01366      0.00781 *
 * O         3     -0.00530      0.00239      0.01219 *
 * O         4     -0.00459      0.00804      0.00190 *
 * O         5      0.00530     -0.01219     -0.00239 *
 * O         6      0.01152      0.00141     -0.00004 *
 * O         7      0.00410     -0.00780     -0.01366 *
 * O         8      0.00459     -0.00190     -0.00804 *
 * O         9     -0.00277      0.01205      0.01424 *
 * O        10      0.00120      0.01652      0.00434 *
 * O        11     -0.00205      0.02504     -0.02196 *
 * O        12      0.00589      0.02571      0.01345 *
 * O        13      0.01590     -0.00254      0.02544 *
 * O        14     -0.01717     -0.00369      0.01795 *
 * O        15     -0.00176      0.00684      0.00428 *
 * O        16      0.00315      0.00445      0.01007 *
 * O        17      0.00564      0.01162      0.00200 *
 * O        18     -0.00130      0.00477      0.00439 *
 * O        19     -0.01842      0.01926     -0.01697 *
 * O        20     -0.00774     -0.00031      0.00462 *
 * O        21      0.00130     -0.00439     -0.00476 *
 * O        22     -0.00564     -0.00200     -0.01162 *
 * O        23      0.00774     -0.00462      0.00031 *
 * O        24      0.01842      0.01697     -0.01926 *
 * O        25      0.00205      0.02196     -0.02504 *
 * O        26     -0.00589     -0.01345     -0.02572 *
 * O        27      0.00277     -0.01424     -0.01205 *
 * O        28     -0.00120     -0.00434     -0.01652 *
 * O        29     -0.00315     -0.01007     -0.00445 *
 * O        30      0.00176     -0.00428     -0.00684 *
 * O        31      0.01717     -0.01794      0.00369 *
 * O        32     -0.01590     -0.02544      0.00254 *
 * O        33      0.00061     -0.02244      0.01732 *
 * O        34     -0.00795      0.00344      0.00450 *
 * O        35      0.00349     -0.00151     -0.00799 *
 * O        36     -0.00203     -0.01177      0.00436 *
 * O        37     -0.01454     -0.00017      0.01167 *
 * O        38     -0.01080     -0.00620     -0.01142 *
 * O        39      0.01454     -0.01167      0.00017 *
 * O        40      0.01080      0.01142      0.00620 *
 * O        41      0.00795     -0.00450     -0.00344 *
 * O        42     -0.00061     -0.01731      0.02244 *
 * O        43      0.00203     -0.00435      0.01177 *
 * O        44     -0.00349      0.00799      0.00151 *
 * O        45      0.00668      0.01049      0.01710 *
 * O        46     -0.01282     -0.01217      0.00208 *
 * O        47      0.00532     -0.01057     -0.01324 *
 * O        48      0.01556      0.02719     -0.00001 *
 * O        49     -0.00532      0.01323      0.01057 *
 * O        50     -0.01556      0.00001     -0.02719 *
 * O        51      0.01283     -0.00208      0.01217 *
 * O        52     -0.00668     -0.01709     -0.01049 *
 * O        53      0.01761     -0.00833      0.00672 *
 * O        54      0.01044      0.01011     -0.00707 *
 * O        55     -0.01761     -0.00673      0.00833 *
 * O        56     -0.01044      0.00706     -0.01011 *
 * Zr        1     -0.00000      0.02648     -0.02648 *
 * Zr        2     -0.00503     -0.00532      0.00337 *
 * Zr        3      0.00502     -0.00336      0.00531 *
 * Zr        4     -0.00000     -0.00116      0.00116 *
[...]
 * La        2      0.00085     -0.00815     -0.00594 *
 * La        3     -0.00085      0.00594      0.00814 *
 * La        4      0.00000     -0.00192      0.00192 *
 * La        5     -0.00765      0.00266     -0.00025 *
 * La        6      0.00765      0.00024     -0.00267 *
 * La        7      0.00000     -0.01077      0.01077 *
 * La        8      0.00000      0.00490     -0.00491 *
 * La        9     -0.00086     -0.00426     -0.00673 *
 * La       10      0.00086      0.00674      0.00426 *
 * La       11      0.00707      0.01504      0.01484 *
 * La       12     -0.00707     -0.01483     -0.01504 *
 * La       13      0.00433     -0.00278      0.00543 *
 * La       14     -0.01228      0.00324     -0.01512 *
 * La       15      0.01228      0.01512     -0.00324 *
 * La       16     -0.00432     -0.00543      0.00279 *

 ***************** Stress Tensor *****************
 *          Cartesian components (GPa)           *
 *             x             y             z     *
 *  x     -0.042177     -0.027953     -0.027949  *
 *  y     -0.027953      0.049492      0.042377  *
 *  z     -0.027949      0.042377      0.049489  *
 *  Pressure:   -0.0189                          *

[...]

 Pseudo atomic calculation performed for Sn 4d10 5s2 5p2

[...]

 Pseudo atomic calculation performed for La 5s2 5p6 5d1 6s2

 Converged in 34 iterations to a total energy of -968.0372 eV

Charge spilling parameter for spin component 1 = 0.23%

     Atomic Populations (Mulliken)
Species   Ion     s      p      d      f     Total  Charge (e)
  O        1     1.87   5.00   0.00   0.00   6.87    -0.87
  O        2     1.87   5.00   0.00   0.00   6.87    -0.87
  O        3     1.87   5.00   0.00   0.00   6.87    -0.87
  O        4     1.87   5.00   0.00   0.00   6.87    -0.87
  O        5     1.87   5.00   0.00   0.00   6.87    -0.87
  O        6     1.87   5.00   0.00   0.00   6.87    -0.87
  O        7     1.87   5.00   0.00   0.00   6.87    -0.87
  O        8     1.87   5.00   0.00   0.00   6.87    -0.87
  O        9     1.87   4.98   0.00   0.00   6.85    -0.85
  O       10     1.86   4.94   0.00   0.00   6.80    -0.80
  O       11     1.87   4.99   0.00   0.00   6.85    -0.85
  O       12     1.87   4.99   0.00   0.00   6.85    -0.85
  O       13     1.87   4.99   0.00   0.00   6.85    -0.85
  O       14     1.87   4.99   0.00   0.00   6.85    -0.85
  O       15     1.88   5.02   0.00   0.00   6.91    -0.91
  O       16     1.86   4.94   0.00   0.00   6.80    -0.80
  O       17     1.86   4.94   0.00   0.00   6.80    -0.80
  O       18     1.88   5.02   0.00   0.00   6.90    -0.90
  O       19     1.87   4.99   0.00   0.00   6.85    -0.85
  O       20     1.86   4.94   0.00   0.00   6.80    -0.80
  O       21     1.88   5.02   0.00   0.00   6.90    -0.90
  O       22     1.86   4.94   0.00   0.00   6.80    -0.80
  O       23     1.86   4.94   0.00   0.00   6.80    -0.80
  O       24     1.87   4.99   0.00   0.00   6.85    -0.85
  O       25     1.87   4.99   0.00   0.00   6.85    -0.85
  O       26     1.87   4.99   0.00   0.00   6.85    -0.85
  O       27     1.87   4.98   0.00   0.00   6.85    -0.85
  O       28     1.86   4.94   0.00   0.00   6.80    -0.80
  O       29     1.86   4.94   0.00   0.00   6.80    -0.80
  O       30     1.88   5.02   0.00   0.00   6.91    -0.91
  O       31     1.87   4.99   0.00   0.00   6.85    -0.85
  O       32     1.87   4.99   0.00   0.00   6.85    -0.85
  O       33     1.87   4.99   0.00   0.00   6.85    -0.85
  O       34     1.86   4.94   0.00   0.00   6.80    -0.80
  O       35     1.87   4.98   0.00   0.00   6.85    -0.85
  O       36     1.86   4.95   0.00   0.00   6.80    -0.80
  O       37     1.86   4.94   0.00   0.00   6.80    -0.80
  O       38     1.86   4.95   0.00   0.00   6.80    -0.80
  O       39     1.86   4.94   0.00   0.00   6.80    -0.80
  O       40     1.86   4.95   0.00   0.00   6.80    -0.80
  O       41     1.86   4.94   0.00   0.00   6.80    -0.80
  O       42     1.87   4.99   0.00   0.00   6.85    -0.85
  O       43     1.86   4.95   0.00   0.00   6.80    -0.80
  O       44     1.87   4.98   0.00   0.00   6.85    -0.85
  O       45     1.87   4.99   0.00   0.00   6.85    -0.85
  O       46     1.86   4.94   0.00   0.00   6.80    -0.80
  O       47     1.85   4.94   0.00   0.00   6.80    -0.80
  O       48     1.87   4.99   0.00   0.00   6.85    -0.85
  O       49     1.85   4.94   0.00   0.00   6.80    -0.80
  O       50     1.87   4.99   0.00   0.00   6.85    -0.85
  O       51     1.86   4.94   0.00   0.00   6.80    -0.80
  O       52     1.87   4.99   0.00   0.00   6.85    -0.85
  O       53     1.87   4.99   0.00   0.00   6.85    -0.85
  O       54     1.86   4.94   0.00   0.00   6.80    -0.80
  O       55     1.87   4.99   0.00   0.00   6.85    -0.85
  O       56     1.86   4.94   0.00   0.00   6.80    -0.80
  Zr       1     2.37   6.50   1.92   0.00  10.80     1.20
  Zr       2     2.38   6.49   1.92   0.00  10.79     1.21
  Zr       3     2.38   6.49   1.92   0.00  10.79     1.21
  Zr       4     2.37   6.47   1.93   0.00  10.77     1.23
[...]
  La       2     2.05   6.15   1.19   0.00   9.39     1.61
  La       3     2.05   6.15   1.19   0.00   9.39     1.61
  La       4     2.06   6.17   1.19   0.00   9.42     1.58
  La       5     2.09   6.18   1.19   0.00   9.46     1.54
  La       6     2.09   6.18   1.19   0.00   9.46     1.54
  La       7     2.01   6.13   1.19   0.00   9.34     1.66
  La       8     2.10   6.18   1.19   0.00   9.47     1.53
  La       9     2.06   6.16   1.19   0.00   9.42     1.58
  La      10     2.06   6.16   1.19   0.00   9.42     1.58
  La      11     2.06   6.16   1.19   0.00   9.42     1.58
  La      12     2.06   6.16   1.19   0.00   9.42     1.58
  La      13     2.10   6.17   1.19   0.00   9.46     1.54
  La      14     2.03   6.15   1.19   0.00   9.37     1.63
  La      15     2.03   6.15   1.19   0.00   9.37     1.63
  La      16     2.10   6.17   1.19   0.00   9.46     1.54

            Bond              Population      Length (A)
         O 24 -- Sn 4              0.35        2.09918
         O 19 -- Sn 5              0.35        2.09918
         O 14 -- Sn 4              0.35        2.10336
         O 31 -- Sn 5              0.35        2.10336
         O 25 -- Sn 3              0.35        2.10380
         O 11 -- Sn 2              0.35        2.10380
         O 12 -- Sn 1              0.35        2.10425
         O 26 -- Sn 1              0.35        2.10425
         O 13 -- Sn 3              0.35        2.10477
         O 32 -- Sn 2              0.35        2.10477
         O 42 -- Sn 3              0.35        2.10599
         O 33 -- Sn 2              0.35        2.10599
         O 53 -- Sn 1              0.34        2.10652
         O 55 -- Sn 1              0.34        2.10652
         O 52 -- Sn 4              0.34        2.10683
         O 45 -- Sn 5              0.34        2.10683
         O 27 -- Sn 5              0.35        2.10768
         O 9  -- Sn 4              0.35        2.10768
         O 48 -- Sn 2              0.35        2.10914
         O 50 -- Sn 3              0.35        2.10914
         O 35 -- Sn 5              0.34        2.11176
         O 44 -- Sn 4              0.34        2.11176
         O 36 -- Zr 3              0.42        2.11196
         O 43 -- Zr 2              0.42        2.11196
         O 15 -- Sn 5              0.33        2.11209
         O 30 -- Sn 4              0.33        2.11209
         O 54 -- Zr 8              0.42        2.11240
         O 56 -- Zr 9              0.42        2.11240
         O 49 -- Zr 4              0.43        2.11308
         O 47 -- Zr 4              0.43        2.11308
         O 20 -- Zr 5              0.42        2.11328
         O 23 -- Zr 6              0.42        2.11328
         O 30 -- Sn 3              0.33        2.11402
         O 15 -- Sn 2              0.33        2.11402
         O 21 -- Sn 1              0.33        2.11543
         O 18 -- Sn 1              0.33        2.11543
         O 56 -- Zr 1              0.42        2.11615
         O 54 -- Zr 1              0.42        2.11615
         O 20 -- Zr 7              0.42        2.11616
         O 23 -- Zr 7              0.42        2.11616
         O 37 -- Zr 9              0.44        2.11631
         O 39 -- Zr 8              0.44        2.11631
         O 24 -- Zr 8              0.45        2.11684
         O 19 -- Zr 9              0.45        2.11684
         O 21 -- Sn 2              0.33        2.11690
         O 18 -- Sn 3              0.33        2.11690
         O 41 -- Zr 11             0.44        2.11737
         O 34 -- Zr 10             0.44        2.11737
         O 43 -- Zr 10             0.41        2.11744
         O 36 -- Zr 11             0.41        2.11744
         O 46 -- Zr 3              0.43        2.11805
         O 51 -- Zr 2              0.43        2.11805
         O 46 -- Zr 5              0.43        2.11834
         O 51 -- Zr 6              0.43        2.11834
         O 49 -- Zr 5              0.44        2.11854
         O 47 -- Zr 6              0.44        2.11854
         O 40 -- Zr 7              0.43        2.11862
         O 38 -- Zr 7              0.43        2.11862
         O 11 -- Zr 9              0.45        2.11881
         O 25 -- Zr 8              0.45        2.11881
[...]
         O 10 -- O 23             -0.03        2.82689
         O 20 -- O 28             -0.03        2.82689
         O 9  -- O 38             -0.03        2.82707
         O 27 -- O 40             -0.03        2.82707
         O 12 -- O 22             -0.03        2.82790
         O 17 -- O 26             -0.03        2.82790
         O 16 -- O 31             -0.03        2.82833
         O 14 -- O 29             -0.03        2.82833
         O 13 -- O 29             -0.03        2.83047
         O 16 -- O 32             -0.03        2.83047
         O 17 -- O 25             -0.03        2.83151
         O 11 -- O 22             -0.03        2.83151
         O 33 -- O 40             -0.03        2.83476
         O 38 -- O 42             -0.03        2.83476
         O 48 -- O 50             -0.03        2.83872

Writing analysis data to Zr11_21_nmr.castep_bin

Writing model to Zr11_21_nmr.check

 A BibTeX formatted list of references used in this run has been written to
 Zr11_21_nmr.bib

Initialisation time =     35.00 s
Calculation time    =   4277.73 s
Finalisation time   =     10.09 s
Total time          =   4322.82 s

Overall parallel efficiency rating: Good (71%)

Data was distributed by:-
G-vector (24-way); efficiency rating: Good (73%)
k-point (14-way); efficiency rating: Excellent (96%)