 Compiled for linux_x86_64_ifort17 on Mon, 09 Apr 2018 23:35:31 +0100
 from code version
 203e84763863+ Castep161_branch Fri, 04 Mar 2016 19:21:07 +0000
 Compiler: Intel Fortran 17.0.1.132; Optimisation: fast
 MATHLIBS: Intel MKL(2017.0.1) (LAPACK version 3.6.0)
 FFT Lib : mkl
 Fundamental constants values: CODATA 2010

 Run started: Sat, 12 Sep 2020 02:18:41 +0100
 |           N   N    M   M    RRRR                |
 |           NN  N    MM MM    R   R               |
 |           N N N    M M M    RRRR                |
 |           N  NN    M   M    R  R                |
 |           N   N    M   M    R   R               |
 | Welcome to Materials Studio CASTEP-NMR          |
 | Authors:                                        |
 | J.R. Yates, C.J. Pickard, F. Mauri              |
 | Contributors:                                   |
 | T.F.G. Green, S.A. Joyce                        |
 | Copyright (c) 2004 - 2015                       |
 | Please cite the appropriate publications in all |
 | work arising from your use of CASTEP NMR.       |
 | For NMR Shielding Tensors cite:                 |
 |    "All-electron magnetic response with         |
 |    pseudopotentials: NMR chemical shifts",      |
 |    C. J. Pickard, F. Mauri;                     |
 |    Physical Review B63 245101 (2001), and       |
 |    "Calculation of NMR Chemical Shifts          |
 |    for extended systems using                   |
 |    Ultrasoft Pseudopotentials",                 |
 |    J. R. Yates, C. J. Pickard and F. Mauri      |
 |    Physical Review B76 024401 (2007)            |
 | For Electric Field Gradients cite:              |
 |   "Accurate First Principles Prediction of 17O  |
 |    NMR Parameters in SiO2: Assignment of the    |
 |    Zeolite Ferrierite Spectrum"                 |
 |    M. Profeta, F. Mauri and C. J. Pickard       |
 |    J. Amer. Chem. Soc. 125 541 (2003)           |
 | For Spin-Spin (J) Couplings cite:               |
 |   "A first principles theory of NMR J-coupling  |
 |   in solid-state systems"                       |
 |   S.A. Joyce, J.R. Yates, C.J. Pickard, F. Mauri|
 |   J. Chem. Phys. 127 204107 (2007)              |
 |   "Relativistic NMR J-coupling with ultrasoft   |
 |   pseudopotentials and the zeroth-order regular |
 |   approximation"                                |
 |   T.F.G. Green and J.R. Yates                   |
 |   J. Chem. Phys. 140 234106 (2014)              |

 Atomic calculation performed for O: 1s2 2s2 2p4

 Converged in 44 iterations to an ae energy of -2040.855 eV

[...]

 Exceeded max iterations: converged to 0.000000062 eV

   | Pseudopotential Report - Date of generation 12-09-2020   |
   | Element: O Ionic charge:  6.00 Level of theory: PBE      |
   | Atomic Solver: ZORA (scalar)                             |
   |               Reference Electronic Structure             |
   |         Orbital         Occupation         Energy        |
   |            2s              2.000           -0.881        |
   |            2p              4.000           -0.332        |
   |                 Pseudopotential Definition               |
   |        Beta     l      e      Rc     scheme   norm       |
   |          1      0   -0.881   1.100     qc      0         |
   |          2      0    0.250   1.100     qc      0         |
   |          3      1   -0.332   1.100     qc      0         |
   |          4      1    0.250   1.100     qc      0         |
   |         loc     2    0.000   1.100     pn      0         |
   | Augmentation charge Rinner = 0.769                       |
   | Partial core correction Rc = 0.769                       |
   | "2|1.1|15|18|20|20:21(qc=7)"                             |
   |      Author: Chris J. Pickard, Cambridge University      |

 Atomic calculation performed for Zr: 1s2 2s2 2p6 3s2 3p6 3d10 4s2 4p6 4d2 5s2

[...]

 Warning: ion_atom_descreen_psp: negative charge density encountered
   | Pseudopotential Report - Date of generation 12-09-2020   |
   | Element: Zr Ionic charge: 12.00 Level of theory: PBE     |
   | Atomic Solver: ZORA (scalar)                             |
   |               Reference Electronic Structure             |
   |         Orbital         Occupation         Energy        |
   |            4s              2.000           -2.003        |
   |            4p              6.000           -1.193        |
   |            5s              2.000           -0.163        |
   |            4d              2.000           -0.132        |
   |                 Pseudopotential Definition               |
   |        Beta     l      e      Rc     scheme   norm       |
   |          1      0   -2.003   2.105     qc      0         |
   |          2      0   -0.163   2.105     qc      0         |
   |          3      0    0.250   2.105     qc      0         |
   |          4      1   -1.193   2.105     qc      0         |
   |          5      1    0.250   2.105     qc      0         |
   |          6      2   -0.132   2.105     qc      0         |
   |          7      2    0.250   2.105     qc      0         |
   |         loc     3    0.000   2.105     pn      0         |
   | Augmentation charge Rinner = 1.471                       |
   | Partial core correction Rc = 1.471                       |
   | "3|2.1|7|8|9|40U:50:41:42"                               |
   |      Author: Chris J. Pickard, Cambridge University      |

 Atomic calculation performed for Sn:

[...]

   | Pseudopotential Report - Date of generation 12-09-2020   |
   | Element: Sn Ionic charge: 14.00 Level of theory: PBE     |
   | Atomic Solver: ZORA (scalar)                             |
   |               Reference Electronic Structure             |
   |         Orbital         Occupation         Energy        |
   |            4d             10.000           -0.950        |
   |            5s              2.000           -0.388        |
   |            5p              2.000           -0.136        |
   |                 Pseudopotential Definition               |
   |        Beta     l      e      Rc     scheme   norm       |
   |          1      0   -0.388   2.199     qc      0         |
   |          2      0    0.250   2.199     qc      0         |
   |          3      1   -0.136   2.199     qc      0         |
   |          4      1    0.250   2.199     qc      0         |
   |          5      2   -0.950   2.199     qc      0         |
   |          6      2    0.250   2.199     qc      0         |
   |         loc     3    0.000   2.199     pn      0         |
   | Augmentation charge Rinner = 1.537                       |
   | Partial core correction Rc = 1.537                       |
   | "3|2.2|7|8|9|50:51:42"                                   |
   |      Author: Chris J. Pickard, Cambridge University      |

 Atomic calculation performed for La:

[...]

 Warning: ion_atom_descreen_psp: negative charge density encountered
   | Pseudopotential Report - Date of generation 12-09-2020   |
   | Element: La Ionic charge: 11.00 Level of theory: PBE     |
   | Atomic Solver: ZORA (scalar)                             |
   |               Reference Electronic Structure             |
   |         Orbital         Occupation         Energy        |
   |            5s              2.000           -1.430        |
   |            5p              6.000           -0.823        |
   |            6s              2.000           -0.135        |
   |            5d              1.000           -0.114        |
   |                 Pseudopotential Definition               |
   |        Beta     l      e      Rc     scheme   norm       |
   |          1      0   -1.430   2.298     qc      0         |
   |          2      0   -0.135   2.298     qc      0         |
   |          3      0    0.250   2.298     qc      0         |
   |          4      1   -0.823   2.298     qc      0         |
   |          5      1    0.250   2.298     qc      0         |
   |          6      2   -0.114   2.298     qc      0         |
   |          7      2    0.250   2.298     qc      0         |
   |         loc     2    0.000   2.298     pn      0         |
   | Augmentation charge Rinner = 1.606                       |
   | Partial core correction Rc = 1.606                       |
   | "2|2.3|5|6|7|50U:60:51:52(qc=4.5)"                       |
   |      Author: Chris J. Pickard, Cambridge University      |

 Pseudo atomic calculation performed for O 2s2 2p4

 Converged in 39 iterations to a total energy of -432.6554 eV

 Pseudo atomic calculation performed for Zr 4s2 4p6 4d2 5s2

[...]

 Calculation parallelised over 336 processes.
 Data is distributed by G-vector(24-way) and k-point(14-way)

 ************************************ Title ************************************
 nmr testing

 ***************************** General Parameters ******************************

 output verbosity                               : normal  (1)
 write checkpoint data to                       : Zr11_25_nmr.check
 type of calculation                            : Magnetic Resonance
 stress calculation                             : on
 density difference calculation                 : off
 electron localisation func (ELF) calculation   : off
 Hirshfeld analysis                             : off
 unlimited duration calculation
 timing information                             : on
 write final potential to formatted file        : off
 write final density to formatted file          : off
 write BibTeX reference list                    : on
 write OTFG pseudopotential files               : on
 checkpoint writing                             : both castep_bin and check files

 output         length unit                     : A
 output           mass unit                     : amu
 output           time unit                     : ps
 output         charge unit                     : e
 output           spin unit                     : hbar/2
 output         energy unit                     : eV
 output          force unit                     : eV/A
 output       velocity unit                     : A/ps
 output       pressure unit                     : GPa
 output     inv_length unit                     : 1/A
 output      frequency unit                     : cm-1
 output force constant unit                     : eV/A**2
 output         volume unit                     : A**3
 output   IR intensity unit                     : (D/A)**2/amu
 output         dipole unit                     : D
 output         efield unit                     : eV/A/e
 output        entropy unit                     : J/mol/K

 wavefunctions paging                           : none
 random number generator seed                   : randomised (21841676)
 data distribution                              : optimal for this architecture
 optimization strategy                          : maximize speed(+++)

 *********************** Exchange-Correlation Parameters ***********************

 using functional                               : Perdew Burke Ernzerhof
 relativistic treatment                         : ZORA
 DFT+D: Semi-empirical dispersion correction    : off

 ************************* Pseudopotential Parameters **************************

[...]
  |    O          42      -89.17      92.76      0.21  -3.183E+00   0.10 |
  |    O          43      -88.54      86.67      0.22  -3.187E+00   0.09 |
  |    O          44     -166.25     154.44      0.75  -1.019E+00   0.99 |
  |    O          45      -86.62      92.74      0.25  -3.201E+00   0.11 |
  |    O          46     -162.35     149.66      0.78   1.053E+00   0.80 |
  |    O          47     -164.48     151.76      0.75   1.043E+00   0.89 |
  |    O          48     -162.02     154.05      0.87   1.087E+00   0.79 |
  |    O          49     -167.64     162.26      0.84   1.073E+00   0.95 |
  |    O          50      -87.28      84.51      0.10  -3.144E+00   0.09 |
  |    O          51     -164.74     152.21      0.81   1.065E+00   0.81 |
  |    O          52     -163.91     158.85      0.80   1.073E+00   0.86 |
  |    O          53      -85.80      80.79      0.21  -3.185E+00   0.13 |
  |    O          54     -163.66     151.03      0.82   1.087E+00   0.80 |
  |    O          55      -90.98      84.17      0.10  -3.239E+00   0.13 |
  |    O          56      -91.54      85.72      0.14  -3.202E+00   0.13 |
  |    Zr          1     1627.66    -127.70      0.15  -3.825E+01   0.10 |
  |    Zr          2     1613.40    -121.56      0.10  -3.734E+01   0.08 |
  |    Zr          3     1628.58    -125.53      0.11  -4.016E+01   0.09 |
  |    Zr          4     1623.15    -123.42      0.16  -3.918E+01   0.05 |
[...]
  |    La          2     4749.03     869.72      0.05  -8.295E+01   0.06 |
  |    La          3     4712.80     761.38      0.04  -8.415E+01   0.07 |
  |    La          4     4756.72     861.87      0.04  -8.564E+01   0.06 |
  |    La          5     4655.20     669.49      0.10  -7.867E+01   0.14 |
  |    La          6     4711.77     748.77      0.04  -8.310E+01   0.10 |
  |    La          7     4754.80     866.97      0.05  -8.407E+01   0.07 |
  |    La          8     4660.23     659.80      0.10  -8.026E+01   0.15 |
  |    La          9     4603.20     517.40      0.09  -7.445E+01   0.07 |
  |    La         10     4753.62     867.28      0.05  -8.456E+01   0.08 |
  |    La         11     4701.62     759.45      0.04  -8.033E+01   0.09 |
  |    La         12     4753.99     869.30      0.05  -8.462E+01   0.08 |
  |    La         13     4750.31     876.92      0.05  -8.363E+01   0.07 |
  |    La         14     4711.52     741.93      0.02  -8.211E+01   0.05 |
  |    La         15     4708.42     753.67      0.06  -8.147E+01   0.10 |
  |    La         16     4659.65     659.65      0.09  -8.008E+01   0.13 |

 *********************** Forces ***********************
 *            Cartesian components (eV/A)             *
 *                   x            y            z      *
 * O         1     -0.00135     -0.00392      0.00002 *
 * O         2     -0.00353      0.00115     -0.00218 *
 * O         3     -0.00260      0.00749      0.00723 *
 * O         4     -0.00713      0.00634      0.01133 *
 * O         5     -0.00944     -0.01422     -0.00697 *
 * O         6      0.00152      0.00422     -0.01048 *
 * O         7     -0.00341     -0.01406     -0.01082 *
 * O         8      0.00265     -0.00012     -0.00775 *
 * O         9      0.00687     -0.00709     -0.00537 *
 * O        10     -0.00081     -0.00227     -0.00094 *
 * O        11     -0.00111     -0.02355      0.00994 *
 * O        12     -0.00555      0.00050      0.00153 *
 * O        13      0.00106     -0.00916     -0.00225 *
 * O        14      0.00660     -0.00568      0.00207 *
 * O        15     -0.01904     -0.00717      0.01250 *
 * O        16      0.00741      0.01169      0.00048 *
 * O        17     -0.00120     -0.00297     -0.00254 *
 * O        18      0.00188     -0.00043     -0.00268 *
 * O        19     -0.00261     -0.00009      0.00080 *
 * O        20      0.00330      0.00559     -0.00239 *
 * O        21      0.00800     -0.01426     -0.01276 *
 * O        22      0.00270      0.00720     -0.00532 *
 * O        23      0.00800     -0.01607      0.00134 *
 * O        24      0.00482      0.01625      0.00180 *
 * O        25     -0.01042      0.01657     -0.02284 *
 * O        26      0.00525     -0.00211     -0.01639 *
 * O        27      0.00212     -0.00074     -0.01940 *
 * O        28      0.00172      0.01512     -0.02843 *
 * O        29      0.02831      0.03019      0.00372 *
 * O        30     -0.01666      0.01151     -0.00124 *
 * O        31      0.01749     -0.00713     -0.00469 *
 * O        32     -0.00490      0.00103     -0.01351 *
 * O        33      0.00953     -0.00224      0.00584 *
 * O        34      0.00005      0.02403      0.02159 *
 * O        35     -0.00283     -0.01044     -0.01837 *
 * O        36     -0.00144     -0.01401      0.01146 *
 * O        37     -0.02028      0.00775      0.00937 *
 * O        38     -0.00790     -0.00444     -0.00802 *
 * O        39      0.00118     -0.00605      0.00738 *
 * O        40     -0.00396      0.01121      0.00895 *
 * O        41      0.00948      0.00245      0.00170 *
 * O        42     -0.00781     -0.01734      0.01752 *
 * O        43     -0.01555     -0.02692     -0.00850 *
 * O        44      0.00392     -0.00560     -0.01481 *
 * O        45      0.00588      0.01719      0.00972 *
 * O        46      0.00148      0.00137      0.00123 *
 * O        47      0.00762     -0.00396     -0.01278 *
 * O        48     -0.00762     -0.00358      0.00263 *
 * O        49      0.00477      0.02036      0.00309 *
 * O        50     -0.00822      0.00614     -0.01560 *
 * O        51      0.00976     -0.00337      0.00443 *
 * O        52     -0.01377      0.00032      0.01688 *
 * O        53      0.01755     -0.00368     -0.00443 *
 * O        54      0.01391      0.00460     -0.00971 *
 * O        55     -0.02172     -0.01054      0.01116 *
 * O        56      0.00922      0.00105      0.00744 *
 * Zr        1     -0.00774      0.01228      0.00488 *
 * Zr        2      0.00277      0.00444     -0.00714 *
 * Zr        3      0.00845      0.00025      0.00136 *
 * Zr        4      0.01434      0.00278     -0.00922 *
[...]
 * La        2      0.00591      0.00187      0.01317 *
 * La        3      0.00461      0.00539      0.00530 *
 * La        4     -0.01302     -0.00210     -0.00639 *
 * La        5     -0.00909     -0.00082     -0.00987 *
 * La        6      0.01459      0.00332     -0.00726 *
 * La        7      0.01520      0.00144      0.00900 *
 * La        8     -0.00042     -0.00325     -0.00938 *
 * La        9     -0.00613     -0.00220     -0.00529 *
 * La       10     -0.01064     -0.00164      0.00461 *
 * La       11      0.00155      0.00665      0.01048 *
 * La       12     -0.01560     -0.00460     -0.00428 *
 * La       13      0.00080     -0.00162      0.00263 *
 * La       14     -0.00875     -0.00448     -0.00165 *
 * La       15      0.01310      0.00831      0.00372 *
 * La       16     -0.00125     -0.00307     -0.00743 *

 ***************** Stress Tensor *****************
 *          Cartesian components (GPa)           *
 *             x             y             z     *
 *  x     -0.033396     -0.037713     -0.034438  *
 *  y     -0.037713      0.078347     -0.000167  *
 *  z     -0.034438     -0.000167     -0.003682  *
 *  Pressure:   -0.0138                          *

[...]

 Pseudo atomic calculation performed for Sn 4d10 5s2 5p2

[...]

 Pseudo atomic calculation performed for La 5s2 5p6 5d1 6s2

 Converged in 34 iterations to a total energy of -968.0372 eV

Charge spilling parameter for spin component 1 = 0.23%

     Atomic Populations (Mulliken)
Species   Ion     s      p      d      f     Total  Charge (e)
  O        1     1.87   5.00   0.00   0.00   6.87    -0.87
  O        2     1.87   5.00   0.00   0.00   6.87    -0.87
  O        3     1.87   5.00   0.00   0.00   6.87    -0.87
  O        4     1.87   5.00   0.00   0.00   6.87    -0.87
  O        5     1.87   5.00   0.00   0.00   6.87    -0.87
  O        6     1.87   5.00   0.00   0.00   6.87    -0.87
  O        7     1.87   5.00   0.00   0.00   6.87    -0.87
  O        8     1.87   5.00   0.00   0.00   6.87    -0.87
  O        9     1.86   4.94   0.00   0.00   6.80    -0.80
  O       10     1.86   4.94   0.00   0.00   6.80    -0.80
  O       11     1.87   4.99   0.00   0.00   6.85    -0.85
  O       12     1.88   5.02   0.00   0.00   6.91    -0.91
  O       13     1.88   5.02   0.00   0.00   6.91    -0.91
  O       14     1.86   4.94   0.00   0.00   6.80    -0.80
  O       15     1.87   4.99   0.00   0.00   6.85    -0.85
  O       16     1.86   4.94   0.00   0.00   6.80    -0.80
  O       17     1.86   4.94   0.00   0.00   6.80    -0.80
  O       18     1.88   5.02   0.00   0.00   6.91    -0.91
  O       19     1.88   5.02   0.00   0.00   6.90    -0.90
  O       20     1.86   4.94   0.00   0.00   6.80    -0.80
  O       21     1.87   4.98   0.00   0.00   6.85    -0.85
  O       22     1.88   5.02   0.00   0.00   6.90    -0.90
  O       23     1.85   4.94   0.00   0.00   6.80    -0.80
  O       24     1.86   4.94   0.00   0.00   6.80    -0.80
  O       25     1.87   4.98   0.00   0.00   6.85    -0.85
  O       26     1.87   4.99   0.00   0.00   6.85    -0.85
  O       27     1.87   4.99   0.00   0.00   6.85    -0.85
  O       28     1.87   4.99   0.00   0.00   6.85    -0.85
  O       29     1.87   4.99   0.00   0.00   6.85    -0.85
  O       30     1.87   4.99   0.00   0.00   6.85    -0.85
  O       31     1.87   4.99   0.00   0.00   6.85    -0.85
  O       32     1.86   4.94   0.00   0.00   6.80    -0.80
  O       33     1.86   4.94   0.00   0.00   6.80    -0.80
  O       34     1.87   4.99   0.00   0.00   6.85    -0.85
  O       35     1.87   4.98   0.00   0.00   6.85    -0.85
  O       36     1.85   4.94   0.00   0.00   6.80    -0.80
  O       37     1.87   4.99   0.00   0.00   6.85    -0.85
  O       38     1.86   4.94   0.00   0.00   6.80    -0.80
  O       39     1.86   4.94   0.00   0.00   6.80    -0.80
  O       40     1.86   4.94   0.00   0.00   6.80    -0.80
  O       41     1.86   4.94   0.00   0.00   6.80    -0.80
  O       42     1.87   4.99   0.00   0.00   6.86    -0.86
  O       43     1.87   4.99   0.00   0.00   6.86    -0.86
  O       44     1.86   4.94   0.00   0.00   6.80    -0.80
  O       45     1.87   4.99   0.00   0.00   6.85    -0.85
  O       46     1.86   4.94   0.00   0.00   6.80    -0.80
  O       47     1.86   4.94   0.00   0.00   6.80    -0.80
  O       48     1.86   4.95   0.00   0.00   6.80    -0.80
  O       49     1.85   4.94   0.00   0.00   6.80    -0.80
  O       50     1.87   4.98   0.00   0.00   6.85    -0.85
  O       51     1.86   4.94   0.00   0.00   6.80    -0.80
  O       52     1.86   4.94   0.00   0.00   6.80    -0.80
  O       53     1.87   4.99   0.00   0.00   6.85    -0.85
  O       54     1.86   4.95   0.00   0.00   6.80    -0.80
  O       55     1.87   4.99   0.00   0.00   6.85    -0.85
  O       56     1.87   4.99   0.00   0.00   6.85    -0.85
  Zr       1     2.37   6.49   1.92   0.00  10.79     1.21
  Zr       2     2.37   6.50   1.92   0.00  10.80     1.20
  Zr       3     2.37   6.47   1.93   0.00  10.77     1.23
  Zr       4     2.37   6.48   1.93   0.00  10.78     1.22
[...]
  La       2     2.06   6.14   1.19   0.00   9.39     1.61
  La       3     2.06   6.17   1.19   0.00   9.42     1.58
  La       4     2.05   6.15   1.19   0.00   9.39     1.61
  La       5     2.10   6.17   1.19   0.00   9.47     1.53
  La       6     2.07   6.17   1.19   0.00   9.43     1.57
  La       7     2.03   6.15   1.19   0.00   9.37     1.63
  La       8     2.09   6.18   1.19   0.00   9.46     1.54
  La       9     2.13   6.19   1.19   0.00   9.51     1.49
  La      10     2.03   6.15   1.19   0.00   9.37     1.63
  La      11     2.08   6.16   1.19   0.00   9.43     1.57
  La      12     2.03   6.15   1.19   0.00   9.37     1.63
  La      13     2.03   6.14   1.19   0.00   9.37     1.63
  La      14     2.07   6.17   1.19   0.00   9.43     1.57
  La      15     2.06   6.17   1.19   0.00   9.41     1.59
  La      16     2.09   6.18   1.19   0.00   9.46     1.54

            Bond              Population      Length (A)
         O 55 -- Sn 1              0.35        2.10281
         O 37 -- Sn 2              0.34        2.10295
         O 45 -- Sn 5              0.35        2.10312
         O 27 -- Sn 5              0.35        2.10325
         O 15 -- Sn 5              0.35        2.10338
         O 42 -- Sn 3              0.35        2.10345
         O 28 -- Sn 2              0.35        2.10436
         O 34 -- Sn 4              0.34        2.10536
         O 43 -- Sn 4              0.35        2.10557
         O 53 -- Sn 1              0.34        2.10567
         O 18 -- Sn 1              0.34        2.10591
         O 31 -- Sn 5              0.34        2.10638
         O 18 -- Sn 3              0.34        2.10663
         O 30 -- Sn 3              0.34        2.10681
         O 56 -- Sn 2              0.34        2.10738
         O 11 -- Sn 2              0.35        2.10738
         O 29 -- Sn 4              0.35        2.10800
         O 26 -- Sn 1              0.34        2.10836
         O 36 -- Zr 3              0.43        2.10843
         O 12 -- Sn 4              0.34        2.10883
         O 13 -- Sn 3              0.34        2.10897
         O 23 -- Zr 6              0.42        2.10905
         O 25 -- Sn 3              0.35        2.10957
         O 13 -- Sn 4              0.33        2.11066
         O 49 -- Zr 4              0.42        2.11101
         O 49 -- Zr 5              0.42        2.11128
         O 19 -- Sn 2              0.34        2.11157
         O 12 -- Sn 1              0.34        2.11174
         O 50 -- Sn 3              0.34        2.11250
         O 35 -- Sn 5              0.34        2.11256
         O 19 -- Sn 5              0.33        2.11328
         O 24 -- Zr 8              0.42        2.11365
         O 24 -- Zr 10             0.42        2.11376
         O 21 -- Sn 1              0.35        2.11391
         O 23 -- Zr 7              0.42        2.11443
         O 36 -- Zr 11             0.42        2.11465
         O 54 -- Zr 8              0.42        2.11498
         O 31 -- Zr 6              0.46        2.11524
         O 16 -- Zr 11             0.43        2.11585
         O 48 -- Zr 9              0.42        2.11586
         O 52 -- Zr 10             0.42        2.11599
         O 52 -- Zr 1              0.43        2.11604
         O 10 -- Zr 6              0.43        2.11610
         O 40 -- Zr 7              0.43        2.11641
         O 29 -- Zr 5              0.45        2.11667
         O 51 -- Zr 2              0.43        2.11764
         O 48 -- Zr 1              0.42        2.11766
         O 34 -- Zr 4              0.45        2.11774
         O 42 -- Zr 2              0.44        2.11784
         O 33 -- Zr 3              0.43        2.11785
         O 33 -- Zr 9              0.43        2.11789
         O 47 -- Zr 4              0.44        2.11790
         O 22 -- Sn 2              0.33        2.11823
         O 32 -- Zr 9              0.42        2.11824
         O 9  -- Zr 10             0.43        2.11847
         O 54 -- Zr 1              0.42        2.11855
         O 22 -- Sn 4              0.33        2.11875
         O 45 -- Zr 1              0.45        2.11904
         O 32 -- Zr 11             0.42        2.11936
         O 38 -- Zr 2              0.43        2.11937
[...]
         O 33 -- O 40             -0.03        2.82666
         O 29 -- O 46             -0.03        2.82720
         O 20 -- O 28             -0.03        2.82784
         O 25 -- O 39             -0.03        2.82814
         O 21 -- O 48             -0.03        2.82910
         O 17 -- O 25             -0.03        2.82984
         O 14 -- O 30             -0.03        2.83042
         O 14 -- O 29             -0.03        2.83105
         O 48 -- O 50             -0.03        2.83128
         O 20 -- O 27             -0.03        2.83281
         O 34 -- O 39             -0.03        2.83375
         O 17 -- O 26             -0.03        2.83393
         O 46 -- O 53             -0.03        2.83458
         O 11 -- O 21             -0.03        2.83493
         O 35 -- O 43             -0.03        2.83694

Writing analysis data to Zr11_25_nmr.castep_bin

Writing model to Zr11_25_nmr.check

 A BibTeX formatted list of references used in this run has been written to
 Zr11_25_nmr.bib

Initialisation time =     71.90 s
Calculation time    =  27678.05 s
Finalisation time   =      8.25 s
Total time          =  27758.20 s

Overall parallel efficiency rating: Terrible (10%)

Data was distributed by:-
G-vector (24-way); efficiency rating: Terrible (10%)
k-point (14-way); efficiency rating: Good (74%)