 Compiled for linux_x86_64_ifort17 on Mon, 09 Apr 2018 23:35:31 +0100
 from code version
 203e84763863+ Castep161_branch Fri, 04 Mar 2016 19:21:07 +0000
 Compiler: Intel Fortran 17.0.1.132; Optimisation: fast
 MATHLIBS: Intel MKL(2017.0.1) (LAPACK version 3.6.0)
 FFT Lib : mkl
 Fundamental constants values: CODATA 2010

 Run started: Mon, 14 Sep 2020 12:18:08 +0100
 |           N   N    M   M    RRRR                |
 |           NN  N    MM MM    R   R               |
 |           N N N    M M M    RRRR                |
 |           N  NN    M   M    R  R                |
 |           N   N    M   M    R   R               |
 | Welcome to Materials Studio CASTEP-NMR          |
 | Authors:                                        |
 | J.R. Yates, C.J. Pickard, F. Mauri              |
 | Contributors:                                   |
 | T.F.G. Green, S.A. Joyce                        |
 | Copyright (c) 2004 - 2015                       |
 | Please cite the appropriate publications in all |
 | work arising from your use of CASTEP NMR.       |
 | For NMR Shielding Tensors cite:                 |
 |    "All-electron magnetic response with         |
 |    pseudopotentials: NMR chemical shifts",      |
 |    C. J. Pickard, F. Mauri;                     |
 |    Physical Review B63 245101 (2001), and       |
 |    "Calculation of NMR Chemical Shifts          |
 |    for extended systems using                   |
 |    Ultrasoft Pseudopotentials",                 |
 |    J. R. Yates, C. J. Pickard and F. Mauri      |
 |    Physical Review B76 024401 (2007)            |
 | For Electric Field Gradients cite:              |
 |   "Accurate First Principles Prediction of 17O  |
 |    NMR Parameters in SiO2: Assignment of the    |
 |    Zeolite Ferrierite Spectrum"                 |
 |    M. Profeta, F. Mauri and C. J. Pickard       |
 |    J. Amer. Chem. Soc. 125 541 (2003)           |
 | For Spin-Spin (J) Couplings cite:               |
 |   "A first principles theory of NMR J-coupling  |
 |   in solid-state systems"                       |
 |   S.A. Joyce, J.R. Yates, C.J. Pickard, F. Mauri|
 |   J. Chem. Phys. 127 204107 (2007)              |
 |   "Relativistic NMR J-coupling with ultrasoft   |
 |   pseudopotentials and the zeroth-order regular |
 |   approximation"                                |
 |   T.F.G. Green and J.R. Yates                   |
 |   J. Chem. Phys. 140 234106 (2014)              |

 Atomic calculation performed for O: 1s2 2s2 2p4

 Converged in 44 iterations to an ae energy of -2040.855 eV

 Atomic calculation performed for O: 1s2 2s2 2p4

 Exceeded max iterations: converged to 0.000000062 eV

   | Pseudopotential Report - Date of generation 14-09-2020   |
   | Element: O Ionic charge:  6.00 Level of theory: PBE      |
   | Atomic Solver: ZORA (scalar)                             |
   |               Reference Electronic Structure             |
   |         Orbital         Occupation         Energy        |
   |            2s              2.000           -0.881        |
   |            2p              4.000           -0.332        |
   |                 Pseudopotential Definition               |
   |        Beta     l      e      Rc     scheme   norm       |
   |          1      0   -0.881   1.100     qc      0         |
   |          2      0    0.250   1.100     qc      0         |
   |          3      1   -0.332   1.100     qc      0         |
   |          4      1    0.250   1.100     qc      0         |
   |         loc     2    0.000   1.100     pn      0         |
   | Augmentation charge Rinner = 0.769                       |
   | Partial core correction Rc = 0.769                       |
   | "2|1.1|15|18|20|20:21(qc=7)"                             |
   |      Author: Chris J. Pickard, Cambridge University      |

 Atomic calculation performed for Zr: 1s2 2s2 2p6 3s2 3p6 3d10 4s2 4p6 4d2 5s2

[...]

 Atomic calculation performed for Zr: 1s2 2s2 2p6 3s2 3p6 3d10 4s2 4p6 4d2 5s2

[...]

 Warning: ion_atom_descreen_psp: negative charge density encountered
   | Pseudopotential Report - Date of generation 14-09-2020   |
   | Element: Zr Ionic charge: 12.00 Level of theory: PBE     |
   | Atomic Solver: ZORA (scalar)                             |
   |               Reference Electronic Structure             |
   |         Orbital         Occupation         Energy        |
   |            4s              2.000           -2.003        |
   |            4p              6.000           -1.193        |
   |            5s              2.000           -0.163        |
   |            4d              2.000           -0.132        |
   |                 Pseudopotential Definition               |
   |        Beta     l      e      Rc     scheme   norm       |
   |          1      0   -2.003   2.105     qc      0         |
   |          2      0   -0.163   2.105     qc      0         |
   |          3      0    0.250   2.105     qc      0         |
   |          4      1   -1.193   2.105     qc      0         |
   |          5      1    0.250   2.105     qc      0         |
   |          6      2   -0.132   2.105     qc      0         |
   |          7      2    0.250   2.105     qc      0         |
   |         loc     3    0.000   2.105     pn      0         |
   | Augmentation charge Rinner = 1.471                       |
   | Partial core correction Rc = 1.471                       |
   | "3|2.1|7|8|9|40U:50:41:42"                               |
   |      Author: Chris J. Pickard, Cambridge University      |

 Atomic calculation performed for Sn:

[...]

 Atomic calculation performed for Sn:

[...]

   | Pseudopotential Report - Date of generation 14-09-2020   |
   | Element: Sn Ionic charge: 14.00 Level of theory: PBE     |
   | Atomic Solver: ZORA (scalar)                             |
   |               Reference Electronic Structure             |
   |         Orbital         Occupation         Energy        |
   |            4d             10.000           -0.950        |
   |            5s              2.000           -0.388        |
   |            5p              2.000           -0.136        |
   |                 Pseudopotential Definition               |
   |        Beta     l      e      Rc     scheme   norm       |
   |          1      0   -0.388   2.199     qc      0         |
   |          2      0    0.250   2.199     qc      0         |
   |          3      1   -0.136   2.199     qc      0         |
   |          4      1    0.250   2.199     qc      0         |
   |          5      2   -0.950   2.199     qc      0         |
   |          6      2    0.250   2.199     qc      0         |
   |         loc     3    0.000   2.199     pn      0         |
   | Augmentation charge Rinner = 1.537                       |
   | Partial core correction Rc = 1.537                       |
   | "3|2.2|7|8|9|50:51:42"                                   |
   |      Author: Chris J. Pickard, Cambridge University      |

 Atomic calculation performed for La:

 Converged in 56 iterations to an ae energy of -230121.495 eV

 Atomic calculation performed for La:

 Exceeded max iterations: converged to 0.000000907 eV

 Warning: ion_atom_descreen_psp: negative charge density encountered
   | Pseudopotential Report - Date of generation 14-09-2020   |
   | Element: La Ionic charge: 11.00 Level of theory: PBE     |
   | Atomic Solver: ZORA (scalar)                             |
   |               Reference Electronic Structure             |
   |         Orbital         Occupation         Energy        |
   |            5s              2.000           -1.430        |
   |            5p              6.000           -0.823        |
   |            6s              2.000           -0.135        |
   |            5d              1.000           -0.114        |
   |                 Pseudopotential Definition               |
   |        Beta     l      e      Rc     scheme   norm       |
   |          1      0   -1.430   2.298     qc      0         |
   |          2      0   -0.135   2.298     qc      0         |
   |          3      0    0.250   2.298     qc      0         |
   |          4      1   -0.823   2.298     qc      0         |
   |          5      1    0.250   2.298     qc      0         |
   |          6      2   -0.114   2.298     qc      0         |
   |          7      2    0.250   2.298     qc      0         |
   |         loc     2    0.000   2.298     pn      0         |
   | Augmentation charge Rinner = 1.606                       |
   | Partial core correction Rc = 1.606                       |
   | "2|2.3|5|6|7|50U:60:51:52(qc=4.5)"                       |
   |      Author: Chris J. Pickard, Cambridge University      |

 Pseudo atomic calculation performed for O 2s2 2p4

 Converged in 39 iterations to a total energy of -432.6554 eV

 Pseudo atomic calculation performed for Zr 4s2 4p6 4d2 5s2

[...]

 Calculation parallelised over 336 processes.
 Data is distributed by G-vector(24-way) and k-point(14-way)

 ************************************ Title ************************************
 nmr testing

 ***************************** General Parameters ******************************

 output verbosity                               : normal  (1)
 write checkpoint data to                       : Zr11_29_nmr.check
 type of calculation                            : Magnetic Resonance
 stress calculation                             : on
 density difference calculation                 : off
 electron localisation func (ELF) calculation   : off
 Hirshfeld analysis                             : off
 unlimited duration calculation
 timing information                             : on
 write final potential to formatted file        : off
 write final density to formatted file          : off
 write BibTeX reference list                    : on
 write OTFG pseudopotential files               : on
 checkpoint writing                             : both castep_bin and check files

 output         length unit                     : A
 output           mass unit                     : amu
 output           time unit                     : ps
 output         charge unit                     : e
 output           spin unit                     : hbar/2
 output         energy unit                     : eV
 output          force unit                     : eV/A
 output       velocity unit                     : A/ps
 output       pressure unit                     : GPa
 output     inv_length unit                     : 1/A
 output      frequency unit                     : cm-1
 output force constant unit                     : eV/A**2
 output         volume unit                     : A**3
 output   IR intensity unit                     : (D/A)**2/amu
 output         dipole unit                     : D
 output         efield unit                     : eV/A/e
 output        entropy unit                     : J/mol/K

 wavefunctions paging                           : none
 random number generator seed                   : randomised (121808445)
 data distribution                              : optimal for this architecture
 optimization strategy                          : maximize speed(+++)

[...]
  |    O          42     -164.51     155.37      0.81   1.050E+00   0.92 |
  |    O          43     -163.36     155.50      0.81   1.076E+00   0.88 |
  |    O          44     -161.90     153.49      0.82   1.077E+00   0.80 |
  |    O          45     -163.49     156.25      0.80   1.069E+00   0.89 |
  |    O          46     -163.45     149.36      0.80   1.071E+00   0.82 |
  |    O          47     -164.75     158.42      0.83   1.065E+00   0.88 |
  |    O          48     -164.51     155.15      0.80   1.038E+00   0.92 |
  |    O          49     -161.78     152.45      0.83   1.069E+00   0.82 |
  |    O          50     -163.58     155.89      0.80   1.062E+00   0.90 |
  |    O          51     -161.90     153.49      0.82   1.077E+00   0.80 |
  |    O          52     -163.36     155.50      0.81   1.076E+00   0.88 |
  |    O          53      -88.70      92.75      0.24  -3.192E+00   0.12 |
  |    O          54      -88.88      92.89      0.26  -3.130E+00   0.12 |
  |    O          55      -84.11      85.34      0.14  -3.157E+00   0.10 |
  |    O          56      -86.52      92.16      0.23  -3.167E+00   0.12 |
  |    Zr          1     1632.29    -126.25      0.13  -3.920E+01   0.09 |
  |    Zr          2     1632.00    -127.31      0.10  -3.924E+01   0.07 |
  |    Zr          3     1627.08    -126.39      0.09  -3.833E+01   0.11 |
  |    Zr          4     1625.81    -126.97      0.18  -3.836E+01   0.03 |
[...]
  |    La          2     4706.89     765.77      0.04  -8.274E+01   0.06 |
  |    La          3     4753.38     864.70      0.03  -8.375E+01   0.04 |
  |    La          4     4752.94     870.72      0.04  -8.471E+01   0.04 |
  |    La          5     4705.50     750.19      0.04  -8.138E+01   0.08 |
  |    La          6     4753.38     864.70      0.03  -8.375E+01   0.04 |
  |    La          7     4655.58     665.08      0.00  -8.011E+01   0.01 |
  |    La          8     4662.96     656.41      0.01  -8.048E+01   0.03 |
  |    La          9     4655.58     665.08      0.00  -8.011E+01   0.01 |
  |    La         10     4605.39     532.15      0.09  -7.547E+01   0.10 |
  |    La         11     4752.94     870.72      0.04  -8.471E+01   0.04 |
  |    La         12     4708.76     780.39      0.10  -8.219E+01   0.10 |
  |    La         13     4757.20     859.79      0.04  -8.506E+01   0.06 |
  |    La         14     4706.89     765.77      0.04  -8.274E+01   0.06 |
  |    La         15     4705.50     750.19      0.04  -8.138E+01   0.08 |
  |    La         16     4755.45     870.08      0.04  -8.382E+01   0.05 |

 *********************** Forces ***********************
 *            Cartesian components (eV/A)             *
 *                   x            y            z      *
 * O         1     -0.00516     -0.00166     -0.01253 *
 * O         2     -0.00005     -0.01373     -0.00630 *
 * O         3      0.00718     -0.00632      0.00409 *
 * O         4     -0.00767     -0.01504      0.00384 *
 * O         5     -0.00408      0.00632     -0.00718 *
 * O         6      0.00630      0.01373      0.00005 *
 * O         7     -0.00383      0.01504      0.00766 *
 * O         8      0.01253      0.00166      0.00515 *
 * O         9      0.00085     -0.00605     -0.01452 *
 * O        10     -0.00400      0.01340     -0.02047 *
 * O        11      0.00381     -0.00418      0.01117 *
 * O        12     -0.00309      0.00798      0.01144 *
 * O        13      0.00267      0.01330     -0.00612 *
 * O        14     -0.00011     -0.00517      0.00266 *
 * O        15     -0.00204     -0.00446     -0.00408 *
 * O        16     -0.01913      0.00124     -0.00940 *
 * O        17     -0.00007      0.00627     -0.01021 *
 * O        18     -0.01943      0.01103      0.00942 *
 * O        19      0.00823     -0.01300      0.00849 *
 * O        20     -0.01179     -0.00973     -0.00279 *
 * O        21      0.01018      0.00213     -0.01720 *
 * O        22     -0.01102      0.00036     -0.01085 *
 * O        23      0.00462      0.00078      0.00847 *
 * O        24     -0.00654     -0.00872      0.01644 *
 * O        25     -0.00941     -0.01103      0.01942 *
 * O        26      0.01021     -0.00626      0.00007 *
 * O        27      0.00280      0.00973      0.01179 *
 * O        28     -0.00849      0.01300     -0.00823 *
 * O        29     -0.00729     -0.00317     -0.01495 *
 * O        30      0.00394      0.00105      0.01143 *
 * O        31      0.00016     -0.00582      0.01058 *
 * O        32      0.00985      0.01191     -0.00117 *
 * O        33      0.01095     -0.00129      0.00617 *
 * O        34     -0.01188     -0.01023     -0.00423 *
 * O        35     -0.00265      0.00517      0.00011 *
 * O        36      0.00940     -0.00124      0.01913 *
 * O        37     -0.01117      0.00417     -0.00381 *
 * O        38      0.01452      0.00606     -0.00084 *
 * O        39      0.01721     -0.00214     -0.01019 *
 * O        40     -0.00847     -0.00078     -0.00462 *
 * O        41      0.00117     -0.01191     -0.00985 *
 * O        42     -0.01143     -0.00105     -0.00394 *
 * O        43      0.01037     -0.00385      0.01109 *
 * O        44      0.00175      0.00331     -0.00340 *
 * O        45      0.01495      0.00317      0.00729 *
 * O        46     -0.01058      0.00582     -0.00016 *
 * O        47     -0.00617      0.00129     -0.01095 *
 * O        48      0.00424      0.01024      0.01188 *
 * O        49      0.00407      0.00446      0.00205 *
 * O        50      0.00611     -0.01330     -0.00268 *
 * O        51      0.00340     -0.00331     -0.00174 *
 * O        52     -0.01109      0.00385     -0.01037 *
 * O        53      0.02047     -0.01340      0.00401 *
 * O        54     -0.01144     -0.00798      0.00309 *
 * O        55     -0.01643      0.00872      0.00652 *
 * O        56      0.01085     -0.00037      0.01102 *
 * Zr        1      0.00515     -0.00652      0.01143 *
 * Zr        2     -0.00359      0.00379      0.00544 *
 * Zr        3     -0.00209      0.00045     -0.00646 *
 * Zr        4     -0.00811      0.00217     -0.00544 *
[...]
 * La        2      0.00578      0.00702      0.01001 *
 * La        3     -0.00088     -0.01350     -0.01242 *
 * La        4      0.00095      0.00828     -0.01435 *
 * La        5     -0.01436      0.00622     -0.00721 *
 * La        6      0.01242      0.01350      0.00088 *
 * La        7      0.00052      0.00061      0.00169 *
 * La        8     -0.00205      0.00000      0.00205 *
 * La        9     -0.00170     -0.00061     -0.00052 *
 * La       10     -0.00186     -0.00000      0.00186 *
 * La       11      0.01435     -0.00828     -0.00095 *
 * La       12     -0.00642     -0.00000      0.00641 *
 * La       13     -0.01258      0.01064      0.00426 *
 * La       14     -0.01002     -0.00703     -0.00578 *
 * La       15      0.00721     -0.00622      0.01436 *
 * La       16      0.01068      0.00000     -0.01068 *

 ***************** Stress Tensor *****************
 *          Cartesian components (GPa)           *
 *             x             y             z     *
 *  x      0.032147      0.011583      0.062929  *
 *  y      0.011583     -0.022186      0.011608  *
 *  z      0.062929      0.011608      0.032147  *
 *  Pressure:   -0.0140                          *

[...]

 Pseudo atomic calculation performed for Sn 4d10 5s2 5p2

[...]

 Pseudo atomic calculation performed for La 5s2 5p6 5d1 6s2

 Converged in 34 iterations to a total energy of -968.0372 eV

Charge spilling parameter for spin component 1 = 0.23%

     Atomic Populations (Mulliken)
Species   Ion     s      p      d      f     Total  Charge (e)
  O        1     1.87   5.00   0.00   0.00   6.87    -0.87
  O        2     1.87   5.00   0.00   0.00   6.87    -0.87
  O        3     1.87   5.00   0.00   0.00   6.87    -0.87
  O        4     1.87   5.00   0.00   0.00   6.87    -0.87
  O        5     1.87   5.00   0.00   0.00   6.87    -0.87
  O        6     1.87   5.00   0.00   0.00   6.87    -0.87
  O        7     1.87   5.00   0.00   0.00   6.87    -0.87
  O        8     1.87   5.00   0.00   0.00   6.87    -0.87
  O        9     1.87   4.99   0.00   0.00   6.85    -0.85
  O       10     1.87   4.99   0.00   0.00   6.85    -0.85
  O       11     1.87   4.99   0.00   0.00   6.85    -0.85
  O       12     1.87   4.98   0.00   0.00   6.85    -0.85
  O       13     1.86   4.94   0.00   0.00   6.80    -0.80
  O       14     1.86   4.94   0.00   0.00   6.80    -0.80
  O       15     1.86   4.94   0.00   0.00   6.80    -0.80
  O       16     1.87   4.99   0.00   0.00   6.85    -0.85
  O       17     1.88   5.02   0.00   0.00   6.91    -0.91
  O       18     1.87   4.98   0.00   0.00   6.85    -0.85
  O       19     1.87   4.99   0.00   0.00   6.85    -0.85
  O       20     1.87   4.99   0.00   0.00   6.85    -0.85
  O       21     1.87   4.99   0.00   0.00   6.85    -0.85
  O       22     1.87   4.99   0.00   0.00   6.85    -0.85
  O       23     1.87   4.98   0.00   0.00   6.85    -0.85
  O       24     1.87   4.99   0.00   0.00   6.85    -0.85
  O       25     1.87   4.98   0.00   0.00   6.85    -0.85
  O       26     1.88   5.02   0.00   0.00   6.91    -0.91
  O       27     1.87   4.99   0.00   0.00   6.85    -0.85
  O       28     1.87   4.99   0.00   0.00   6.85    -0.85
  O       29     1.86   4.94   0.00   0.00   6.80    -0.80
  O       30     1.86   4.94   0.00   0.00   6.80    -0.80
  O       31     1.86   4.94   0.00   0.00   6.80    -0.80
  O       32     1.87   4.99   0.00   0.00   6.85    -0.85
  O       33     1.86   4.94   0.00   0.00   6.80    -0.80
  O       34     1.86   4.94   0.00   0.00   6.80    -0.80
  O       35     1.86   4.94   0.00   0.00   6.80    -0.80
  O       36     1.87   4.99   0.00   0.00   6.85    -0.85
  O       37     1.87   4.99   0.00   0.00   6.85    -0.85
  O       38     1.87   4.99   0.00   0.00   6.85    -0.85
  O       39     1.87   4.99   0.00   0.00   6.85    -0.85
  O       40     1.87   4.98   0.00   0.00   6.85    -0.85
  O       41     1.87   4.99   0.00   0.00   6.85    -0.85
  O       42     1.86   4.94   0.00   0.00   6.80    -0.80
  O       43     1.86   4.94   0.00   0.00   6.80    -0.80
  O       44     1.86   4.94   0.00   0.00   6.80    -0.80
  O       45     1.86   4.94   0.00   0.00   6.80    -0.80
  O       46     1.86   4.94   0.00   0.00   6.80    -0.80
  O       47     1.86   4.94   0.00   0.00   6.80    -0.80
  O       48     1.86   4.94   0.00   0.00   6.80    -0.80
  O       49     1.86   4.94   0.00   0.00   6.80    -0.80
  O       50     1.86   4.94   0.00   0.00   6.80    -0.80
  O       51     1.86   4.94   0.00   0.00   6.80    -0.80
  O       52     1.86   4.94   0.00   0.00   6.80    -0.80
  O       53     1.87   4.99   0.00   0.00   6.85    -0.85
  O       54     1.87   4.98   0.00   0.00   6.85    -0.85
  O       55     1.87   4.99   0.00   0.00   6.85    -0.85
  O       56     1.87   4.99   0.00   0.00   6.85    -0.85
  Zr       1     2.38   6.48   1.93   0.00  10.79     1.21
  Zr       2     2.37   6.48   1.93   0.00  10.78     1.22
  Zr       3     2.38   6.49   1.92   0.00  10.79     1.21
  Zr       4     2.38   6.49   1.92   0.00  10.79     1.21
[...]
  La       2     2.06   6.16   1.19   0.00   9.42     1.58
  La       3     2.05   6.15   1.19   0.00   9.39     1.61
  La       4     2.05   6.15   1.19   0.00   9.39     1.61
  La       5     2.07   6.17   1.19   0.00   9.43     1.57
  La       6     2.05   6.15   1.19   0.00   9.39     1.61
  La       7     2.06   6.18   1.19   0.00   9.43     1.57
  La       8     2.06   6.18   1.19   0.00   9.43     1.57
  La       9     2.06   6.18   1.19   0.00   9.43     1.57
  La      10     2.09   6.20   1.19   0.00   9.48     1.52
  La      11     2.05   6.15   1.19   0.00   9.39     1.61
  La      12     2.06   6.16   1.19   0.00   9.42     1.58
  La      13     2.04   6.15   1.19   0.00   9.39     1.61
  La      14     2.06   6.16   1.19   0.00   9.42     1.58
  La      15     2.07   6.17   1.19   0.00   9.43     1.57
  La      16     2.03   6.15   1.19   0.00   9.37     1.63

            Bond              Population      Length (A)
         O 21 -- Sn 1              0.35        2.10272
         O 39 -- Sn 3              0.35        2.10272
         O 53 -- Sn 1              0.35        2.10366
         O 10 -- Sn 3              0.35        2.10366
         O 20 -- Sn 2              0.34        2.10411
         O 27 -- Sn 2              0.34        2.10411
         O 38 -- Sn 2              0.34        2.10416
         O 9  -- Sn 2              0.34        2.10416
         O 28 -- Sn 4              0.34        2.10488
         O 19 -- Sn 4              0.34        2.10488
         O 16 -- Sn 5              0.35        2.10511
         O 36 -- Sn 5              0.35        2.10511
         O 56 -- Sn 4              0.34        2.10519
         O 22 -- Sn 4              0.34        2.10519
         O 32 -- Sn 5              0.34        2.10642
         O 41 -- Sn 5              0.34        2.10642
         O 11 -- Sn 4              0.34        2.10652
         O 55 -- Sn 1              0.35        2.10652
         O 24 -- Sn 3              0.35        2.10652
         O 37 -- Sn 4              0.34        2.10652
         O 40 -- Sn 2              0.34        2.10761
         O 23 -- Sn 2              0.34        2.10761
         O 25 -- Sn 3              0.35        2.10825
         O 18 -- Sn 1              0.35        2.10825
         O 54 -- Sn 3              0.34        2.10917
         O 12 -- Sn 1              0.34        2.10917
         O 17 -- Sn 5              0.34        2.11268
         O 26 -- Sn 5              0.34        2.11268
         O 17 -- Sn 3              0.33        2.11345
         O 26 -- Sn 1              0.33        2.11345
         O 33 -- Zr 3              0.42        2.11487
         O 47 -- Zr 6              0.42        2.11487
         O 35 -- Zr 11             0.43        2.11497
         O 14 -- Zr 5              0.43        2.11497
         O 29 -- Zr 9              0.43        2.11589
         O 45 -- Zr 1              0.43        2.11589
         O 42 -- Zr 2              0.43        2.11631
         O 30 -- Zr 10             0.43        2.11631
         O 13 -- Zr 8              0.43        2.11677
         O 50 -- Zr 8              0.43        2.11677
         O 43 -- Zr 9              0.42        2.11703
         O 52 -- Zr 1              0.42        2.11703
         O 33 -- Zr 7              0.42        2.11729
         O 47 -- Zr 4              0.42        2.11729
         O 49 -- Zr 4              0.43        2.11840
         O 15 -- Zr 7              0.43        2.11840
         O 28 -- Zr 5              0.45        2.11855
         O 19 -- Zr 11             0.45        2.11855
         O 43 -- Zr 2              0.43        2.11856
         O 52 -- Zr 10             0.43        2.11856
         O 51 -- Zr 6              0.43        2.11863
         O 44 -- Zr 3              0.43        2.11863
         O 38 -- Zr 2              0.45        2.11884
         O 9  -- Zr 10             0.45        2.11884
         O 27 -- Zr 11             0.45        2.11896
         O 20 -- Zr 5              0.45        2.11896
         O 14 -- Zr 10             0.43        2.11909
         O 35 -- Zr 2              0.43        2.11909
         O 46 -- Zr 3              0.43        2.11918
         O 31 -- Zr 6              0.43        2.11918
[...]
         O 38 -- O 55             -0.03        2.82298
         O 9  -- O 24             -0.03        2.82298
         O 12 -- O 29             -0.03        2.82348
         O 45 -- O 54             -0.03        2.82348
         O 11 -- O 21             -0.03        2.82476
         O 37 -- O 39             -0.03        2.82476
         O 36 -- O 44             -0.03        2.82685
         O 16 -- O 51             -0.03        2.82685
         O 12 -- O 22             -0.03        2.82703
         O 54 -- O 56             -0.03        2.82703
         O 11 -- O 32             -0.03        2.82757
         O 37 -- O 41             -0.03        2.82757
         O 51 -- O 55             -0.03        2.83340
         O 24 -- O 44             -0.03        2.83340
         O 18 -- O 25             -0.03        2.83643

Writing analysis data to Zr11_29_nmr.castep_bin

Writing model to Zr11_29_nmr.check

 A BibTeX formatted list of references used in this run has been written to
 Zr11_29_nmr.bib

Initialisation time =     34.65 s
Calculation time    =   4295.59 s
Finalisation time   =      9.50 s
Total time          =   4339.74 s

Overall parallel efficiency rating: Good (70%)

Data was distributed by:-
G-vector (24-way); efficiency rating: Good (73%)
k-point (14-way); efficiency rating: Excellent (95%)