 Compiled for linux_x86_64_ifort16 on Sat, 23 Jul 2016 23:44:54 +0100
 from code version
 203e84763863+ Castep161_branch Fri, 04 Mar 2016 19:21:07 +0000
 Compiler: Intel Fortran 16.0.3.210; Optimisation: fast
 MATHLIBS: Intel MKL(11.3.3) (LAPACK version 3.6.0)
 FFT Lib : mkl
 Fundamental constants values: CODATA 2010

 Run started: Tue, 24 Apr 2018 21:34:06 +0100
 |           N   N    M   M    RRRR                |
 |           NN  N    MM MM    R   R               |
 |           N N N    M M M    RRRR                |
 |           N  NN    M   M    R  R                |
 |           N   N    M   M    R   R               |
 | Welcome to Materials Studio CASTEP-NMR          |
 | Authors:                                        |
 | J.R. Yates, C.J. Pickard, F. Mauri              |
 | Contributors:                                   |
 | T.F.G. Green, S.A. Joyce                        |
 | Copyright (c) 2004 - 2015                       |
 | Please cite the appropriate publications in all |
 | work arising from your use of CASTEP NMR.       |
 | For NMR Shielding Tensors cite:                 |
 |    "All-electron magnetic response with         |
 |    pseudopotentials: NMR chemical shifts",      |
 |    C. J. Pickard, F. Mauri;                     |
 |    Physical Review B63 245101 (2001), and       |
 |    "Calculation of NMR Chemical Shifts          |
 |    for extended systems using                   |
 |    Ultrasoft Pseudopotentials",                 |
 |    J. R. Yates, C. J. Pickard and F. Mauri      |
 |    Physical Review B76 024401 (2007)            |
 | For Electric Field Gradients cite:              |
 |   "Accurate First Principles Prediction of 17O  |
 |    NMR Parameters in SiO2: Assignment of the    |
 |    Zeolite Ferrierite Spectrum"                 |
 |    M. Profeta, F. Mauri and C. J. Pickard       |
 |    J. Amer. Chem. Soc. 125 541 (2003)           |
 | For Spin-Spin (J) Couplings cite:               |
 |   "A first principles theory of NMR J-coupling  |
 |   in solid-state systems"                       |
 |   S.A. Joyce, J.R. Yates, C.J. Pickard, F. Mauri|
 |   J. Chem. Phys. 127 204107 (2007)              |
 |   "Relativistic NMR J-coupling with ultrasoft   |
 |   pseudopotentials and the zeroth-order regular |
 |   approximation"                                |
 |   T.F.G. Green and J.R. Yates                   |
 |   J. Chem. Phys. 140 234106 (2014)              |

 Atomic calculation performed for O: 1s2 2s2 2p4

 Converged in 44 iterations to an ae energy of -2040.855 eV

 Atomic calculation performed for O: 1s2 2s2 2p4

 Exceeded max iterations: converged to 0.000000062 eV

   | Pseudopotential Report - Date of generation 24-04-2018   |
   | Element: O Ionic charge:  6.00 Level of theory: PBE      |
   | Atomic Solver: ZORA (scalar)                             |
   |               Reference Electronic Structure             |
   |         Orbital         Occupation         Energy        |
   |            2s              2.000           -0.881        |
   |            2p              4.000           -0.332        |
   |                 Pseudopotential Definition               |
   |        Beta     l      e      Rc     scheme   norm       |
   |          1      0   -0.881   1.100     qc      0         |
   |          2      0    0.250   1.100     qc      0         |
   |          3      1   -0.332   1.100     qc      0         |
   |          4      1    0.250   1.100     qc      0         |
   |         loc     2    0.000   1.100     pn      0         |
   | Augmentation charge Rinner = 0.769                       |
   | Partial core correction Rc = 0.769                       |
   | "2|1.1|15|18|20|20:21(qc=7)"                             |
   |      Author: Chris J. Pickard, Cambridge University      |

 Atomic calculation performed for Zr: 1s2 2s2 2p6 3s2 3p6 3d10 4s2 4p6 4d2 5s2

[...]

 Atomic calculation performed for Zr: 1s2 2s2 2p6 3s2 3p6 3d10 4s2 4p6 4d2 5s2

[...]

 Warning: ion_atom_descreen_psp: negative charge density encountered
   | Pseudopotential Report - Date of generation 24-04-2018   |
   | Element: Zr Ionic charge: 12.00 Level of theory: PBE     |
   | Atomic Solver: ZORA (scalar)                             |
   |               Reference Electronic Structure             |
   |         Orbital         Occupation         Energy        |
   |            4s              2.000           -2.003        |
   |            4p              6.000           -1.193        |
   |            5s              2.000           -0.163        |
   |            4d              2.000           -0.132        |
   |                 Pseudopotential Definition               |
   |        Beta     l      e      Rc     scheme   norm       |
   |          1      0   -2.003   2.105     qc      0         |
   |          2      0   -0.163   2.105     qc      0         |
   |          3      0    0.250   2.105     qc      0         |
   |          4      1   -1.193   2.105     qc      0         |
   |          5      1    0.250   2.105     qc      0         |
   |          6      2   -0.132   2.105     qc      0         |
   |          7      2    0.250   2.105     qc      0         |
   |         loc     3    0.000   2.105     pn      0         |
   | Augmentation charge Rinner = 1.471                       |
   | Partial core correction Rc = 1.471                       |
   | "3|2.1|7|8|9|40U:50:41:42"                               |
   |      Author: Chris J. Pickard, Cambridge University      |

 Atomic calculation performed for Sn:

[...]

 Atomic calculation performed for Sn:

[...]

   | Pseudopotential Report - Date of generation 24-04-2018   |
   | Element: Sn Ionic charge: 14.00 Level of theory: PBE     |
   | Atomic Solver: ZORA (scalar)                             |
   |               Reference Electronic Structure             |
   |         Orbital         Occupation         Energy        |
   |            4d             10.000           -0.950        |
   |            5s              2.000           -0.388        |
   |            5p              2.000           -0.136        |
   |                 Pseudopotential Definition               |
   |        Beta     l      e      Rc     scheme   norm       |
   |          1      0   -0.388   2.199     qc      0         |
   |          2      0    0.250   2.199     qc      0         |
   |          3      1   -0.136   2.199     qc      0         |
   |          4      1    0.250   2.199     qc      0         |
   |          5      2   -0.950   2.199     qc      0         |
   |          6      2    0.250   2.199     qc      0         |
   |         loc     3    0.000   2.199     pn      0         |
   | Augmentation charge Rinner = 1.537                       |
   | Partial core correction Rc = 1.537                       |
   | "3|2.2|7|8|9|50:51:42"                                   |
   |      Author: Chris J. Pickard, Cambridge University      |

 Atomic calculation performed for La:

 Converged in 56 iterations to an ae energy of -230121.495 eV

 Atomic calculation performed for La:

 Exceeded max iterations: converged to 0.000000907 eV

 Warning: ion_atom_descreen_psp: negative charge density encountered
   | Pseudopotential Report - Date of generation 24-04-2018   |
   | Element: La Ionic charge: 11.00 Level of theory: PBE     |
   | Atomic Solver: ZORA (scalar)                             |
   |               Reference Electronic Structure             |
   |         Orbital         Occupation         Energy        |
   |            5s              2.000           -1.430        |
   |            5p              6.000           -0.823        |
   |            6s              2.000           -0.135        |
   |            5d              1.000           -0.114        |
   |                 Pseudopotential Definition               |
   |        Beta     l      e      Rc     scheme   norm       |
   |          1      0   -1.430   2.298     qc      0         |
   |          2      0   -0.135   2.298     qc      0         |
   |          3      0    0.250   2.298     qc      0         |
   |          4      1   -0.823   2.298     qc      0         |
   |          5      1    0.250   2.298     qc      0         |
   |          6      2   -0.114   2.298     qc      0         |
   |          7      2    0.250   2.298     qc      0         |
   |         loc     2    0.000   2.298     pn      0         |
   | Augmentation charge Rinner = 1.606                       |
   | Partial core correction Rc = 1.606                       |
   | "2|2.3|5|6|7|50U:60:51:52(qc=4.5)"                       |
   |      Author: Chris J. Pickard, Cambridge University      |

 Pseudo atomic calculation performed for O 2s2 2p4

 Converged in 39 iterations to a total energy of -432.6554 eV

 Pseudo atomic calculation performed for Zr 4s2 4p6 4d2 5s2

[...]

 Calculation parallelised over 56 processes.
 Data is distributed by G-vector(4-way) and k-point(14-way)

 ************************************ Title ************************************
 nmr testing

 ***************************** General Parameters ******************************

 output verbosity                               : normal  (1)
 write checkpoint data to                       : 022.check
 type of calculation                            : Magnetic Resonance
 stress calculation                             : on
 density difference calculation                 : off
 electron localisation func (ELF) calculation   : off
 Hirshfeld analysis                             : off
 unlimited duration calculation
 timing information                             : on
 write final potential to formatted file        : off
 write final density to formatted file          : off
 write structure in CIF formatted file          : on
 write structure in CELL formatted file         : on
 write BibTeX reference list                    : on
 write OTFG pseudopotential files               : on
 checkpoint writing                             : both castep_bin and check files

 output         length unit                     : A
 output           mass unit                     : amu
 output           time unit                     : ps
 output         charge unit                     : e
 output           spin unit                     : hbar/2
 output         energy unit                     : eV
 output          force unit                     : eV/A
 output       velocity unit                     : A/ps
 output       pressure unit                     : GPa
 output     inv_length unit                     : 1/A
 output      frequency unit                     : cm-1
 output force constant unit                     : eV/A**2
 output         volume unit                     : A**3
 output   IR intensity unit                     : (D/A)**2/amu
 output         dipole unit                     : D
 output         efield unit                     : eV/A/e
 output        entropy unit                     : J/mol/K

 wavefunctions paging                           : none
 random number generator seed                   : randomised (213408427)
 data distribution                              : optimal for this architecture
[...]
  |    O          42      -89.73      84.68      0.03  -3.219E+00   0.08 |
  |    O          43      -89.30      91.51      0.28  -3.168E+00   0.09 |
  |    O          44      -89.61      95.07      0.33  -3.107E+00   0.08 |
  |    O          45      -85.83      86.55      0.11  -3.236E+00   0.08 |
  |    O          46     -160.97     143.70      0.83   1.044E+00   0.73 |
  |    O          47      -90.25      98.32      0.23  -3.188E+00   0.11 |
  |    O          48      -87.49      83.22      0.18  -3.125E+00   0.09 |
  |    O          49     -162.48     149.92      0.80   1.069E+00   0.79 |
  |    O          50      -85.30      85.01      0.21  -3.139E+00   0.09 |
  |    O          51      -87.55      84.26      0.24  -3.172E+00   0.06 |
  |    O          52      -88.08      94.28      0.18  -3.231E+00   0.09 |
  |    O          53      -90.40      76.44      0.22  -3.265E+00   0.10 |
  |    O          54     -163.24     153.68      0.86   1.018E+00   0.81 |
  |    O          55      -90.38      84.96      0.31  -3.197E+00   0.09 |
  |    O          56     -164.51     156.37      0.84   1.019E+00   0.89 |
  |    Zr          1     1623.20    -125.52      0.18  -3.664E+01   0.03 |
  |    Zr          2     1607.81    -118.22      0.09  -3.564E+01   0.11 |
  |    Zr          3     1613.90    -118.36      0.07  -3.661E+01   0.06 |
  |    Zr          4     1627.89    -125.59      0.13  -3.769E+01   0.13 |
[...]
  |    La          2     4699.42     769.76      0.03  -8.365E+01   0.06 |
  |    La          3     4703.78     766.49      0.02  -8.535E+01   0.02 |
  |    La          4     4707.88     755.60      0.03  -8.655E+01   0.09 |
  |    La          5     4553.46     377.58      0.06  -7.235E+01   0.10 |
  |    La          6     4606.95     528.50      0.08  -7.747E+01   0.10 |
  |    La          7     4750.76     869.06      0.04  -8.700E+01   0.05 |
  |    La          8     4656.12     615.32      0.00  -8.025E+01   0.03 |
  |    La          9     4652.35     658.16      0.09  -8.010E+01   0.13 |
  |    La         10     4659.30     658.60      0.08  -8.181E+01   0.11 |
  |    La         11     4598.44     531.21      0.07  -7.592E+01   0.09 |
  |    La         12     4653.05     626.95      0.02  -7.874E+01   0.01 |
  |    La         13     4604.55     520.58      0.07  -7.712E+01   0.07 |
  |    La         14     4612.89     518.15      0.06  -7.868E+01   0.09 |
  |    La         15     4660.51     655.25      0.08  -8.199E+01   0.14 |
  |    La         16     4654.27     661.04      0.09  -8.044E+01   0.11 |

 *********************** Forces ***********************
 *            Cartesian components (eV/A)             *
 *                   x            y            z      *
 * O         1      0.00008     -0.00108     -0.00466 *
 * O         2      0.00511      0.01061      0.00158 *
 * O         3      0.00632     -0.00677     -0.00427 *
 * O         4      0.00070      0.00389     -0.00657 *
 * O         5     -0.00514     -0.00310      0.01279 *
 * O         6     -0.00522      0.00983      0.00363 *
 * O         7      0.00649      0.00137     -0.00412 *
 * O         8     -0.00291      0.00167     -0.00219 *
 * O         9      0.00080      0.01410      0.01475 *
 * O        10     -0.00012     -0.01060      0.01830 *
 * O        11     -0.00174      0.01583     -0.01758 *
 * O        12      0.00446      0.01117      0.01250 *
 * O        13      0.00767      0.00325      0.00620 *
 * O        14     -0.02189      0.00528      0.02379 *
 * O        15     -0.00035     -0.00420      0.00585 *
 * O        16      0.00012      0.01217     -0.00180 *
 * O        17     -0.02252     -0.01809      0.00016 *
 * O        18     -0.01208      0.00511     -0.00702 *
 * O        19     -0.01507      0.01176     -0.00984 *
 * O        20     -0.00925      0.00302      0.00514 *
 * O        21      0.01383      0.00429     -0.01057 *
 * O        22      0.00974     -0.00086      0.01249 *
 * O        23     -0.00615     -0.00377     -0.01464 *
 * O        24      0.01321      0.00980     -0.01554 *
 * O        25     -0.00159      0.01604     -0.02554 *
 * O        26     -0.00725     -0.00568     -0.00430 *
 * O        27     -0.00523     -0.01805     -0.01730 *
 * O        28     -0.00189      0.00613     -0.01824 *
 * O        29      0.02165      0.03027      0.00562 *
 * O        30     -0.00286      0.00253      0.00187 *
 * O        31      0.00511     -0.00166      0.00874 *
 * O        32      0.00034      0.00844     -0.00676 *
 * O        33      0.00885     -0.01646      0.01882 *
 * O        34     -0.00027      0.00681      0.00540 *
 * O        35      0.01106      0.00268     -0.01704 *
 * O        36      0.01299     -0.00647      0.03055 *
 * O        37     -0.00589     -0.01400      0.00936 *
 * O        38     -0.00121     -0.00682     -0.00973 *
 * O        39     -0.00373     -0.01546      0.00394 *
 * O        40      0.00735      0.00906      0.01014 *
 * O        41      0.00065     -0.01325     -0.01934 *
 * O        42     -0.00686     -0.02167      0.01502 *
 * O        43     -0.00212     -0.01757      0.00922 *
 * O        44     -0.00237      0.01620      0.00372 *
 * O        45      0.00516      0.00583      0.01780 *
 * O        46     -0.00892     -0.00933      0.00574 *
 * O        47      0.00718     -0.01184     -0.01073 *
 * O        48      0.00233      0.01389      0.00158 *
 * O        49      0.00676      0.01423     -0.01301 *
 * O        50     -0.00583     -0.00373     -0.02228 *
 * O        51      0.00021      0.02025     -0.00729 *
 * O        52     -0.00882     -0.01509     -0.00435 *
 * O        53      0.02286     -0.01591      0.01335 *
 * O        54      0.00849     -0.00005     -0.00971 *
 * O        55     -0.02855     -0.00606      0.01223 *
 * O        56     -0.00737      0.01087     -0.00485 *
 * Zr        1     -0.01271      0.03353     -0.02914 *
 * Zr        2      0.00493      0.01092     -0.00888 *
 * Zr        3     -0.00110      0.01203     -0.01760 *
 * Zr        4      0.01070      0.00489      0.01109 *
[...]
 * La        2      0.00066     -0.01540     -0.01650 *
 * La        3     -0.01392      0.01571      0.01586 *
 * La        4      0.00428     -0.00716      0.01584 *
 * La        5     -0.00142      0.00544      0.00625 *
 * La        6      0.00572     -0.00607     -0.01090 *
 * La        7     -0.02050     -0.03281      0.00983 *
 * La        8     -0.00245      0.02185     -0.00901 *
 * La        9      0.00831     -0.01263     -0.00961 *
 * La       10      0.00077      0.00903      0.01114 *
 * La       11      0.00097      0.00437      0.00547 *
 * La       12     -0.00673     -0.02182     -0.01243 *
 * La       13     -0.00440     -0.00526      0.00113 *
 * La       14     -0.00584     -0.00818     -0.00548 *
 * La       15      0.00592      0.01461     -0.01184 *
 * La       16     -0.00711     -0.00096      0.01675 *

 ***************** Stress Tensor *****************
 *          Cartesian components (GPa)           *
 *             x             y             z     *
 *  x      0.030115      0.026764     -0.001697  *
 *  y      0.026764      0.031421     -0.025431  *
 *  z     -0.001697     -0.025431      0.022951  *
 *  Pressure:   -0.0282                          *

[...]

 Pseudo atomic calculation performed for Sn 4d10 5s2 5p2

[...]

 Pseudo atomic calculation performed for La 5s2 5p6 5d1 6s2

 Converged in 34 iterations to a total energy of -968.0372 eV

Charge spilling parameter for spin component 1 = 0.24%

     Atomic Populations (Mulliken)
Species   Ion     s      p      d      f     Total  Charge (e)
  O        1     1.87   5.00   0.00   0.00   6.87    -0.87
  O        2     1.87   5.00   0.00   0.00   6.87    -0.87
  O        3     1.87   5.00   0.00   0.00   6.87    -0.87
  O        4     1.87   5.00   0.00   0.00   6.87    -0.87
  O        5     1.87   5.00   0.00   0.00   6.87    -0.87
  O        6     1.87   5.00   0.00   0.00   6.87    -0.87
  O        7     1.87   5.00   0.00   0.00   6.87    -0.87
  O        8     1.87   5.00   0.00   0.00   6.87    -0.87
  O        9     1.87   4.99   0.00   0.00   6.85    -0.85
  O       10     1.87   4.99   0.00   0.00   6.86    -0.86
  O       11     1.87   4.99   0.00   0.00   6.86    -0.86
  O       12     1.88   5.02   0.00   0.00   6.91    -0.91
  O       13     1.88   5.03   0.00   0.00   6.91    -0.91
  O       14     1.87   4.99   0.00   0.00   6.85    -0.85
  O       15     1.88   5.02   0.00   0.00   6.91    -0.91
  O       16     1.88   5.02   0.00   0.00   6.91    -0.91
  O       17     1.87   4.99   0.00   0.00   6.86    -0.86
  O       18     1.88   5.02   0.00   0.00   6.91    -0.91
  O       19     1.87   4.99   0.00   0.00   6.86    -0.86
  O       20     1.86   4.95   0.00   0.00   6.80    -0.80
  O       21     1.88   5.02   0.00   0.00   6.91    -0.91
  O       22     1.87   4.99   0.00   0.00   6.86    -0.86
  O       23     1.87   4.99   0.00   0.00   6.86    -0.86
  O       24     1.87   4.99   0.00   0.00   6.86    -0.86
  O       25     1.87   4.99   0.00   0.00   6.86    -0.86
  O       26     1.88   5.02   0.00   0.00   6.91    -0.91
  O       27     1.87   4.99   0.00   0.00   6.86    -0.86
  O       28     1.86   4.95   0.00   0.00   6.80    -0.80
  O       29     1.87   4.99   0.00   0.00   6.85    -0.85
  O       30     1.88   5.02   0.00   0.00   6.91    -0.91
  O       31     1.88   5.02   0.00   0.00   6.91    -0.91
  O       32     1.88   5.02   0.00   0.00   6.91    -0.91
  O       33     1.87   4.99   0.00   0.00   6.86    -0.86
  O       34     1.87   4.99   0.00   0.00   6.85    -0.85
  O       35     1.87   4.99   0.00   0.00   6.86    -0.86
  O       36     1.87   4.99   0.00   0.00   6.86    -0.86
  O       37     1.86   4.95   0.00   0.00   6.80    -0.80
  O       38     1.86   4.95   0.00   0.00   6.80    -0.80
  O       39     1.86   4.95   0.00   0.00   6.80    -0.80
  O       40     1.86   4.95   0.00   0.00   6.80    -0.80
  O       41     1.87   4.99   0.00   0.00   6.86    -0.86
  O       42     1.87   4.99   0.00   0.00   6.86    -0.86
  O       43     1.87   4.99   0.00   0.00   6.86    -0.86
  O       44     1.87   4.99   0.00   0.00   6.85    -0.85
  O       45     1.87   4.99   0.00   0.00   6.86    -0.86
  O       46     1.86   4.95   0.00   0.00   6.80    -0.80
  O       47     1.87   4.99   0.00   0.00   6.86    -0.86
  O       48     1.87   4.99   0.00   0.00   6.86    -0.86
  O       49     1.86   4.95   0.00   0.00   6.80    -0.80
  O       50     1.87   4.99   0.00   0.00   6.86    -0.86
  O       51     1.87   4.99   0.00   0.00   6.86    -0.86
  O       52     1.87   4.99   0.00   0.00   6.86    -0.86
  O       53     1.87   4.99   0.00   0.00   6.86    -0.86
  O       54     1.86   4.95   0.00   0.00   6.80    -0.80
  O       55     1.87   4.99   0.00   0.00   6.86    -0.86
  O       56     1.86   4.95   0.00   0.00   6.80    -0.80
  Zr       1     2.37   6.49   1.92   0.00  10.79     1.21
  Zr       2     2.37   6.50   1.92   0.00  10.79     1.21
  Zr       3     2.37   6.49   1.92   0.00  10.79     1.21
  Zr       4     2.37   6.48   1.92   0.00  10.78     1.22
[...]
  La       2     2.05   6.16   1.20   0.00   9.40     1.60
  La       3     2.05   6.16   1.19   0.00   9.41     1.59
  La       4     2.04   6.16   1.19   0.00   9.40     1.60
  La       5     2.12   6.20   1.19   0.00   9.51     1.49
  La       6     2.07   6.19   1.19   0.00   9.45     1.55
  La       7     2.01   6.15   1.20   0.00   9.35     1.65
  La       8     2.07   6.18   1.19   0.00   9.44     1.56
  La       9     2.08   6.17   1.19   0.00   9.44     1.56
  La      10     2.07   6.17   1.19   0.00   9.44     1.56
  La      11     2.08   6.18   1.19   0.00   9.46     1.54
  La      12     2.06   6.17   1.19   0.00   9.43     1.57
  La      13     2.07   6.19   1.19   0.00   9.45     1.55
  La      14     2.07   6.19   1.19   0.00   9.45     1.55
  La      15     2.05   6.18   1.19   0.00   9.42     1.58
  La      16     2.05   6.17   1.19   0.00   9.42     1.58

            Bond              Population      Length (A)
         O 27 -- Sn 7              0.35        2.09979
         O 43 -- Sn 5              0.35        2.10177
         O 33 -- Sn 3              0.35        2.10186
         O 24 -- Sn 6              0.35        2.10197
         O 52 -- Sn 6              0.35        2.10206
         O 45 -- Sn 7              0.35        2.10316
         O 47 -- Sn 1              0.34        2.10335
         O 36 -- Sn 8              0.34        2.10394
         O 53 -- Sn 2              0.34        2.10394
         O 19 -- Sn 7              0.34        2.10457
         O 41 -- Sn 8              0.34        2.10470
         O 23 -- Sn 1              0.34        2.10539
         O 10 -- Sn 1              0.35        2.10549
         O 9  -- Sn 6              0.35        2.10562
         O 14 -- Sn 6              0.34        2.10579
         O 11 -- Sn 3              0.35        2.10612
         O 42 -- Sn 4              0.35        2.10616
         O 13 -- Sn 4              0.34        2.10671
         O 13 -- Sn 5              0.34        2.10713
         O 50 -- Sn 4              0.34        2.10761
         O 12 -- Sn 5              0.34        2.10855
         O 51 -- Sn 1              0.35        2.10863
         O 48 -- Sn 3              0.34        2.10931
         O 55 -- Sn 2              0.34        2.10938
         O 29 -- Sn 5              0.35        2.10944
         O 25 -- Sn 4              0.35        2.11049
         O 17 -- Sn 8              0.34        2.11062
         O 32 -- Sn 3              0.34        2.11084
         O 34 -- Sn 5              0.34        2.11107
         O 26 -- Sn 8              0.34        2.11110
         O 22 -- Sn 5              0.34        2.11117
         O 35 -- Sn 7              0.34        2.11185
         O 32 -- Sn 8              0.34        2.11191
         O 12 -- Sn 2              0.33        2.11206
         O 18 -- Sn 2              0.34        2.11212
         O 44 -- Sn 6              0.33        2.11224
         O 36 -- Zr 3              0.44        2.11229
         O 30 -- Sn 6              0.33        2.11248
         O 31 -- Sn 1              0.34        2.11254
         O 28 -- Zr 5              0.42        2.11315
         O 39 -- Zr 7              0.42        2.11351
         O 18 -- Sn 4              0.33        2.11394
         O 49 -- Zr 4              0.42        2.11408
         O 21 -- Sn 2              0.34        2.11414
         O 30 -- Sn 4              0.33        2.11428
         O 31 -- Sn 7              0.33        2.11442
         O 56 -- Zr 1              0.42        2.11472
         O 21 -- Sn 3              0.33        2.11490
         O 47 -- Zr 4              0.45        2.11497
         O 20 -- Zr 6              0.42        2.11514
         O 26 -- Sn 2              0.33        2.11517
         O 19 -- Zr 8              0.45        2.11543
         O 56 -- Zr 8              0.42        2.11649
         O 23 -- Zr 6              0.44        2.11661
         O 52 -- Zr 1              0.45        2.11667
         O 38 -- Zr 2              0.42        2.11670
         O 14 -- Zr 5              0.45        2.11690
         O 16 -- Sn 8              0.34        2.11746
         O 16 -- Sn 1              0.33        2.11760
         O 15 -- Sn 7              0.33        2.11762
[...]
         O 9  -- O 38             -0.03        2.82724
         O 17 -- O 24             -0.03        2.82726
         O 46 -- O 53             -0.03        2.82745
         O 45 -- O 54             -0.03        2.82769
         O 35 -- O 43             -0.03        2.82783
         O 38 -- O 42             -0.03        2.82786
         O 36 -- O 44             -0.03        2.82813
         O 11 -- O 37             -0.03        2.82844
         O 34 -- O 39             -0.03        2.82990
         O 33 -- O 40             -0.03        2.83087
         O 14 -- O 29             -0.03        2.83341
         O 17 -- O 25             -0.03        2.83568
         O 51 -- O 55             -0.03        2.83568
         O 11 -- O 22             -0.03        2.83876
         O 48 -- O 50             -0.03        2.84372

Writing analysis data to 022.castep_bin

Writing model to 022.check

 A BibTeX formatted list of references used in this run has been written to
 022.bib

Initialisation time =     54.26 s
Calculation time    =  33817.73 s
Finalisation time   =     38.34 s
Total time          =  33910.33 s

Overall parallel efficiency rating: Good (79%)

Data was distributed by:-
G-vector (4-way); efficiency rating: Very good (80%)
k-point (14-way); efficiency rating: Excellent (98%)