 Compiled for linux_x86_64_ifort16 on Sat, 23 Jul 2016 23:44:54 +0100
 from code version
 203e84763863+ Castep161_branch Fri, 04 Mar 2016 19:21:07 +0000
 Compiler: Intel Fortran 16.0.3.210; Optimisation: fast
 MATHLIBS: Intel MKL(11.3.3) (LAPACK version 3.6.0)
 FFT Lib : mkl
 Fundamental constants values: CODATA 2010

 Run started: Wed, 25 Apr 2018 16:23:18 +0100
 |           N   N    M   M    RRRR                |
 |           NN  N    MM MM    R   R               |
 |           N N N    M M M    RRRR                |
 |           N  NN    M   M    R  R                |
 |           N   N    M   M    R   R               |
 | Welcome to Materials Studio CASTEP-NMR          |
 | Authors:                                        |
 | J.R. Yates, C.J. Pickard, F. Mauri              |
 | Contributors:                                   |
 | T.F.G. Green, S.A. Joyce                        |
 | Copyright (c) 2004 - 2015                       |
 | Please cite the appropriate publications in all |
 | work arising from your use of CASTEP NMR.       |
 | For NMR Shielding Tensors cite:                 |
 |    "All-electron magnetic response with         |
 |    pseudopotentials: NMR chemical shifts",      |
 |    C. J. Pickard, F. Mauri;                     |
 |    Physical Review B63 245101 (2001), and       |
 |    "Calculation of NMR Chemical Shifts          |
 |    for extended systems using                   |
 |    Ultrasoft Pseudopotentials",                 |
 |    J. R. Yates, C. J. Pickard and F. Mauri      |
 |    Physical Review B76 024401 (2007)            |
 | For Electric Field Gradients cite:              |
 |   "Accurate First Principles Prediction of 17O  |
 |    NMR Parameters in SiO2: Assignment of the    |
 |    Zeolite Ferrierite Spectrum"                 |
 |    M. Profeta, F. Mauri and C. J. Pickard       |
 |    J. Amer. Chem. Soc. 125 541 (2003)           |
 | For Spin-Spin (J) Couplings cite:               |
 |   "A first principles theory of NMR J-coupling  |
 |   in solid-state systems"                       |
 |   S.A. Joyce, J.R. Yates, C.J. Pickard, F. Mauri|
 |   J. Chem. Phys. 127 204107 (2007)              |
 |   "Relativistic NMR J-coupling with ultrasoft   |
 |   pseudopotentials and the zeroth-order regular |
 |   approximation"                                |
 |   T.F.G. Green and J.R. Yates                   |
 |   J. Chem. Phys. 140 234106 (2014)              |

 Atomic calculation performed for O: 1s2 2s2 2p4

 Converged in 44 iterations to an ae energy of -2040.855 eV

 Atomic calculation performed for O: 1s2 2s2 2p4

 Exceeded max iterations: converged to 0.000000062 eV

   | Pseudopotential Report - Date of generation 25-04-2018   |
   | Element: O Ionic charge:  6.00 Level of theory: PBE      |
   | Atomic Solver: ZORA (scalar)                             |
   |               Reference Electronic Structure             |
   |         Orbital         Occupation         Energy        |
   |            2s              2.000           -0.881        |
   |            2p              4.000           -0.332        |
   |                 Pseudopotential Definition               |
   |        Beta     l      e      Rc     scheme   norm       |
   |          1      0   -0.881   1.100     qc      0         |
   |          2      0    0.250   1.100     qc      0         |
   |          3      1   -0.332   1.100     qc      0         |
   |          4      1    0.250   1.100     qc      0         |
   |         loc     2    0.000   1.100     pn      0         |
   | Augmentation charge Rinner = 0.769                       |
   | Partial core correction Rc = 0.769                       |
   | "2|1.1|15|18|20|20:21(qc=7)"                             |
   |      Author: Chris J. Pickard, Cambridge University      |

 Atomic calculation performed for Zr: 1s2 2s2 2p6 3s2 3p6 3d10 4s2 4p6 4d2 5s2

[...]

 Atomic calculation performed for Zr: 1s2 2s2 2p6 3s2 3p6 3d10 4s2 4p6 4d2 5s2

[...]

 Warning: ion_atom_descreen_psp: negative charge density encountered
   | Pseudopotential Report - Date of generation 25-04-2018   |
   | Element: Zr Ionic charge: 12.00 Level of theory: PBE     |
   | Atomic Solver: ZORA (scalar)                             |
   |               Reference Electronic Structure             |
   |         Orbital         Occupation         Energy        |
   |            4s              2.000           -2.003        |
   |            4p              6.000           -1.193        |
   |            5s              2.000           -0.163        |
   |            4d              2.000           -0.132        |
   |                 Pseudopotential Definition               |
   |        Beta     l      e      Rc     scheme   norm       |
   |          1      0   -2.003   2.105     qc      0         |
   |          2      0   -0.163   2.105     qc      0         |
   |          3      0    0.250   2.105     qc      0         |
   |          4      1   -1.193   2.105     qc      0         |
   |          5      1    0.250   2.105     qc      0         |
   |          6      2   -0.132   2.105     qc      0         |
   |          7      2    0.250   2.105     qc      0         |
   |         loc     3    0.000   2.105     pn      0         |
   | Augmentation charge Rinner = 1.471                       |
   | Partial core correction Rc = 1.471                       |
   | "3|2.1|7|8|9|40U:50:41:42"                               |
   |      Author: Chris J. Pickard, Cambridge University      |

 Atomic calculation performed for Sn:

[...]

 Atomic calculation performed for Sn:

[...]

   | Pseudopotential Report - Date of generation 25-04-2018   |
   | Element: Sn Ionic charge: 14.00 Level of theory: PBE     |
   | Atomic Solver: ZORA (scalar)                             |
   |               Reference Electronic Structure             |
   |         Orbital         Occupation         Energy        |
   |            4d             10.000           -0.950        |
   |            5s              2.000           -0.388        |
   |            5p              2.000           -0.136        |
   |                 Pseudopotential Definition               |
   |        Beta     l      e      Rc     scheme   norm       |
   |          1      0   -0.388   2.199     qc      0         |
   |          2      0    0.250   2.199     qc      0         |
   |          3      1   -0.136   2.199     qc      0         |
   |          4      1    0.250   2.199     qc      0         |
   |          5      2   -0.950   2.199     qc      0         |
   |          6      2    0.250   2.199     qc      0         |
   |         loc     3    0.000   2.199     pn      0         |
   | Augmentation charge Rinner = 1.537                       |
   | Partial core correction Rc = 1.537                       |
   | "3|2.2|7|8|9|50:51:42"                                   |
   |      Author: Chris J. Pickard, Cambridge University      |

 Atomic calculation performed for La:

 Converged in 56 iterations to an ae energy of -230121.495 eV

 Atomic calculation performed for La:

 Exceeded max iterations: converged to 0.000000907 eV

 Warning: ion_atom_descreen_psp: negative charge density encountered
   | Pseudopotential Report - Date of generation 25-04-2018   |
   | Element: La Ionic charge: 11.00 Level of theory: PBE     |
   | Atomic Solver: ZORA (scalar)                             |
   |               Reference Electronic Structure             |
   |         Orbital         Occupation         Energy        |
   |            5s              2.000           -1.430        |
   |            5p              6.000           -0.823        |
   |            6s              2.000           -0.135        |
   |            5d              1.000           -0.114        |
   |                 Pseudopotential Definition               |
   |        Beta     l      e      Rc     scheme   norm       |
   |          1      0   -1.430   2.298     qc      0         |
   |          2      0   -0.135   2.298     qc      0         |
   |          3      0    0.250   2.298     qc      0         |
   |          4      1   -0.823   2.298     qc      0         |
   |          5      1    0.250   2.298     qc      0         |
   |          6      2   -0.114   2.298     qc      0         |
   |          7      2    0.250   2.298     qc      0         |
   |         loc     2    0.000   2.298     pn      0         |
   | Augmentation charge Rinner = 1.606                       |
   | Partial core correction Rc = 1.606                       |
   | "2|2.3|5|6|7|50U:60:51:52(qc=4.5)"                       |
   |      Author: Chris J. Pickard, Cambridge University      |

 Pseudo atomic calculation performed for O 2s2 2p4

 Converged in 39 iterations to a total energy of -432.6554 eV

 Pseudo atomic calculation performed for Zr 4s2 4p6 4d2 5s2

[...]

 Calculation parallelised over 56 processes.
 Data is distributed by G-vector(4-way) and k-point(14-way)

 ************************************ Title ************************************
 nmr testing

 ***************************** General Parameters ******************************

 output verbosity                               : normal  (1)
 write checkpoint data to                       : 024.check
 type of calculation                            : Magnetic Resonance
 stress calculation                             : on
 density difference calculation                 : off
 electron localisation func (ELF) calculation   : off
 Hirshfeld analysis                             : off
 unlimited duration calculation
 timing information                             : on
 write final potential to formatted file        : off
 write final density to formatted file          : off
 write structure in CIF formatted file          : on
 write structure in CELL formatted file         : on
 write BibTeX reference list                    : on
 write OTFG pseudopotential files               : on
 checkpoint writing                             : both castep_bin and check files

 output         length unit                     : A
 output           mass unit                     : amu
 output           time unit                     : ps
 output         charge unit                     : e
 output           spin unit                     : hbar/2
 output         energy unit                     : eV
 output          force unit                     : eV/A
 output       velocity unit                     : A/ps
 output       pressure unit                     : GPa
 output     inv_length unit                     : 1/A
 output      frequency unit                     : cm-1
 output force constant unit                     : eV/A**2
 output         volume unit                     : A**3
 output   IR intensity unit                     : (D/A)**2/amu
 output         dipole unit                     : D
 output         efield unit                     : eV/A/e
 output        entropy unit                     : J/mol/K

 wavefunctions paging                           : none
 random number generator seed                   : randomised (162319662)
 data distribution                              : optimal for this architecture
[...]
  |    O          42      -88.58      85.35      0.08  -3.228E+00   0.07 |
  |    O          43      -88.05      82.98      0.20  -3.171E+00   0.08 |
  |    O          44      -88.90      95.08      0.26  -3.163E+00   0.11 |
  |    O          45      -88.56      85.04      0.08  -3.228E+00   0.07 |
  |    O          46     -161.57     151.43      0.81   1.021E+00   0.81 |
  |    O          47      -89.18      96.39      0.25  -3.159E+00   0.10 |
  |    O          48      -88.27      82.63      0.20  -3.168E+00   0.08 |
  |    O          49     -163.89     157.41      0.84   1.057E+00   0.85 |
  |    O          50      -88.45      85.29      0.17  -3.143E+00   0.07 |
  |    O          51      -88.29      93.19      0.29  -3.174E+00   0.07 |
  |    O          52      -88.37      93.67      0.29  -3.174E+00   0.07 |
  |    O          53      -88.05      77.92      0.26  -3.269E+00   0.11 |
  |    O          54     -162.79     148.05      0.87   1.047E+00   0.73 |
  |    O          55      -92.78      92.95      0.26  -3.174E+00   0.10 |
  |    O          56      -92.65      93.03      0.26  -3.174E+00   0.10 |
  |    Zr          1     1607.89    -119.25      0.15  -3.569E+01   0.03 |
  |    Zr          2     1607.78    -119.12      0.15  -3.571E+01   0.04 |
  |    Zr          3     1628.30    -125.63      0.05  -3.772E+01   0.12 |
  |    Zr          4     1628.08    -125.44      0.04  -3.769E+01   0.11 |
[...]
  |    La          2     4699.61     768.61      0.04  -8.366E+01   0.04 |
  |    La          3     4708.77     758.56      0.03  -8.655E+01   0.06 |
  |    La          4     4708.75     757.18      0.03  -8.644E+01   0.07 |
  |    La          5     4604.63     547.05      0.07  -7.718E+01   0.18 |
  |    La          6     4613.54     519.64      0.07  -7.861E+01   0.08 |
  |    La          7     4707.14     780.79      0.10  -8.506E+01   0.11 |
  |    La          8     4602.23     503.40      0.09  -7.552E+01   0.07 |
  |    La          9     4602.28     503.85      0.09  -7.559E+01   0.07 |
  |    La         10     4706.99     780.38      0.10  -8.504E+01   0.11 |
  |    La         11     4598.11     531.11      0.09  -7.611E+01   0.10 |
  |    La         12     4704.92     745.50      0.04  -8.349E+01   0.09 |
  |    La         13     4598.07     530.75      0.09  -7.606E+01   0.10 |
  |    La         14     4613.28     518.29      0.06  -7.857E+01   0.08 |
  |    La         15     4705.12     747.79      0.04  -8.364E+01   0.09 |
  |    La         16     4604.84     547.90      0.07  -7.716E+01   0.18 |

 *********************** Forces ***********************
 *            Cartesian components (eV/A)             *
 *                   x            y            z      *
 * O         1     -0.00512     -0.00289     -0.00202 *
 * O         2      0.00147      0.00202     -0.00291 *
 * O         3      0.00246     -0.00655     -0.00462 *
 * O         4     -0.00451      0.00305     -0.00514 *
 * O         5     -0.00152     -0.00877      0.00273 *
 * O         6      0.00029      0.00671      0.00470 *
 * O         7     -0.00134     -0.00089     -0.00379 *
 * O         8     -0.00146      0.00073     -0.00296 *
 * O         9     -0.00743      0.01647      0.01611 *
 * O        10      0.00258     -0.01626      0.01484 *
 * O        11     -0.00927     -0.00545      0.00329 *
 * O        12      0.00704      0.00329      0.00334 *
 * O        13      0.00161     -0.00030      0.00477 *
 * O        14     -0.01587      0.00354      0.01870 *
 * O        15     -0.00668     -0.00135      0.00639 *
 * O        16      0.01915      0.00020      0.02083 *
 * O        17      0.00302      0.00106     -0.00158 *
 * O        18     -0.00460     -0.00193     -0.00785 *
 * O        19      0.00310     -0.00050     -0.00747 *
 * O        20      0.00180      0.00827      0.00250 *
 * O        21      0.00438      0.00690     -0.00394 *
 * O        22     -0.00610     -0.01192     -0.00141 *
 * O        23     -0.01961     -0.00789     -0.02078 *
 * O        24      0.01662      0.00755     -0.02023 *
 * O        25      0.00295      0.01663     -0.03000 *
 * O        26     -0.00286     -0.01759     -0.02361 *
 * O        27     -0.00407     -0.02036     -0.03074 *
 * O        28      0.00113      0.02432     -0.02552 *
 * O        29      0.02552      0.02692      0.00385 *
 * O        30     -0.00951      0.00110      0.00271 *
 * O        31      0.00655     -0.00286      0.00186 *
 * O        32     -0.01872     -0.01818      0.00031 *
 * O        33      0.00185     -0.01286      0.01356 *
 * O        34     -0.00287      0.01447      0.01689 *
 * O        35      0.00591     -0.00060     -0.02325 *
 * O        36     -0.00296     -0.01247      0.00188 *
 * O        37     -0.01809      0.00502      0.01093 *
 * O        38     -0.01253     -0.00753     -0.00770 *
 * O        39     -0.00191     -0.01221      0.00988 *
 * O        40      0.00621      0.01096      0.01227 *
 * O        41      0.01104      0.01076      0.00716 *
 * O        42     -0.00995     -0.01596      0.01570 *
 * O        43     -0.00721     -0.02516      0.00265 *
 * O        44     -0.00645      0.00909     -0.00417 *
 * O        45      0.00710      0.01176      0.01561 *
 * O        46     -0.00773     -0.00264      0.00592 *
 * O        47      0.00767     -0.01007     -0.00420 *
 * O        48      0.00497      0.02066      0.00381 *
 * O        49      0.00893      0.02102      0.00055 *
 * O        50     -0.00902     -0.00291     -0.02263 *
 * O        51      0.00493      0.01467     -0.00400 *
 * O        52     -0.00868     -0.01761     -0.00431 *
 * O        53      0.01940     -0.00739      0.00865 *
 * O        54      0.00911      0.00477     -0.00755 *
 * O        55     -0.01821     -0.01278      0.00724 *
 * O        56      0.01452      0.00978      0.00728 *
 * Zr        1     -0.00144      0.01608     -0.01878 *
 * Zr        2      0.00690      0.00383     -0.01626 *
 * Zr        3     -0.00520     -0.00369     -0.00844 *
 * Zr        4      0.00967      0.00056     -0.00799 *
[...]
 * La        2     -0.00718      0.01582      0.00301 *
 * La        3     -0.00454      0.01841      0.00965 *
 * La        4      0.00695     -0.01330      0.00923 *
 * La        5     -0.00857      0.00455      0.00393 *
 * La        6      0.00153      0.00021     -0.00301 *
 * La        7     -0.00094     -0.01708      0.01063 *
 * La        8     -0.00888      0.00592     -0.00632 *
 * La        9      0.00315     -0.00445     -0.00559 *
 * La       10      0.00211      0.00756      0.00197 *
 * La       11      0.01053     -0.00632      0.00743 *
 * La       12     -0.00961     -0.02608     -0.01088 *
 * La       13     -0.00516      0.00047      0.00440 *
 * La       14     -0.00783      0.00502     -0.01162 *
 * La       15      0.00942      0.02675     -0.01146 *
 * La       16      0.00401     -0.00408      0.00512 *

 ***************** Stress Tensor *****************
 *          Cartesian components (GPa)           *
 *             x             y             z     *
 *  x      0.024093      0.024475     -0.000036  *
 *  y      0.024475      0.033355     -0.000103  *
 *  z     -0.000036     -0.000103      0.004282  *
 *  Pressure:   -0.0206                          *

[...]

 Pseudo atomic calculation performed for Sn 4d10 5s2 5p2

[...]

 Pseudo atomic calculation performed for La 5s2 5p6 5d1 6s2

 Converged in 34 iterations to a total energy of -968.0372 eV

Charge spilling parameter for spin component 1 = 0.24%

     Atomic Populations (Mulliken)
Species   Ion     s      p      d      f     Total  Charge (e)
  O        1     1.87   5.00   0.00   0.00   6.87    -0.87
  O        2     1.87   5.00   0.00   0.00   6.87    -0.87
  O        3     1.87   5.00   0.00   0.00   6.87    -0.87
  O        4     1.87   5.00   0.00   0.00   6.87    -0.87
  O        5     1.87   5.00   0.00   0.00   6.87    -0.87
  O        6     1.87   5.00   0.00   0.00   6.87    -0.87
  O        7     1.87   5.00   0.00   0.00   6.87    -0.87
  O        8     1.87   5.00   0.00   0.00   6.87    -0.87
  O        9     1.87   4.99   0.00   0.00   6.85    -0.85
  O       10     1.87   4.99   0.00   0.00   6.85    -0.85
  O       11     1.88   5.02   0.00   0.00   6.91    -0.91
  O       12     1.88   5.02   0.00   0.00   6.91    -0.91
  O       13     1.88   5.02   0.00   0.00   6.91    -0.91
  O       14     1.87   4.99   0.00   0.00   6.86    -0.86
  O       15     1.88   5.02   0.00   0.00   6.91    -0.91
  O       16     1.87   4.99   0.00   0.00   6.86    -0.86
  O       17     1.86   4.95   0.00   0.00   6.80    -0.80
  O       18     1.88   5.03   0.00   0.00   6.91    -0.91
  O       19     1.88   5.03   0.00   0.00   6.91    -0.91
  O       20     1.86   4.95   0.00   0.00   6.80    -0.80
  O       21     1.88   5.02   0.00   0.00   6.91    -0.91
  O       22     1.88   5.02   0.00   0.00   6.91    -0.91
  O       23     1.87   4.99   0.00   0.00   6.86    -0.86
  O       24     1.87   4.99   0.00   0.00   6.86    -0.86
  O       25     1.87   4.99   0.00   0.00   6.86    -0.86
  O       26     1.87   4.99   0.00   0.00   6.86    -0.86
  O       27     1.87   4.99   0.00   0.00   6.86    -0.86
  O       28     1.87   4.99   0.00   0.00   6.86    -0.86
  O       29     1.87   4.99   0.00   0.00   6.86    -0.86
  O       30     1.88   5.02   0.00   0.00   6.91    -0.91
  O       31     1.88   5.02   0.00   0.00   6.91    -0.91
  O       32     1.87   4.99   0.00   0.00   6.86    -0.86
  O       33     1.87   4.99   0.00   0.00   6.86    -0.86
  O       34     1.87   4.99   0.00   0.00   6.86    -0.86
  O       35     1.87   4.99   0.00   0.00   6.86    -0.86
  O       36     1.86   4.95   0.00   0.00   6.80    -0.80
  O       37     1.87   4.99   0.00   0.00   6.86    -0.86
  O       38     1.86   4.95   0.00   0.00   6.80    -0.80
  O       39     1.86   4.95   0.00   0.00   6.80    -0.80
  O       40     1.86   4.95   0.00   0.00   6.80    -0.80
  O       41     1.86   4.95   0.00   0.00   6.80    -0.80
  O       42     1.87   4.99   0.00   0.00   6.86    -0.86
  O       43     1.87   4.99   0.00   0.00   6.86    -0.86
  O       44     1.87   4.99   0.00   0.00   6.85    -0.85
  O       45     1.87   4.99   0.00   0.00   6.86    -0.86
  O       46     1.86   4.95   0.00   0.00   6.80    -0.80
  O       47     1.87   4.99   0.00   0.00   6.85    -0.85
  O       48     1.87   4.99   0.00   0.00   6.86    -0.86
  O       49     1.86   4.95   0.00   0.00   6.80    -0.80
  O       50     1.87   4.99   0.00   0.00   6.86    -0.86
  O       51     1.87   4.99   0.00   0.00   6.86    -0.86
  O       52     1.87   4.99   0.00   0.00   6.86    -0.86
  O       53     1.87   4.99   0.00   0.00   6.86    -0.86
  O       54     1.86   4.95   0.00   0.00   6.80    -0.80
  O       55     1.87   4.99   0.00   0.00   6.86    -0.86
  O       56     1.87   4.99   0.00   0.00   6.86    -0.86
  Zr       1     2.37   6.50   1.92   0.00  10.79     1.21
  Zr       2     2.37   6.50   1.92   0.00  10.79     1.21
  Zr       3     2.37   6.48   1.92   0.00  10.78     1.22
  Zr       4     2.37   6.48   1.92   0.00  10.78     1.22
[...]
  La       2     2.05   6.16   1.20   0.00   9.41     1.59
  La       3     2.04   6.16   1.19   0.00   9.40     1.60
  La       4     2.04   6.16   1.19   0.00   9.40     1.60
  La       5     2.10   6.18   1.19   0.00   9.47     1.53
  La       6     2.07   6.19   1.19   0.00   9.45     1.55
  La       7     2.03   6.16   1.20   0.00   9.38     1.62
  La       8     2.10   6.19   1.19   0.00   9.48     1.52
  La       9     2.10   6.19   1.19   0.00   9.48     1.52
  La      10     2.03   6.16   1.20   0.00   9.38     1.62
  La      11     2.08   6.18   1.19   0.00   9.46     1.54
  La      12     2.03   6.16   1.19   0.00   9.39     1.61
  La      13     2.08   6.18   1.19   0.00   9.46     1.54
  La      14     2.07   6.19   1.19   0.00   9.45     1.55
  La      15     2.03   6.16   1.19   0.00   9.39     1.61
  La      16     2.10   6.18   1.19   0.00   9.47     1.53

            Bond              Population      Length (A)
         O 23 -- Sn 1              0.35        2.10043
         O 24 -- Sn 7              0.35        2.10063
         O 37 -- Sn 3              0.34        2.10255
         O 53 -- Sn 2              0.34        2.10256
         O 42 -- Sn 5              0.35        2.10452
         O 45 -- Sn 8              0.35        2.10459
         O 43 -- Sn 6              0.35        2.10469
         O 51 -- Sn 1              0.34        2.10481
         O 52 -- Sn 7              0.34        2.10487
         O 48 -- Sn 4              0.35        2.10510
         O 27 -- Sn 8              0.35        2.10514
         O 25 -- Sn 5              0.35        2.10528
         O 33 -- Sn 4              0.34        2.10578
         O 34 -- Sn 6              0.34        2.10580
         O 19 -- Sn 3              0.34        2.10632
         O 18 -- Sn 2              0.34        2.10633
         O 9  -- Sn 7              0.35        2.10684
         O 32 -- Sn 4              0.35        2.10695
         O 16 -- Sn 1              0.34        2.10697
         O 29 -- Sn 6              0.35        2.10701
         O 14 -- Sn 7              0.34        2.10701
         O 10 -- Sn 1              0.34        2.10712
         O 26 -- Sn 2              0.34        2.10802
         O 28 -- Sn 3              0.34        2.10812
         O 36 -- Zr 3              0.41        2.10819
         O 56 -- Sn 3              0.34        2.10819
         O 55 -- Sn 2              0.34        2.10826
         O 44 -- Sn 7              0.34        2.10904
         O 47 -- Sn 1              0.34        2.10918
         O 15 -- Sn 8              0.34        2.10979
         O 12 -- Sn 6              0.34        2.10981
         O 13 -- Sn 5              0.34        2.10991
         O 11 -- Sn 4              0.34        2.11008
         O 49 -- Zr 4              0.41        2.11019
         O 18 -- Sn 5              0.33        2.11121
         O 19 -- Sn 8              0.33        2.11135
         O 31 -- Sn 1              0.33        2.11145
         O 30 -- Sn 7              0.33        2.11158
         O 13 -- Sn 6              0.33        2.11235
         O 50 -- Sn 5              0.34        2.11239
         O 15 -- Sn 4              0.33        2.11243
         O 35 -- Sn 8              0.34        2.11255
         O 11 -- Sn 3              0.34        2.11258
         O 12 -- Sn 2              0.34        2.11284
         O 31 -- Sn 8              0.33        2.11377
         O 30 -- Sn 5              0.33        2.11380
         O 24 -- Zr 7              0.44        2.11409
         O 36 -- Zr 8              0.41        2.11449
         O 49 -- Zr 5              0.42        2.11453
         O 23 -- Zr 6              0.44        2.11527
         O 40 -- Zr 6              0.43        2.11715
         O 54 -- Zr 1              0.42        2.11724
         O 47 -- Zr 4              0.46        2.11748
         O 38 -- Zr 2              0.42        2.11765
         O 52 -- Zr 1              0.45        2.11793
         O 39 -- Zr 7              0.43        2.11813
         O 28 -- Zr 5              0.45        2.11814
         O 56 -- Zr 1              0.44        2.11822
         O 55 -- Zr 2              0.44        2.11832
         O 54 -- Zr 7              0.41        2.11836
[...]
         O 46 -- O 53             -0.03        2.82623
         O 17 -- O 25             -0.03        2.82687
         O 20 -- O 27             -0.03        2.82734
         O 29 -- O 46             -0.03        2.82770
         O 32 -- O 41             -0.03        2.82773
         O 45 -- O 54             -0.03        2.82855
         O 38 -- O 42             -0.03        2.82858
         O 20 -- O 28             -0.03        2.82871
         O 17 -- O 26             -0.03        2.82880
         O 33 -- O 40             -0.03        2.83431
         O 34 -- O 39             -0.03        2.83450
         O 16 -- O 32             -0.03        2.83670
         O 14 -- O 29             -0.03        2.83684
         O 48 -- O 50             -0.03        2.83945
         O 35 -- O 43             -0.03        2.83949

Writing analysis data to 024.castep_bin

Writing model to 024.check

 A BibTeX formatted list of references used in this run has been written to
 024.bib

Initialisation time =     53.56 s
Calculation time    =  33700.41 s
Finalisation time   =     56.59 s
Total time          =  33810.56 s

Overall parallel efficiency rating: Good (79%)

Data was distributed by:-
G-vector (4-way); efficiency rating: Very good (80%)
k-point (14-way); efficiency rating: Excellent (98%)