 Compiled for linux_x86_64_ifort16 on Sat, 23 Jul 2016 23:44:54 +0100
 from code version
 203e84763863+ Castep161_branch Fri, 04 Mar 2016 19:21:07 +0000
 Compiler: Intel Fortran 16.0.3.210; Optimisation: fast
 MATHLIBS: Intel MKL(11.3.3) (LAPACK version 3.6.0)
 FFT Lib : mkl
 Fundamental constants values: CODATA 2010

 Run started: Wed, 16 May 2018 20:09:04 +0100
 |           N   N    M   M    RRRR                |
 |           NN  N    MM MM    R   R               |
 |           N N N    M M M    RRRR                |
 |           N  NN    M   M    R  R                |
 |           N   N    M   M    R   R               |
 | Welcome to Materials Studio CASTEP-NMR          |
 | Authors:                                        |
 | J.R. Yates, C.J. Pickard, F. Mauri              |
 | Contributors:                                   |
 | T.F.G. Green, S.A. Joyce                        |
 | Copyright (c) 2004 - 2015                       |
 | Please cite the appropriate publications in all |
 | work arising from your use of CASTEP NMR.       |
 | For NMR Shielding Tensors cite:                 |
 |    "All-electron magnetic response with         |
 |    pseudopotentials: NMR chemical shifts",      |
 |    C. J. Pickard, F. Mauri;                     |
 |    Physical Review B63 245101 (2001), and       |
 |    "Calculation of NMR Chemical Shifts          |
 |    for extended systems using                   |
 |    Ultrasoft Pseudopotentials",                 |
 |    J. R. Yates, C. J. Pickard and F. Mauri      |
 |    Physical Review B76 024401 (2007)            |
 | For Electric Field Gradients cite:              |
 |   "Accurate First Principles Prediction of 17O  |
 |    NMR Parameters in SiO2: Assignment of the    |
 |    Zeolite Ferrierite Spectrum"                 |
 |    M. Profeta, F. Mauri and C. J. Pickard       |
 |    J. Amer. Chem. Soc. 125 541 (2003)           |
 | For Spin-Spin (J) Couplings cite:               |
 |   "A first principles theory of NMR J-coupling  |
 |   in solid-state systems"                       |
 |   S.A. Joyce, J.R. Yates, C.J. Pickard, F. Mauri|
 |   J. Chem. Phys. 127 204107 (2007)              |
 |   "Relativistic NMR J-coupling with ultrasoft   |
 |   pseudopotentials and the zeroth-order regular |
 |   approximation"                                |
 |   T.F.G. Green and J.R. Yates                   |
 |   J. Chem. Phys. 140 234106 (2014)              |

 Atomic calculation performed for O: 1s2 2s2 2p4

 Converged in 44 iterations to an ae energy of -2040.855 eV

 Atomic calculation performed for O: 1s2 2s2 2p4

 Exceeded max iterations: converged to 0.000000062 eV

   | Pseudopotential Report - Date of generation 16-05-2018   |
   | Element: O Ionic charge:  6.00 Level of theory: PBE      |
   | Atomic Solver: ZORA (scalar)                             |
   |               Reference Electronic Structure             |
   |         Orbital         Occupation         Energy        |
   |            2s              2.000           -0.881        |
   |            2p              4.000           -0.332        |
   |                 Pseudopotential Definition               |
   |        Beta     l      e      Rc     scheme   norm       |
   |          1      0   -0.881   1.100     qc      0         |
   |          2      0    0.250   1.100     qc      0         |
   |          3      1   -0.332   1.100     qc      0         |
   |          4      1    0.250   1.100     qc      0         |
   |         loc     2    0.000   1.100     pn      0         |
   | Augmentation charge Rinner = 0.769                       |
   | Partial core correction Rc = 0.769                       |
   | "2|1.1|15|18|20|20:21(qc=7)"                             |
   |      Author: Chris J. Pickard, Cambridge University      |

 Atomic calculation performed for Zr: 1s2 2s2 2p6 3s2 3p6 3d10 4s2 4p6 4d2 5s2

[...]

 Atomic calculation performed for Zr: 1s2 2s2 2p6 3s2 3p6 3d10 4s2 4p6 4d2 5s2

[...]

 Warning: ion_atom_descreen_psp: negative charge density encountered
   | Pseudopotential Report - Date of generation 16-05-2018   |
   | Element: Zr Ionic charge: 12.00 Level of theory: PBE     |
   | Atomic Solver: ZORA (scalar)                             |
   |               Reference Electronic Structure             |
   |         Orbital         Occupation         Energy        |
   |            4s              2.000           -2.003        |
   |            4p              6.000           -1.193        |
   |            5s              2.000           -0.163        |
   |            4d              2.000           -0.132        |
   |                 Pseudopotential Definition               |
   |        Beta     l      e      Rc     scheme   norm       |
   |          1      0   -2.003   2.105     qc      0         |
   |          2      0   -0.163   2.105     qc      0         |
   |          3      0    0.250   2.105     qc      0         |
   |          4      1   -1.193   2.105     qc      0         |
   |          5      1    0.250   2.105     qc      0         |
   |          6      2   -0.132   2.105     qc      0         |
   |          7      2    0.250   2.105     qc      0         |
   |         loc     3    0.000   2.105     pn      0         |
   | Augmentation charge Rinner = 1.471                       |
   | Partial core correction Rc = 1.471                       |
   | "3|2.1|7|8|9|40U:50:41:42"                               |
   |      Author: Chris J. Pickard, Cambridge University      |

 Atomic calculation performed for Sn:

[...]

 Atomic calculation performed for Sn:

[...]

   | Pseudopotential Report - Date of generation 16-05-2018   |
   | Element: Sn Ionic charge: 14.00 Level of theory: PBE     |
   | Atomic Solver: ZORA (scalar)                             |
   |               Reference Electronic Structure             |
   |         Orbital         Occupation         Energy        |
   |            4d             10.000           -0.950        |
   |            5s              2.000           -0.388        |
   |            5p              2.000           -0.136        |
   |                 Pseudopotential Definition               |
   |        Beta     l      e      Rc     scheme   norm       |
   |          1      0   -0.388   2.199     qc      0         |
   |          2      0    0.250   2.199     qc      0         |
   |          3      1   -0.136   2.199     qc      0         |
   |          4      1    0.250   2.199     qc      0         |
   |          5      2   -0.950   2.199     qc      0         |
   |          6      2    0.250   2.199     qc      0         |
   |         loc     3    0.000   2.199     pn      0         |
   | Augmentation charge Rinner = 1.537                       |
   | Partial core correction Rc = 1.537                       |
   | "3|2.2|7|8|9|50:51:42"                                   |
   |      Author: Chris J. Pickard, Cambridge University      |

 Atomic calculation performed for La:

 Converged in 56 iterations to an ae energy of -230121.495 eV

 Atomic calculation performed for La:

 Exceeded max iterations: converged to 0.000000907 eV

 Warning: ion_atom_descreen_psp: negative charge density encountered
   | Pseudopotential Report - Date of generation 16-05-2018   |
   | Element: La Ionic charge: 11.00 Level of theory: PBE     |
   | Atomic Solver: ZORA (scalar)                             |
   |               Reference Electronic Structure             |
   |         Orbital         Occupation         Energy        |
   |            5s              2.000           -1.430        |
   |            5p              6.000           -0.823        |
   |            6s              2.000           -0.135        |
   |            5d              1.000           -0.114        |
   |                 Pseudopotential Definition               |
   |        Beta     l      e      Rc     scheme   norm       |
   |          1      0   -1.430   2.298     qc      0         |
   |          2      0   -0.135   2.298     qc      0         |
   |          3      0    0.250   2.298     qc      0         |
   |          4      1   -0.823   2.298     qc      0         |
   |          5      1    0.250   2.298     qc      0         |
   |          6      2   -0.114   2.298     qc      0         |
   |          7      2    0.250   2.298     qc      0         |
   |         loc     2    0.000   2.298     pn      0         |
   | Augmentation charge Rinner = 1.606                       |
   | Partial core correction Rc = 1.606                       |
   | "2|2.3|5|6|7|50U:60:51:52(qc=4.5)"                       |
   |      Author: Chris J. Pickard, Cambridge University      |

 Pseudo atomic calculation performed for O 2s2 2p4

 Converged in 39 iterations to a total energy of -432.6554 eV

 Pseudo atomic calculation performed for Zr 4s2 4p6 4d2 5s2

[...]

 Calculation parallelised over 56 processes.
 Data is distributed by G-vector(4-way) and k-point(14-way)

 ************************************ Title ************************************
 nmr testing

 ***************************** General Parameters ******************************

 output verbosity                               : normal  (1)
 write checkpoint data to                       : 031.check
 type of calculation                            : Magnetic Resonance
 stress calculation                             : on
 density difference calculation                 : off
 electron localisation func (ELF) calculation   : off
 Hirshfeld analysis                             : off
 unlimited duration calculation
 timing information                             : on
 write final potential to formatted file        : off
 write final density to formatted file          : off
 write structure in CIF formatted file          : on
 write structure in CELL formatted file         : on
 write BibTeX reference list                    : on
 write OTFG pseudopotential files               : on
 checkpoint writing                             : both castep_bin and check files

 output         length unit                     : A
 output           mass unit                     : amu
 output           time unit                     : ps
 output         charge unit                     : e
 output           spin unit                     : hbar/2
 output         energy unit                     : eV
 output          force unit                     : eV/A
 output       velocity unit                     : A/ps
 output       pressure unit                     : GPa
 output     inv_length unit                     : 1/A
 output      frequency unit                     : cm-1
 output force constant unit                     : eV/A**2
 output         volume unit                     : A**3
 output   IR intensity unit                     : (D/A)**2/amu
 output         dipole unit                     : D
 output         efield unit                     : eV/A/e
 output        entropy unit                     : J/mol/K

 wavefunctions paging                           : none
 random number generator seed                   : randomised (200906049)
 data distribution                              : optimal for this architecture
[...]
  |    O          42      -85.83      87.91      0.08  -3.208E+00   0.09 |
  |    O          43     -161.32     148.16      0.86   1.088E+00   0.70 |
  |    O          44      -88.07      95.60      0.36  -3.120E+00   0.08 |
  |    O          45      -88.84      92.85      0.26  -3.233E+00   0.09 |
  |    O          46     -162.23     145.48      0.82   1.027E+00   0.73 |
  |    O          47      -90.30      88.92      0.17  -3.227E+00   0.12 |
  |    O          48      -90.70      83.45      0.16  -3.130E+00   0.08 |
  |    O          49      -84.83      77.59      0.20  -3.273E+00   0.11 |
  |    O          50      -87.42      84.17      0.17  -3.159E+00   0.06 |
  |    O          51     -160.56     147.07      0.81   1.060E+00   0.70 |
  |    O          52      -87.43      96.03      0.31  -3.177E+00   0.07 |
  |    O          53      -91.48      85.70      0.17  -3.252E+00   0.11 |
  |    O          54     -164.01     147.60      0.87   1.022E+00   0.75 |
  |    O          55      -88.26      77.07      0.23  -3.212E+00   0.11 |
  |    O          56      -88.70      85.54      0.03  -3.223E+00   0.08 |
  |    Zr          1     1608.69    -118.65      0.16  -3.579E+01   0.09 |
  |    Zr          2     1627.98    -124.54      0.11  -3.739E+01   0.09 |
  |    Zr          3     1614.54    -118.13      0.01  -3.658E+01   0.03 |
  |    Zr          4     1628.43    -123.77      0.10  -3.749E+01   0.08 |
[...]
  |    La          2     4602.45     521.98      0.08  -7.765E+01   0.06 |
  |    La          3     4704.89     783.07      0.10  -8.545E+01   0.10 |
  |    La          4     4711.46     755.11      0.03  -8.594E+01   0.06 |
  |    La          5     4602.30     520.00      0.09  -7.749E+01   0.10 |
  |    La          6     4659.94     660.76      0.08  -8.190E+01   0.10 |
  |    La          7     4754.49     861.88      0.03  -8.828E+01   0.06 |
  |    La          8     4553.87     378.72      0.07  -7.249E+01   0.09 |
  |    La          9     4650.96     654.13      0.11  -8.057E+01   0.15 |
  |    La         10     4655.30     661.90      0.10  -8.011E+01   0.13 |
  |    La         11     4647.26     661.61      0.11  -7.892E+01   0.13 |
  |    La         12     4605.05     508.78      0.09  -7.587E+01   0.07 |
  |    La         13     4652.73     665.13      0.09  -8.101E+01   0.12 |
  |    La         14     4665.92     615.72      0.01  -8.154E+01   0.03 |
  |    La         15     4711.39     759.81      0.03  -8.620E+01   0.07 |
  |    La         16     4599.26     556.40      0.10  -7.626E+01   0.19 |

 *********************** Forces ***********************
 *            Cartesian components (eV/A)             *
 *                   x            y            z      *
 * O         1     -0.00267      0.00164     -0.00340 *
 * O         2     -0.00921      0.00164     -0.00009 *
 * O         3      0.00362     -0.00461      0.00565 *
 * O         4     -0.00029     -0.00055     -0.00109 *
 * O         5     -0.00097     -0.00189     -0.00725 *
 * O         6      0.00764      0.00239      0.00233 *
 * O         7     -0.00541     -0.00452     -0.00476 *
 * O         8     -0.00190      0.00557     -0.00245 *
 * O         9     -0.00782      0.03002      0.02973 *
 * O        10     -0.01105      0.00726     -0.00639 *
 * O        11     -0.00712      0.00447     -0.00011 *
 * O        12      0.00192      0.02734      0.01687 *
 * O        13      0.02317     -0.00432      0.01780 *
 * O        14     -0.02457      0.00854      0.02800 *
 * O        15      0.00025      0.00197     -0.00164 *
 * O        16     -0.02798     -0.00386     -0.03358 *
 * O        17     -0.02613     -0.01728     -0.00784 *
 * O        18     -0.00661      0.00895     -0.00812 *
 * O        19     -0.00194      0.00052     -0.00303 *
 * O        20      0.00068      0.02016     -0.00006 *
 * O        21      0.00584      0.00506     -0.00419 *
 * O        22     -0.02538      0.00238     -0.01695 *
 * O        23     -0.01458      0.00158     -0.01511 *
 * O        24      0.00995      0.00741     -0.01345 *
 * O        25     -0.00245      0.00610     -0.02736 *
 * O        26     -0.00077     -0.00451     -0.00901 *
 * O        27      0.00510     -0.03349     -0.02944 *
 * O        28     -0.00970      0.02696     -0.03108 *
 * O        29      0.01137      0.00964     -0.00397 *
 * O        30     -0.00217     -0.00489     -0.00342 *
 * O        31      0.01322     -0.02274     -0.00583 *
 * O        32     -0.00437     -0.00221     -0.00373 *
 * O        33      0.00171     -0.01701      0.02992 *
 * O        34     -0.00130     -0.02301     -0.01981 *
 * O        35      0.02194     -0.01130     -0.03063 *
 * O        36      0.03161      0.00142      0.02922 *
 * O        37      0.00269     -0.00518      0.00966 *
 * O        38     -0.00953     -0.00711     -0.00075 *
 * O        39     -0.01494     -0.00189      0.02832 *
 * O        40      0.01743      0.00569      0.02015 *
 * O        41      0.01061      0.00196      0.00031 *
 * O        42      0.00036     -0.03209      0.02811 *
 * O        43     -0.00230     -0.01800      0.00202 *
 * O        44     -0.01527      0.01475      0.00344 *
 * O        45      0.01147      0.01177      0.01895 *
 * O        46      0.00138     -0.00344      0.00832 *
 * O        47     -0.02257      0.02205     -0.01175 *
 * O        48      0.01470      0.02036     -0.00157 *
 * O        49      0.03338      0.00713     -0.01979 *
 * O        50     -0.01178     -0.00024     -0.02233 *
 * O        51     -0.00047      0.00954     -0.00156 *
 * O        52     -0.00785     -0.01586     -0.01764 *
 * O        53      0.02548     -0.01512      0.01671 *
 * O        54     -0.00324     -0.00473     -0.00056 *
 * O        55     -0.03170     -0.00212      0.02494 *
 * O        56      0.01736      0.00154      0.02448 *
 * Zr        1      0.00336      0.00532     -0.02361 *
 * Zr        2      0.01556      0.01614     -0.00319 *
 * Zr        3     -0.01714      0.01415     -0.02404 *
 * Zr        4     -0.00340     -0.01098      0.00407 *
[...]
 * La        2      0.00127      0.00010      0.00169 *
 * La        3     -0.00331      0.01189      0.00029 *
 * La        4     -0.00618     -0.00391     -0.00407 *
 * La        5     -0.00617      0.00161      0.00266 *
 * La        6     -0.00258      0.00533      0.01122 *
 * La        7      0.02761     -0.00454      0.01573 *
 * La        8     -0.00178      0.00398     -0.00399 *
 * La        9     -0.00293      0.00052     -0.01121 *
 * La       10      0.00921     -0.00673     -0.00543 *
 * La       11      0.01354      0.00122      0.01048 *
 * La       12     -0.00261     -0.00028      0.00517 *
 * La       13      0.01534     -0.00863     -0.00349 *
 * La       14     -0.01306      0.00240     -0.01360 *
 * La       15      0.00613      0.00852      0.01738 *
 * La       16     -0.00420      0.00476      0.00545 *

 ***************** Stress Tensor *****************
 *          Cartesian components (GPa)           *
 *             x             y             z     *
 *  x     -0.001434      0.010046      0.004822  *
 *  y      0.010046     -0.000880     -0.005005  *
 *  z      0.004822     -0.005005      0.000767  *
 *  Pressure:    0.0005                          *

[...]

 Pseudo atomic calculation performed for Sn 4d10 5s2 5p2

[...]

 Pseudo atomic calculation performed for La 5s2 5p6 5d1 6s2

 Converged in 34 iterations to a total energy of -968.0372 eV

Charge spilling parameter for spin component 1 = 0.24%

     Atomic Populations (Mulliken)
Species   Ion     s      p      d      f     Total  Charge (e)
  O        1     1.87   5.00   0.00   0.00   6.87    -0.87
  O        2     1.87   5.00   0.00   0.00   6.87    -0.87
  O        3     1.87   5.00   0.00   0.00   6.87    -0.87
  O        4     1.87   5.00   0.00   0.00   6.87    -0.87
  O        5     1.87   5.00   0.00   0.00   6.87    -0.87
  O        6     1.87   5.00   0.00   0.00   6.87    -0.87
  O        7     1.87   5.00   0.00   0.00   6.87    -0.87
  O        8     1.87   5.00   0.00   0.00   6.87    -0.87
  O        9     1.87   4.99   0.00   0.00   6.85    -0.85
  O       10     1.86   4.95   0.00   0.00   6.80    -0.80
  O       11     1.88   5.02   0.00   0.00   6.91    -0.91
  O       12     1.87   4.99   0.00   0.00   6.86    -0.86
  O       13     1.87   4.99   0.00   0.00   6.86    -0.86
  O       14     1.87   4.99   0.00   0.00   6.85    -0.85
  O       15     1.88   5.03   0.00   0.00   6.91    -0.91
  O       16     1.87   4.99   0.00   0.00   6.86    -0.86
  O       17     1.87   4.99   0.00   0.00   6.86    -0.86
  O       18     1.88   5.02   0.00   0.00   6.91    -0.91
  O       19     1.88   5.03   0.00   0.00   6.91    -0.91
  O       20     1.86   4.95   0.00   0.00   6.80    -0.80
  O       21     1.88   5.02   0.00   0.00   6.91    -0.91
  O       22     1.87   4.99   0.00   0.00   6.86    -0.86
  O       23     1.86   4.95   0.00   0.00   6.80    -0.80
  O       24     1.87   4.99   0.00   0.00   6.86    -0.86
  O       25     1.87   4.99   0.00   0.00   6.86    -0.86
  O       26     1.88   5.02   0.00   0.00   6.91    -0.91
  O       27     1.87   4.99   0.00   0.00   6.86    -0.86
  O       28     1.87   4.99   0.00   0.00   6.86    -0.86
  O       29     1.86   4.95   0.00   0.00   6.80    -0.80
  O       30     1.88   5.03   0.00   0.00   6.91    -0.91
  O       31     1.87   4.99   0.00   0.00   6.85    -0.85
  O       32     1.88   5.02   0.00   0.00   6.91    -0.91
  O       33     1.87   4.99   0.00   0.00   6.86    -0.86
  O       34     1.87   4.99   0.00   0.00   6.86    -0.86
  O       35     1.87   4.99   0.00   0.00   6.85    -0.85
  O       36     1.87   4.99   0.00   0.00   6.86    -0.86
  O       37     1.88   5.02   0.00   0.00   6.91    -0.91
  O       38     1.86   4.95   0.00   0.00   6.80    -0.80
  O       39     1.87   4.99   0.00   0.00   6.86    -0.86
  O       40     1.86   4.95   0.00   0.00   6.80    -0.80
  O       41     1.88   5.02   0.00   0.00   6.91    -0.91
  O       42     1.87   4.99   0.00   0.00   6.86    -0.86
  O       43     1.86   4.95   0.00   0.00   6.80    -0.80
  O       44     1.87   4.99   0.00   0.00   6.85    -0.85
  O       45     1.87   4.99   0.00   0.00   6.86    -0.86
  O       46     1.86   4.95   0.00   0.00   6.80    -0.80
  O       47     1.87   4.99   0.00   0.00   6.86    -0.86
  O       48     1.87   4.99   0.00   0.00   6.86    -0.86
  O       49     1.87   4.99   0.00   0.00   6.86    -0.86
  O       50     1.87   4.99   0.00   0.00   6.86    -0.86
  O       51     1.86   4.95   0.00   0.00   6.80    -0.80
  O       52     1.87   4.99   0.00   0.00   6.86    -0.86
  O       53     1.87   4.99   0.00   0.00   6.86    -0.86
  O       54     1.86   4.95   0.00   0.00   6.80    -0.80
  O       55     1.87   4.99   0.00   0.00   6.86    -0.86
  O       56     1.87   4.99   0.00   0.00   6.86    -0.86
  Zr       1     2.37   6.50   1.92   0.00  10.79     1.21
  Zr       2     2.37   6.48   1.92   0.00  10.77     1.23
  Zr       3     2.37   6.49   1.92   0.00  10.78     1.22
  Zr       4     2.37   6.48   1.92   0.00  10.77     1.23
[...]
  La       2     2.09   6.19   1.19   0.00   9.47     1.53
  La       3     2.05   6.16   1.20   0.00   9.41     1.59
  La       4     2.02   6.17   1.19   0.00   9.38     1.62
  La       5     2.09   6.19   1.19   0.00   9.47     1.53
  La       6     2.07   6.17   1.19   0.00   9.44     1.56
  La       7     2.01   6.15   1.19   0.00   9.35     1.65
  La       8     2.12   6.20   1.19   0.00   9.51     1.49
  La       9     2.07   6.17   1.19   0.00   9.44     1.56
  La      10     2.05   6.17   1.19   0.00   9.42     1.58
  La      11     2.06   6.17   1.19   0.00   9.42     1.58
  La      12     2.08   6.19   1.19   0.00   9.47     1.53
  La      13     2.08   6.17   1.19   0.00   9.44     1.56
  La      14     2.05   6.19   1.19   0.00   9.42     1.58
  La      15     2.02   6.17   1.19   0.00   9.38     1.62
  La      16     2.08   6.18   1.19   0.00   9.46     1.54

            Bond              Population      Length (A)
         O 49 -- Sn 1              0.35        2.10026
         O 45 -- Sn 7              0.35        2.10114
         O 36 -- Sn 8              0.35        2.10185
         O 53 -- Sn 2              0.34        2.10188
         O 24 -- Sn 6              0.34        2.10276
         O 9  -- Sn 6              0.35        2.10310
         O 39 -- Sn 1              0.35        2.10329
         O 47 -- Sn 1              0.34        2.10365
         O 42 -- Sn 5              0.35        2.10395
         O 52 -- Sn 6              0.34        2.10466
         O 56 -- Sn 3              0.35        2.10480
         O 19 -- Sn 7              0.34        2.10491
         O 25 -- Sn 5              0.35        2.10513
         O 19 -- Sn 3              0.33        2.10609
         O 27 -- Sn 7              0.35        2.10611
         O 16 -- Sn 8              0.35        2.10628
         O 13 -- Sn 5              0.35        2.10630
         O 33 -- Sn 4              0.34        2.10641
         O 55 -- Sn 2              0.34        2.10708
         O 14 -- Sn 6              0.34        2.10766
         O 30 -- Sn 6              0.34        2.10786
         O 15 -- Sn 4              0.34        2.10865
         O 28 -- Sn 3              0.34        2.10879
         O 48 -- Sn 4              0.34        2.10908
         O 50 -- Sn 5              0.34        2.10929
         O 34 -- Sn 1              0.34        2.10929
         O 22 -- Sn 3              0.35        2.10945
         O 26 -- Sn 2              0.34        2.10969
         O 15 -- Sn 7              0.33        2.11035
         O 17 -- Sn 8              0.34        2.11039
         O 30 -- Sn 5              0.33        2.11048
         O 12 -- Sn 2              0.34        2.11048
         O 26 -- Sn 8              0.33        2.11055
         O 31 -- Sn 7              0.34        2.11065
         O 44 -- Sn 6              0.33        2.11118
         O 21 -- Sn 4              0.33        2.11242
         O 35 -- Sn 7              0.34        2.11353
         O 29 -- Zr 4              0.41        2.11394
         O 32 -- Sn 8              0.34        2.11395
         O 43 -- Zr 2              0.41        2.11402
         O 21 -- Sn 2              0.34        2.11407
         O 11 -- Sn 3              0.34        2.11459
         O 10 -- Zr 5              0.41        2.11487
         O 36 -- Zr 3              0.44        2.11501
         O 11 -- Sn 4              0.34        2.11511
         O 18 -- Sn 2              0.34        2.11517
         O 10 -- Zr 7              0.42        2.11547
         O 32 -- Sn 4              0.34        2.11562
         O 37 -- Sn 3              0.33        2.11571
         O 45 -- Zr 1              0.44        2.11602
         O 43 -- Zr 8              0.41        2.11612
         O 23 -- Zr 6              0.42        2.11619
         O 24 -- Zr 7              0.45        2.11622
         O 20 -- Zr 6              0.42        2.11634
         O 47 -- Zr 5              0.45        2.11644
         O 37 -- Sn 1              0.33        2.11659
         O 28 -- Zr 4              0.45        2.11661
         O 34 -- Zr 8              0.45        2.11685
         O 18 -- Sn 5              0.33        2.11690
         O 52 -- Zr 1              0.45        2.11702
[...]
         O 20 -- O 23             -0.03        2.82684
         O 54 -- O 56             -0.03        2.82714
         O 13 -- O 29             -0.03        2.82791
         O 14 -- O 29             -0.03        2.82796
         O 22 -- O 43             -0.03        2.82801
         O 35 -- O 43             -0.03        2.82983
         O 36 -- O 46             -0.03        2.83029
         O 38 -- O 42             -0.03        2.83138
         O 33 -- O 40             -0.03        2.83163
         O 16 -- O 51             -0.03        2.83225
         O 12 -- O 22             -0.03        2.83295
         O 20 -- O 28             -0.03        2.83520
         O 16 -- O 31             -0.03        2.83522
         O 48 -- O 50             -0.03        2.83740
         O 17 -- O 25             -0.03        2.84059

Writing analysis data to 031.castep_bin

Writing model to 031.check

 A BibTeX formatted list of references used in this run has been written to
 031.bib

Initialisation time =     53.72 s
Calculation time    =  33807.39 s
Finalisation time   =     38.19 s
Total time          =  33899.30 s

Overall parallel efficiency rating: Good (78%)

Data was distributed by:-
G-vector (4-way); efficiency rating: Very good (80%)
k-point (14-way); efficiency rating: Excellent (97%)