 Compiled for linux_x86_64_ifort16 on Sat, 23 Jul 2016 23:44:54 +0100
 from code version
 203e84763863+ Castep161_branch Fri, 04 Mar 2016 19:21:07 +0000
 Compiler: Intel Fortran 16.0.3.210; Optimisation: fast
 MATHLIBS: Intel MKL(11.3.3) (LAPACK version 3.6.0)
 FFT Lib : mkl
 Fundamental constants values: CODATA 2010

 Run started: Thu, 17 May 2018 15:03:05 +0100
 |           N   N    M   M    RRRR                |
 |           NN  N    MM MM    R   R               |
 |           N N N    M M M    RRRR                |
 |           N  NN    M   M    R  R                |
 |           N   N    M   M    R   R               |
 | Welcome to Materials Studio CASTEP-NMR          |
 | Authors:                                        |
 | J.R. Yates, C.J. Pickard, F. Mauri              |
 | Contributors:                                   |
 | T.F.G. Green, S.A. Joyce                        |
 | Copyright (c) 2004 - 2015                       |
 | Please cite the appropriate publications in all |
 | work arising from your use of CASTEP NMR.       |
 | For NMR Shielding Tensors cite:                 |
 |    "All-electron magnetic response with         |
 |    pseudopotentials: NMR chemical shifts",      |
 |    C. J. Pickard, F. Mauri;                     |
 |    Physical Review B63 245101 (2001), and       |
 |    "Calculation of NMR Chemical Shifts          |
 |    for extended systems using                   |
 |    Ultrasoft Pseudopotentials",                 |
 |    J. R. Yates, C. J. Pickard and F. Mauri      |
 |    Physical Review B76 024401 (2007)            |
 | For Electric Field Gradients cite:              |
 |   "Accurate First Principles Prediction of 17O  |
 |    NMR Parameters in SiO2: Assignment of the    |
 |    Zeolite Ferrierite Spectrum"                 |
 |    M. Profeta, F. Mauri and C. J. Pickard       |
 |    J. Amer. Chem. Soc. 125 541 (2003)           |
 | For Spin-Spin (J) Couplings cite:               |
 |   "A first principles theory of NMR J-coupling  |
 |   in solid-state systems"                       |
 |   S.A. Joyce, J.R. Yates, C.J. Pickard, F. Mauri|
 |   J. Chem. Phys. 127 204107 (2007)              |
 |   "Relativistic NMR J-coupling with ultrasoft   |
 |   pseudopotentials and the zeroth-order regular |
 |   approximation"                                |
 |   T.F.G. Green and J.R. Yates                   |
 |   J. Chem. Phys. 140 234106 (2014)              |

 Atomic calculation performed for O: 1s2 2s2 2p4

 Converged in 44 iterations to an ae energy of -2040.855 eV

 Atomic calculation performed for O: 1s2 2s2 2p4

 Exceeded max iterations: converged to 0.000000062 eV

   | Pseudopotential Report - Date of generation 17-05-2018   |
   | Element: O Ionic charge:  6.00 Level of theory: PBE      |
   | Atomic Solver: ZORA (scalar)                             |
   |               Reference Electronic Structure             |
   |         Orbital         Occupation         Energy        |
   |            2s              2.000           -0.881        |
   |            2p              4.000           -0.332        |
   |                 Pseudopotential Definition               |
   |        Beta     l      e      Rc     scheme   norm       |
   |          1      0   -0.881   1.100     qc      0         |
   |          2      0    0.250   1.100     qc      0         |
   |          3      1   -0.332   1.100     qc      0         |
   |          4      1    0.250   1.100     qc      0         |
   |         loc     2    0.000   1.100     pn      0         |
   | Augmentation charge Rinner = 0.769                       |
   | Partial core correction Rc = 0.769                       |
   | "2|1.1|15|18|20|20:21(qc=7)"                             |
   |      Author: Chris J. Pickard, Cambridge University      |

 Atomic calculation performed for Zr: 1s2 2s2 2p6 3s2 3p6 3d10 4s2 4p6 4d2 5s2

[...]

 Atomic calculation performed for Zr: 1s2 2s2 2p6 3s2 3p6 3d10 4s2 4p6 4d2 5s2

[...]

 Warning: ion_atom_descreen_psp: negative charge density encountered
   | Pseudopotential Report - Date of generation 17-05-2018   |
   | Element: Zr Ionic charge: 12.00 Level of theory: PBE     |
   | Atomic Solver: ZORA (scalar)                             |
   |               Reference Electronic Structure             |
   |         Orbital         Occupation         Energy        |
   |            4s              2.000           -2.003        |
   |            4p              6.000           -1.193        |
   |            5s              2.000           -0.163        |
   |            4d              2.000           -0.132        |
   |                 Pseudopotential Definition               |
   |        Beta     l      e      Rc     scheme   norm       |
   |          1      0   -2.003   2.105     qc      0         |
   |          2      0   -0.163   2.105     qc      0         |
   |          3      0    0.250   2.105     qc      0         |
   |          4      1   -1.193   2.105     qc      0         |
   |          5      1    0.250   2.105     qc      0         |
   |          6      2   -0.132   2.105     qc      0         |
   |          7      2    0.250   2.105     qc      0         |
   |         loc     3    0.000   2.105     pn      0         |
   | Augmentation charge Rinner = 1.471                       |
   | Partial core correction Rc = 1.471                       |
   | "3|2.1|7|8|9|40U:50:41:42"                               |
   |      Author: Chris J. Pickard, Cambridge University      |

 Atomic calculation performed for Sn:

[...]

 Atomic calculation performed for Sn:

[...]

   | Pseudopotential Report - Date of generation 17-05-2018   |
   | Element: Sn Ionic charge: 14.00 Level of theory: PBE     |
   | Atomic Solver: ZORA (scalar)                             |
   |               Reference Electronic Structure             |
   |         Orbital         Occupation         Energy        |
   |            4d             10.000           -0.950        |
   |            5s              2.000           -0.388        |
   |            5p              2.000           -0.136        |
   |                 Pseudopotential Definition               |
   |        Beta     l      e      Rc     scheme   norm       |
   |          1      0   -0.388   2.199     qc      0         |
   |          2      0    0.250   2.199     qc      0         |
   |          3      1   -0.136   2.199     qc      0         |
   |          4      1    0.250   2.199     qc      0         |
   |          5      2   -0.950   2.199     qc      0         |
   |          6      2    0.250   2.199     qc      0         |
   |         loc     3    0.000   2.199     pn      0         |
   | Augmentation charge Rinner = 1.537                       |
   | Partial core correction Rc = 1.537                       |
   | "3|2.2|7|8|9|50:51:42"                                   |
   |      Author: Chris J. Pickard, Cambridge University      |

 Atomic calculation performed for La:

 Converged in 56 iterations to an ae energy of -230121.495 eV

 Atomic calculation performed for La:

 Exceeded max iterations: converged to 0.000000907 eV

 Warning: ion_atom_descreen_psp: negative charge density encountered
   | Pseudopotential Report - Date of generation 17-05-2018   |
   | Element: La Ionic charge: 11.00 Level of theory: PBE     |
   | Atomic Solver: ZORA (scalar)                             |
   |               Reference Electronic Structure             |
   |         Orbital         Occupation         Energy        |
   |            5s              2.000           -1.430        |
   |            5p              6.000           -0.823        |
   |            6s              2.000           -0.135        |
   |            5d              1.000           -0.114        |
   |                 Pseudopotential Definition               |
   |        Beta     l      e      Rc     scheme   norm       |
   |          1      0   -1.430   2.298     qc      0         |
   |          2      0   -0.135   2.298     qc      0         |
   |          3      0    0.250   2.298     qc      0         |
   |          4      1   -0.823   2.298     qc      0         |
   |          5      1    0.250   2.298     qc      0         |
   |          6      2   -0.114   2.298     qc      0         |
   |          7      2    0.250   2.298     qc      0         |
   |         loc     2    0.000   2.298     pn      0         |
   | Augmentation charge Rinner = 1.606                       |
   | Partial core correction Rc = 1.606                       |
   | "2|2.3|5|6|7|50U:60:51:52(qc=4.5)"                       |
   |      Author: Chris J. Pickard, Cambridge University      |

 Pseudo atomic calculation performed for O 2s2 2p4

 Converged in 39 iterations to a total energy of -432.6554 eV

 Pseudo atomic calculation performed for Zr 4s2 4p6 4d2 5s2

[...]

 Calculation parallelised over 56 processes.
 Data is distributed by G-vector(4-way) and k-point(14-way)

 ************************************ Title ************************************
 nmr testing

 ***************************** General Parameters ******************************

 output verbosity                               : normal  (1)
 write checkpoint data to                       : 033.check
 type of calculation                            : Magnetic Resonance
 stress calculation                             : on
 density difference calculation                 : off
 electron localisation func (ELF) calculation   : off
 Hirshfeld analysis                             : off
 unlimited duration calculation
 timing information                             : on
 write final potential to formatted file        : off
 write final density to formatted file          : off
 write structure in CIF formatted file          : on
 write structure in CELL formatted file         : on
 write BibTeX reference list                    : on
 write OTFG pseudopotential files               : on
 checkpoint writing                             : both castep_bin and check files

 output         length unit                     : A
 output           mass unit                     : amu
 output           time unit                     : ps
 output         charge unit                     : e
 output           spin unit                     : hbar/2
 output         energy unit                     : eV
 output          force unit                     : eV/A
 output       velocity unit                     : A/ps
 output       pressure unit                     : GPa
 output     inv_length unit                     : 1/A
 output      frequency unit                     : cm-1
 output force constant unit                     : eV/A**2
 output         volume unit                     : A**3
 output   IR intensity unit                     : (D/A)**2/amu
 output         dipole unit                     : D
 output         efield unit                     : eV/A/e
 output        entropy unit                     : J/mol/K

 wavefunctions paging                           : none
 random number generator seed                   : randomised (150306929)
 data distribution                              : optimal for this architecture
[...]
  |    O          42      -90.37      83.44      0.17  -3.264E+00   0.10 |
  |    O          43      -90.95      89.57      0.09  -3.240E+00   0.07 |
  |    O          44      -89.82      95.65      0.33  -3.098E+00   0.08 |
  |    O          45     -163.87     159.87      0.84   1.080E+00   0.81 |
  |    O          46     -162.07     140.08      0.83   1.040E+00   0.64 |
  |    O          47      -87.61      84.10      0.10  -3.217E+00   0.11 |
  |    O          48      -87.64      83.70      0.26  -3.134E+00   0.09 |
  |    O          49      -87.94      76.30      0.09  -3.278E+00   0.11 |
  |    O          50      -88.62      84.92      0.23  -3.183E+00   0.09 |
  |    O          51     -160.64     140.02      0.76   1.056E+00   0.63 |
  |    O          52      -85.34      96.01      0.32  -3.191E+00   0.08 |
  |    O          53      -89.20      74.83      0.08  -3.265E+00   0.11 |
  |    O          54     -163.42     153.19      0.86   1.012E+00   0.81 |
  |    O          55      -91.06      82.97      0.17  -3.208E+00   0.11 |
  |    O          56      -89.01      85.01      0.09  -3.193E+00   0.09 |
  |    Zr          1     1622.63    -124.75      0.11  -3.654E+01   0.16 |
  |    Zr          2     1609.74    -113.86      0.04  -3.745E+01   0.01 |
  |    Zr          3     1614.23    -117.93      0.08  -3.660E+01   0.08 |
  |    Zr          4     1614.55    -117.83      0.10  -3.652E+01   0.06 |
[...]
  |    La          2     4604.28     525.26      0.07  -7.704E+01   0.07 |
  |    La          3     4702.57     750.79      0.04  -8.449E+01   0.09 |
  |    La          4     4705.33     760.52      0.04  -8.511E+01   0.09 |
  |    La          5     4651.38     628.32      0.01  -7.930E+01   0.03 |
  |    La          6     4612.73     522.93      0.06  -7.863E+01   0.07 |
  |    La          7     4750.46     869.43      0.03  -8.747E+01   0.06 |
  |    La          8     4562.15     372.06      0.05  -7.379E+01   0.10 |
  |    La          9     4652.21     627.93      0.02  -7.895E+01   0.02 |
  |    La         10     4654.80     661.69      0.09  -8.061E+01   0.12 |
  |    La         11     4598.20     517.89      0.09  -7.484E+01   0.07 |
  |    La         12     4652.67     626.57      0.01  -7.924E+01   0.01 |
  |    La         13     4701.15     772.33      0.04  -8.409E+01   0.07 |
  |    La         14     4612.23     505.85      0.08  -7.780E+01   0.08 |
  |    La         15     4663.88     647.85      0.07  -8.327E+01   0.14 |
  |    La         16     4653.36     662.05      0.09  -8.083E+01   0.13 |

 *********************** Forces ***********************
 *            Cartesian components (eV/A)             *
 *                   x            y            z      *
 * O         1      0.00140      0.00159     -0.00171 *
 * O         2     -0.00160      0.00243     -0.00069 *
 * O         3      0.01111      0.00303     -0.00062 *
 * O         4      0.00376      0.00415     -0.00295 *
 * O         5     -0.00473     -0.00053      0.00400 *
 * O         6     -0.00276      0.00122      0.00543 *
 * O         7      0.00002      0.00213      0.00041 *
 * O         8     -0.00126      0.00307      0.00840 *
 * O         9      0.00233      0.01221      0.01716 *
 * O        10     -0.02076      0.00014     -0.00840 *
 * O        11     -0.00739      0.00128      0.00563 *
 * O        12      0.00860      0.00531      0.00091 *
 * O        13      0.00470      0.00887     -0.00438 *
 * O        14     -0.01025      0.00887      0.01721 *
 * O        15      0.00622     -0.00462     -0.01204 *
 * O        16     -0.02060     -0.00141     -0.02769 *
 * O        17     -0.01295     -0.00997      0.00583 *
 * O        18     -0.00021      0.01165     -0.00213 *
 * O        19      0.01054     -0.01116     -0.00960 *
 * O        20      0.00325      0.01370      0.01215 *
 * O        21      0.00711      0.00981     -0.00403 *
 * O        22      0.00304     -0.00579      0.00282 *
 * O        23     -0.00397     -0.01010     -0.01772 *
 * O        24      0.01312      0.01204     -0.00995 *
 * O        25      0.00131      0.01198     -0.02048 *
 * O        26     -0.00214     -0.00430      0.00135 *
 * O        27     -0.01416     -0.00889     -0.00969 *
 * O        28      0.00971      0.01717     -0.01310 *
 * O        29      0.01862      0.02667      0.00144 *
 * O        30      0.00069      0.00165      0.00365 *
 * O        31     -0.00116     -0.00318     -0.00022 *
 * O        32      0.00399      0.00481     -0.00369 *
 * O        33      0.01156     -0.00111      0.01689 *
 * O        34     -0.00214      0.00402      0.00251 *
 * O        35     -0.00425     -0.00140     -0.01048 *
 * O        36      0.01422     -0.00365      0.02126 *
 * O        37     -0.00091     -0.00198      0.00954 *
 * O        38     -0.00712     -0.01177     -0.00703 *
 * O        39     -0.01162      0.00138      0.01783 *
 * O        40      0.00932      0.01580      0.01216 *
 * O        41      0.00921     -0.00056      0.00421 *
 * O        42     -0.01228     -0.02148      0.02008 *
 * O        43     -0.02430     -0.03585     -0.00005 *
 * O        44     -0.01245      0.00995      0.00414 *
 * O        45      0.01431     -0.00971     -0.01025 *
 * O        46     -0.00296      0.00124      0.00518 *
 * O        47     -0.01911      0.00872     -0.01206 *
 * O        48      0.00248      0.01011      0.00484 *
 * O        49      0.01845      0.01755     -0.01108 *
 * O        50     -0.00200     -0.00305     -0.01294 *
 * O        51     -0.00314     -0.00092     -0.00300 *
 * O        52     -0.01290     -0.01502     -0.01136 *
 * O        53      0.01507     -0.00831      0.01551 *
 * O        54      0.00486      0.00046     -0.01191 *
 * O        55     -0.02376     -0.01376      0.01722 *
 * O        56      0.00724      0.00487      0.01044 *
 * Zr        1      0.01862     -0.00589     -0.02185 *
 * Zr        2      0.00742      0.01362     -0.00277 *
 * Zr        3     -0.00338      0.01101     -0.01107 *
 * Zr        4     -0.00117     -0.01184      0.01602 *
[...]
 * La        2      0.00567      0.00292      0.00645 *
 * La        3     -0.02498     -0.01086      0.01145 *
 * La        4     -0.00550     -0.00067     -0.00244 *
 * La        5     -0.02184     -0.00090     -0.01884 *
 * La        6      0.00334      0.00338      0.00599 *
 * La        7      0.01278     -0.00328      0.01950 *
 * La        8      0.00158      0.00262      0.00166 *
 * La        9      0.00307     -0.00024     -0.00372 *
 * La       10      0.01076     -0.00115     -0.00929 *
 * La       11      0.01227     -0.00312      0.00411 *
 * La       12      0.00577     -0.00276     -0.00366 *
 * La       13      0.01771     -0.00286     -0.00755 *
 * La       14     -0.01201     -0.00319     -0.00923 *
 * La       15      0.00790      0.00925      0.00546 *
 * La       16     -0.00287     -0.00233      0.00728 *

 ***************** Stress Tensor *****************
 *          Cartesian components (GPa)           *
 *             x             y             z     *
 *  x      0.054738      0.024272     -0.006227  *
 *  y      0.024272      0.044873     -0.024719  *
 *  z     -0.006227     -0.024719      0.026194  *
 *  Pressure:   -0.0419                          *

[...]

 Pseudo atomic calculation performed for Sn 4d10 5s2 5p2

[...]

 Pseudo atomic calculation performed for La 5s2 5p6 5d1 6s2

 Converged in 34 iterations to a total energy of -968.0372 eV

Charge spilling parameter for spin component 1 = 0.24%

     Atomic Populations (Mulliken)
Species   Ion     s      p      d      f     Total  Charge (e)
  O        1     1.87   5.00   0.00   0.00   6.87    -0.87
  O        2     1.87   5.00   0.00   0.00   6.87    -0.87
  O        3     1.87   5.00   0.00   0.00   6.87    -0.87
  O        4     1.87   5.00   0.00   0.00   6.87    -0.87
  O        5     1.87   5.00   0.00   0.00   6.87    -0.87
  O        6     1.87   5.00   0.00   0.00   6.87    -0.87
  O        7     1.87   5.00   0.00   0.00   6.87    -0.87
  O        8     1.87   5.00   0.00   0.00   6.87    -0.87
  O        9     1.87   4.99   0.00   0.00   6.86    -0.86
  O       10     1.86   4.95   0.00   0.00   6.80    -0.80
  O       11     1.88   5.02   0.00   0.00   6.91    -0.91
  O       12     1.88   5.02   0.00   0.00   6.91    -0.91
  O       13     1.88   5.02   0.00   0.00   6.91    -0.91
  O       14     1.87   4.99   0.00   0.00   6.85    -0.85
  O       15     1.87   4.99   0.00   0.00   6.86    -0.86
  O       16     1.87   4.99   0.00   0.00   6.86    -0.86
  O       17     1.87   4.99   0.00   0.00   6.86    -0.86
  O       18     1.88   5.02   0.00   0.00   6.91    -0.91
  O       19     1.87   4.99   0.00   0.00   6.86    -0.86
  O       20     1.86   4.95   0.00   0.00   6.80    -0.80
  O       21     1.88   5.02   0.00   0.00   6.91    -0.91
  O       22     1.88   5.02   0.00   0.00   6.91    -0.91
  O       23     1.86   4.95   0.00   0.00   6.80    -0.80
  O       24     1.87   4.99   0.00   0.00   6.86    -0.86
  O       25     1.87   4.99   0.00   0.00   6.86    -0.86
  O       26     1.88   5.02   0.00   0.00   6.91    -0.91
  O       27     1.86   4.95   0.00   0.00   6.80    -0.80
  O       28     1.87   4.99   0.00   0.00   6.86    -0.86
  O       29     1.87   4.99   0.00   0.00   6.86    -0.86
  O       30     1.88   5.02   0.00   0.00   6.91    -0.91
  O       31     1.86   4.95   0.00   0.00   6.80    -0.80
  O       32     1.88   5.02   0.00   0.00   6.91    -0.91
  O       33     1.87   4.99   0.00   0.00   6.86    -0.86
  O       34     1.88   5.02   0.00   0.00   6.91    -0.91
  O       35     1.86   4.95   0.00   0.00   6.80    -0.80
  O       36     1.87   4.99   0.00   0.00   6.86    -0.86
  O       37     1.88   5.02   0.00   0.00   6.91    -0.91
  O       38     1.86   4.95   0.00   0.00   6.80    -0.80
  O       39     1.87   4.99   0.00   0.00   6.86    -0.86
  O       40     1.86   4.95   0.00   0.00   6.80    -0.80
  O       41     1.88   5.02   0.00   0.00   6.91    -0.91
  O       42     1.87   4.99   0.00   0.00   6.86    -0.86
  O       43     1.87   4.99   0.00   0.00   6.86    -0.86
  O       44     1.87   4.99   0.00   0.00   6.85    -0.85
  O       45     1.85   4.95   0.00   0.00   6.80    -0.80
  O       46     1.86   4.95   0.00   0.00   6.80    -0.80
  O       47     1.87   4.99   0.00   0.00   6.86    -0.86
  O       48     1.87   4.99   0.00   0.00   6.86    -0.86
  O       49     1.87   4.99   0.00   0.00   6.86    -0.86
  O       50     1.87   4.99   0.00   0.00   6.86    -0.86
  O       51     1.86   4.95   0.00   0.00   6.80    -0.80
  O       52     1.87   4.99   0.00   0.00   6.86    -0.86
  O       53     1.87   4.99   0.00   0.00   6.86    -0.86
  O       54     1.86   4.95   0.00   0.00   6.80    -0.80
  O       55     1.87   4.99   0.00   0.00   6.86    -0.86
  O       56     1.87   4.99   0.00   0.00   6.86    -0.86
  Zr       1     2.37   6.49   1.92   0.00  10.78     1.22
  Zr       2     2.36   6.49   1.92   0.00  10.77     1.23
  Zr       3     2.37   6.49   1.92   0.00  10.78     1.22
  Zr       4     2.37   6.49   1.92   0.00  10.78     1.22
[...]
  La       2     2.10   6.19   1.19   0.00   9.48     1.52
  La       3     2.05   6.16   1.19   0.00   9.41     1.59
  La       4     2.02   6.16   1.19   0.00   9.38     1.62
  La       5     2.08   6.17   1.19   0.00   9.45     1.55
  La       6     2.09   6.19   1.19   0.00   9.47     1.53
  La       7     2.01   6.15   1.20   0.00   9.35     1.65
  La       8     2.11   6.21   1.19   0.00   9.51     1.49
  La       9     2.08   6.17   1.19   0.00   9.45     1.55
  La      10     2.06   6.17   1.19   0.00   9.42     1.58
  La      11     2.09   6.18   1.19   0.00   9.47     1.53
  La      12     2.06   6.17   1.19   0.00   9.43     1.57
  La      13     2.03   6.16   1.20   0.00   9.38     1.62
  La      14     2.08   6.19   1.19   0.00   9.46     1.54
  La      15     2.06   6.18   1.19   0.00   9.43     1.57
  La      16     2.06   6.17   1.19   0.00   9.42     1.58

            Bond              Population      Length (A)
         O 9  -- Sn 7              0.35        2.09860
         O 36 -- Sn 8              0.35        2.09907
         O 52 -- Sn 7              0.35        2.10005
         O 42 -- Sn 5              0.35        2.10026
         O 49 -- Sn 1              0.35        2.10070
         O 19 -- Sn 3              0.35        2.10099
         O 16 -- Sn 8              0.35        2.10130
         O 47 -- Sn 1              0.34        2.10236
         O 43 -- Sn 6              0.35        2.10275
         O 53 -- Sn 2              0.35        2.10308
         O 15 -- Sn 4              0.34        2.10315
         O 24 -- Sn 7              0.34        2.10430
         O 55 -- Sn 2              0.34        2.10431
         O 29 -- Sn 6              0.35        2.10439
         O 33 -- Sn 4              0.34        2.10528
         O 28 -- Sn 3              0.34        2.10632
         O 39 -- Sn 1              0.35        2.10810
         O 25 -- Sn 5              0.35        2.10847
         O 48 -- Sn 4              0.34        2.10891
         O 37 -- Sn 3              0.34        2.10893
         O 56 -- Sn 3              0.34        2.10904
         O 45 -- Zr 8              0.41        2.10947
         O 37 -- Sn 1              0.34        2.11040
         O 17 -- Sn 8              0.34        2.11044
         O 50 -- Sn 5              0.34        2.11061
         O 14 -- Sn 7              0.34        2.11070
         O 32 -- Sn 4              0.34        2.11123
         O 45 -- Zr 1              0.42        2.11132
         O 18 -- Sn 2              0.34        2.11179
         O 34 -- Sn 6              0.34        2.11212
         O 43 -- Zr 2              0.44        2.11272
         O 32 -- Sn 8              0.34        2.11287
         O 21 -- Sn 4              0.34        2.11291
         O 44 -- Sn 7              0.33        2.11302
         O 22 -- Sn 3              0.34        2.11323
         O 30 -- Sn 7              0.33        2.11325
         O 10 -- Zr 7              0.42        2.11336
         O 13 -- Sn 5              0.34        2.11339
         O 30 -- Sn 5              0.33        2.11345
         O 10 -- Zr 5              0.41        2.11372
         O 16 -- Zr 5              0.45        2.11377
         O 28 -- Zr 4              0.44        2.11388
         O 26 -- Sn 2              0.33        2.11402
         O 18 -- Sn 5              0.33        2.11417
         O 26 -- Sn 8              0.33        2.11478
         O 13 -- Sn 6              0.33        2.11520
         O 12 -- Sn 6              0.33        2.11559
         O 52 -- Zr 1              0.44        2.11571
         O 33 -- Zr 3              0.44        2.11588
         O 22 -- Sn 6              0.33        2.11611
         O 34 -- Sn 1              0.33        2.11616
         O 42 -- Zr 2              0.44        2.11633
         O 21 -- Sn 2              0.34        2.11650
         O 36 -- Zr 3              0.44        2.11671
         O 40 -- Zr 3              0.42        2.11677
         O 23 -- Zr 6              0.43        2.11693
         O 20 -- Zr 4              0.42        2.11731
         O 55 -- Zr 2              0.44        2.11738
         O 24 -- Zr 7              0.45        2.11744
         O 12 -- Sn 2              0.33        2.11759
[...]
         O 29 -- O 46             -0.03        2.82736
         O 16 -- O 31             -0.03        2.82758
         O 39 -- O 54             -0.03        2.82761
         O 33 -- O 44             -0.03        2.82797
         O 16 -- O 51             -0.03        2.82799
         O 15 -- O 31             -0.03        2.82875
         O 36 -- O 46             -0.03        2.82887
         O 54 -- O 56             -0.03        2.82895
         O 51 -- O 55             -0.03        2.82961
         O 35 -- O 43             -0.03        2.83042
         O 47 -- O 51             -0.03        2.83145
         O 25 -- O 39             -0.03        2.83450
         O 14 -- O 29             -0.03        2.83580
         O 48 -- O 50             -0.03        2.83960
         O 17 -- O 25             -0.03        2.84100

Writing analysis data to 033.castep_bin

Writing model to 033.check

 A BibTeX formatted list of references used in this run has been written to
 033.bib

Initialisation time =     53.44 s
Calculation time    =  33818.31 s
Finalisation time   =     75.08 s
Total time          =  33946.83 s

Overall parallel efficiency rating: Good (78%)

Data was distributed by:-
G-vector (4-way); efficiency rating: Good (79%)
k-point (14-way); efficiency rating: Excellent (99%)