 Compiled for linux_x86_64_ifort16 on Sat, 23 Jul 2016 23:44:54 +0100
 from code version
 203e84763863+ Castep161_branch Fri, 04 Mar 2016 19:21:07 +0000
 Compiler: Intel Fortran 16.0.3.210; Optimisation: fast
 MATHLIBS: Intel MKL(11.3.3) (LAPACK version 3.6.0)
 FFT Lib : mkl
 Fundamental constants values: CODATA 2010

 Run started: Fri, 18 May 2018 19:16:39 +0100
 |           N   N    M   M    RRRR                |
 |           NN  N    MM MM    R   R               |
 |           N N N    M M M    RRRR                |
 |           N  NN    M   M    R  R                |
 |           N   N    M   M    R   R               |
 | Welcome to Materials Studio CASTEP-NMR          |
 | Authors:                                        |
 | J.R. Yates, C.J. Pickard, F. Mauri              |
 | Contributors:                                   |
 | T.F.G. Green, S.A. Joyce                        |
 | Copyright (c) 2004 - 2015                       |
 | Please cite the appropriate publications in all |
 | work arising from your use of CASTEP NMR.       |
 | For NMR Shielding Tensors cite:                 |
 |    "All-electron magnetic response with         |
 |    pseudopotentials: NMR chemical shifts",      |
 |    C. J. Pickard, F. Mauri;                     |
 |    Physical Review B63 245101 (2001), and       |
 |    "Calculation of NMR Chemical Shifts          |
 |    for extended systems using                   |
 |    Ultrasoft Pseudopotentials",                 |
 |    J. R. Yates, C. J. Pickard and F. Mauri      |
 |    Physical Review B76 024401 (2007)            |
 | For Electric Field Gradients cite:              |
 |   "Accurate First Principles Prediction of 17O  |
 |    NMR Parameters in SiO2: Assignment of the    |
 |    Zeolite Ferrierite Spectrum"                 |
 |    M. Profeta, F. Mauri and C. J. Pickard       |
 |    J. Amer. Chem. Soc. 125 541 (2003)           |
 | For Spin-Spin (J) Couplings cite:               |
 |   "A first principles theory of NMR J-coupling  |
 |   in solid-state systems"                       |
 |   S.A. Joyce, J.R. Yates, C.J. Pickard, F. Mauri|
 |   J. Chem. Phys. 127 204107 (2007)              |
 |   "Relativistic NMR J-coupling with ultrasoft   |
 |   pseudopotentials and the zeroth-order regular |
 |   approximation"                                |
 |   T.F.G. Green and J.R. Yates                   |
 |   J. Chem. Phys. 140 234106 (2014)              |

 Atomic calculation performed for O: 1s2 2s2 2p4

 Converged in 44 iterations to an ae energy of -2040.855 eV

 Atomic calculation performed for O: 1s2 2s2 2p4

 Exceeded max iterations: converged to 0.000000062 eV

   | Pseudopotential Report - Date of generation 18-05-2018   |
   | Element: O Ionic charge:  6.00 Level of theory: PBE      |
   | Atomic Solver: ZORA (scalar)                             |
   |               Reference Electronic Structure             |
   |         Orbital         Occupation         Energy        |
   |            2s              2.000           -0.881        |
   |            2p              4.000           -0.332        |
   |                 Pseudopotential Definition               |
   |        Beta     l      e      Rc     scheme   norm       |
   |          1      0   -0.881   1.100     qc      0         |
   |          2      0    0.250   1.100     qc      0         |
   |          3      1   -0.332   1.100     qc      0         |
   |          4      1    0.250   1.100     qc      0         |
   |         loc     2    0.000   1.100     pn      0         |
   | Augmentation charge Rinner = 0.769                       |
   | Partial core correction Rc = 0.769                       |
   | "2|1.1|15|18|20|20:21(qc=7)"                             |
   |      Author: Chris J. Pickard, Cambridge University      |

 Atomic calculation performed for Zr: 1s2 2s2 2p6 3s2 3p6 3d10 4s2 4p6 4d2 5s2

[...]

 Atomic calculation performed for Zr: 1s2 2s2 2p6 3s2 3p6 3d10 4s2 4p6 4d2 5s2

[...]

 Warning: ion_atom_descreen_psp: negative charge density encountered
   | Pseudopotential Report - Date of generation 18-05-2018   |
   | Element: Zr Ionic charge: 12.00 Level of theory: PBE     |
   | Atomic Solver: ZORA (scalar)                             |
   |               Reference Electronic Structure             |
   |         Orbital         Occupation         Energy        |
   |            4s              2.000           -2.003        |
   |            4p              6.000           -1.193        |
   |            5s              2.000           -0.163        |
   |            4d              2.000           -0.132        |
   |                 Pseudopotential Definition               |
   |        Beta     l      e      Rc     scheme   norm       |
   |          1      0   -2.003   2.105     qc      0         |
   |          2      0   -0.163   2.105     qc      0         |
   |          3      0    0.250   2.105     qc      0         |
   |          4      1   -1.193   2.105     qc      0         |
   |          5      1    0.250   2.105     qc      0         |
   |          6      2   -0.132   2.105     qc      0         |
   |          7      2    0.250   2.105     qc      0         |
   |         loc     3    0.000   2.105     pn      0         |
   | Augmentation charge Rinner = 1.471                       |
   | Partial core correction Rc = 1.471                       |
   | "3|2.1|7|8|9|40U:50:41:42"                               |
   |      Author: Chris J. Pickard, Cambridge University      |

 Atomic calculation performed for Sn:

[...]

 Atomic calculation performed for Sn:

[...]

   | Pseudopotential Report - Date of generation 18-05-2018   |
   | Element: Sn Ionic charge: 14.00 Level of theory: PBE     |
   | Atomic Solver: ZORA (scalar)                             |
   |               Reference Electronic Structure             |
   |         Orbital         Occupation         Energy        |
   |            4d             10.000           -0.950        |
   |            5s              2.000           -0.388        |
   |            5p              2.000           -0.136        |
   |                 Pseudopotential Definition               |
   |        Beta     l      e      Rc     scheme   norm       |
   |          1      0   -0.388   2.199     qc      0         |
   |          2      0    0.250   2.199     qc      0         |
   |          3      1   -0.136   2.199     qc      0         |
   |          4      1    0.250   2.199     qc      0         |
   |          5      2   -0.950   2.199     qc      0         |
   |          6      2    0.250   2.199     qc      0         |
   |         loc     3    0.000   2.199     pn      0         |
   | Augmentation charge Rinner = 1.537                       |
   | Partial core correction Rc = 1.537                       |
   | "3|2.2|7|8|9|50:51:42"                                   |
   |      Author: Chris J. Pickard, Cambridge University      |

 Atomic calculation performed for La:

 Converged in 56 iterations to an ae energy of -230121.495 eV

 Atomic calculation performed for La:

 Exceeded max iterations: converged to 0.000000907 eV

 Warning: ion_atom_descreen_psp: negative charge density encountered
   | Pseudopotential Report - Date of generation 18-05-2018   |
   | Element: La Ionic charge: 11.00 Level of theory: PBE     |
   | Atomic Solver: ZORA (scalar)                             |
   |               Reference Electronic Structure             |
   |         Orbital         Occupation         Energy        |
   |            5s              2.000           -1.430        |
   |            5p              6.000           -0.823        |
   |            6s              2.000           -0.135        |
   |            5d              1.000           -0.114        |
   |                 Pseudopotential Definition               |
   |        Beta     l      e      Rc     scheme   norm       |
   |          1      0   -1.430   2.298     qc      0         |
   |          2      0   -0.135   2.298     qc      0         |
   |          3      0    0.250   2.298     qc      0         |
   |          4      1   -0.823   2.298     qc      0         |
   |          5      1    0.250   2.298     qc      0         |
   |          6      2   -0.114   2.298     qc      0         |
   |          7      2    0.250   2.298     qc      0         |
   |         loc     2    0.000   2.298     pn      0         |
   | Augmentation charge Rinner = 1.606                       |
   | Partial core correction Rc = 1.606                       |
   | "2|2.3|5|6|7|50U:60:51:52(qc=4.5)"                       |
   |      Author: Chris J. Pickard, Cambridge University      |

 Pseudo atomic calculation performed for O 2s2 2p4

 Converged in 39 iterations to a total energy of -432.6554 eV

 Pseudo atomic calculation performed for Zr 4s2 4p6 4d2 5s2

[...]

 Calculation parallelised over 56 processes.
 Data is distributed by G-vector(4-way) and k-point(14-way)

 ************************************ Title ************************************
 nmr testing

 ***************************** General Parameters ******************************

 output verbosity                               : normal  (1)
 write checkpoint data to                       : 036.check
 type of calculation                            : Magnetic Resonance
 stress calculation                             : on
 density difference calculation                 : off
 electron localisation func (ELF) calculation   : off
 Hirshfeld analysis                             : off
 unlimited duration calculation
 timing information                             : on
 write final potential to formatted file        : off
 write final density to formatted file          : off
 write structure in CIF formatted file          : on
 write structure in CELL formatted file         : on
 write BibTeX reference list                    : on
 write OTFG pseudopotential files               : on
 checkpoint writing                             : both castep_bin and check files

 output         length unit                     : A
 output           mass unit                     : amu
 output           time unit                     : ps
 output         charge unit                     : e
 output           spin unit                     : hbar/2
 output         energy unit                     : eV
 output          force unit                     : eV/A
 output       velocity unit                     : A/ps
 output       pressure unit                     : GPa
 output     inv_length unit                     : 1/A
 output      frequency unit                     : cm-1
 output force constant unit                     : eV/A**2
 output         volume unit                     : A**3
 output   IR intensity unit                     : (D/A)**2/amu
 output         dipole unit                     : D
 output         efield unit                     : eV/A/e
 output        entropy unit                     : J/mol/K

 wavefunctions paging                           : none
 random number generator seed                   : randomised (191642262)
 data distribution                              : optimal for this architecture
[...]
  |    O          42      -87.25      86.93      0.07  -3.179E+00   0.09 |
  |    O          43     -161.36     149.28      0.86   1.082E+00   0.71 |
  |    O          44      -85.06      86.17      0.13  -3.164E+00   0.08 |
  |    O          45      -89.76      93.46      0.30  -3.165E+00   0.07 |
  |    O          46     -161.94     153.62      0.79   1.027E+00   0.79 |
  |    O          47      -89.83      86.57      0.17  -3.238E+00   0.12 |
  |    O          48      -90.56      84.82      0.16  -3.171E+00   0.06 |
  |    O          49      -89.83      86.57      0.17  -3.238E+00   0.12 |
  |    O          50      -90.56      84.82      0.16  -3.171E+00   0.06 |
  |    O          51     -161.94     153.62      0.79   1.027E+00   0.79 |
  |    O          52      -89.76      93.46      0.30  -3.165E+00   0.07 |
  |    O          53      -89.83      86.57      0.17  -3.238E+00   0.12 |
  |    O          54      -90.56      84.82      0.16  -3.171E+00   0.06 |
  |    O          55      -89.83      86.57      0.17  -3.238E+00   0.12 |
  |    O          56      -90.56      84.82      0.16  -3.171E+00   0.06 |
  |    Zr          1     1594.02    -111.28      0.07  -3.495E+01   0.09 |
  |    Zr          2     1628.18    -124.75      0.12  -3.751E+01   0.05 |
  |    Zr          3     1628.18    -124.75      0.12  -3.751E+01   0.05 |
  |    Zr          4     1628.18    -124.75      0.12  -3.751E+01   0.05 |
[...]
  |    La          2     4658.68     657.06      0.08  -8.204E+01   0.09 |
  |    La          3     4658.68     657.06      0.08  -8.204E+01   0.09 |
  |    La          4     4711.94     756.02      0.03  -8.600E+01   0.04 |
  |    La          5     4658.68     657.06      0.08  -8.204E+01   0.09 |
  |    La          6     4658.68     657.06      0.08  -8.204E+01   0.09 |
  |    La          7     4711.94     756.02      0.03  -8.600E+01   0.04 |
  |    La          8     4491.68     223.15      0.03  -6.708E+01   0.02 |
  |    La          9     4654.08     656.11      0.11  -8.026E+01   0.14 |
  |    La         10     4654.08     656.12      0.11  -8.026E+01   0.14 |
  |    La         11     4654.08     656.12      0.11  -8.026E+01   0.14 |
  |    La         12     4654.08     656.12      0.11  -8.026E+01   0.14 |
  |    La         13     4597.99     555.68      0.10  -7.613E+01   0.20 |
  |    La         14     4710.82     744.28      0.03  -8.492E+01   0.08 |
  |    La         15     4710.82     744.28      0.03  -8.492E+01   0.08 |
  |    La         16     4597.99     555.68      0.10  -7.613E+01   0.20 |

 *********************** Forces ***********************
 *            Cartesian components (eV/A)             *
 *                   x            y            z      *
 * O         1     -0.00846     -0.00375     -0.00375 *
 * O         2      0.00130     -0.00059     -0.00016 *
 * O         3      0.00231      0.00500      0.00500 *
 * O         4      0.00130     -0.00016     -0.00059 *
 * O         5     -0.00231     -0.00500     -0.00500 *
 * O         6      0.00846      0.00374      0.00374 *
 * O         7     -0.00130      0.00016      0.00059 *
 * O         8     -0.00130      0.00059      0.00016 *
 * O         9     -0.00452      0.03273      0.03273 *
 * O        10     -0.00575      0.01978     -0.02102 *
 * O        11     -0.01032      0.00320      0.00320 *
 * O        12      0.00592      0.02726      0.01856 *
 * O        13      0.02504     -0.00296      0.02213 *
 * O        14     -0.01717     -0.00035      0.02120 *
 * O        15      0.00180     -0.00709      0.00282 *
 * O        16     -0.00440      0.00853     -0.00175 *
 * O        17      0.02504      0.02213     -0.00296 *
 * O        18     -0.00151      0.00239     -0.01136 *
 * O        19      0.00180      0.00282     -0.00709 *
 * O        20      0.01638      0.01589      0.00878 *
 * O        21      0.00151      0.01136     -0.00239 *
 * O        22     -0.02504      0.00296     -0.02213 *
 * O        23     -0.01638     -0.00878     -0.01589 *
 * O        24     -0.00180      0.00709     -0.00282 *
 * O        25      0.01032     -0.00320     -0.00320 *
 * O        26     -0.00592     -0.01856     -0.02726 *
 * O        27      0.00452     -0.03273     -0.03273 *
 * O        28      0.00575      0.02102     -0.01977 *
 * O        29      0.00440      0.00175     -0.00853 *
 * O        30     -0.00180     -0.00282      0.00709 *
 * O        31      0.01717     -0.02120      0.00035 *
 * O        32     -0.02504     -0.02213      0.00296 *
 * O        33      0.00575     -0.01977      0.02102 *
 * O        34     -0.00592     -0.02726     -0.01856 *
 * O        35      0.01717      0.00035     -0.02120 *
 * O        36      0.00440     -0.00853      0.00175 *
 * O        37      0.00151     -0.00239      0.01136 *
 * O        38     -0.01638     -0.01589     -0.00878 *
 * O        39     -0.00151     -0.01136      0.00239 *
 * O        40      0.01638      0.00878      0.01589 *
 * O        41      0.00592      0.01856      0.02726 *
 * O        42     -0.00575     -0.02102      0.01978 *
 * O        43     -0.00440     -0.00175      0.00853 *
 * O        44     -0.01717      0.02120     -0.00034 *
 * O        45      0.01284      0.01615      0.01615 *
 * O        46     -0.00733     -0.00146     -0.00146 *
 * O        47     -0.02144      0.01264     -0.01703 *
 * O        48      0.01605      0.02127      0.00505 *
 * O        49      0.02144      0.01703     -0.01264 *
 * O        50     -0.01605     -0.00505     -0.02127 *
 * O        51      0.00732      0.00145      0.00145 *
 * O        52     -0.01284     -0.01615     -0.01615 *
 * O        53      0.02144     -0.01264      0.01703 *
 * O        54     -0.01605     -0.02127     -0.00505 *
 * O        55     -0.02144     -0.01703      0.01264 *
 * O        56      0.01605      0.00505      0.02127 *
 * Zr        1     -0.00000     -0.00000     -0.00000 *
 * Zr        2      0.01447      0.00600      0.00307 *
 * Zr        3     -0.01447     -0.00307     -0.00600 *
 * Zr        4     -0.01447     -0.00600     -0.00306 *
[...]
 * La        2      0.00182      0.01008     -0.00006 *
 * La        3     -0.00182      0.00005     -0.01007 *
 * La        4     -0.00000      0.00515     -0.00515 *
 * La        5     -0.00182     -0.01008      0.00005 *
 * La        6      0.00182     -0.00005      0.01007 *
 * La        7     -0.00000     -0.00515      0.00515 *
 * La        8      0.00000     -0.00000     -0.00000 *
 * La        9     -0.00907      0.00373     -0.00385 *
 * La       10      0.00907      0.00385     -0.00373 *
 * La       11      0.00907     -0.00373      0.00386 *
 * La       12     -0.00907     -0.00385      0.00373 *
 * La       13     -0.00000      0.00000     -0.00000 *
 * La       14     -0.01547     -0.01467     -0.01467 *
 * La       15      0.01548      0.01467      0.01467 *
 * La       16     -0.00000     -0.00000      0.00000 *

 ***************** Stress Tensor *****************
 *          Cartesian components (GPa)           *
 *             x             y             z     *
 *  x      0.024372      0.014556      0.014556  *
 *  y      0.014556      0.022266      0.004567  *
 *  z      0.014556      0.004567      0.022266  *
 *  Pressure:   -0.0230                          *

[...]

 Pseudo atomic calculation performed for Sn 4d10 5s2 5p2

[...]

 Pseudo atomic calculation performed for La 5s2 5p6 5d1 6s2

 Converged in 34 iterations to a total energy of -968.0372 eV

Charge spilling parameter for spin component 1 = 0.24%

     Atomic Populations (Mulliken)
Species   Ion     s      p      d      f     Total  Charge (e)
  O        1     1.87   5.00   0.00   0.00   6.87    -0.87
  O        2     1.87   5.00   0.00   0.00   6.87    -0.87
  O        3     1.87   5.00   0.00   0.00   6.87    -0.87
  O        4     1.87   5.00   0.00   0.00   6.87    -0.87
  O        5     1.87   5.00   0.00   0.00   6.87    -0.87
  O        6     1.87   5.00   0.00   0.00   6.87    -0.87
  O        7     1.87   5.00   0.00   0.00   6.87    -0.87
  O        8     1.87   5.00   0.00   0.00   6.87    -0.87
  O        9     1.87   4.99   0.00   0.00   6.85    -0.85
  O       10     1.87   4.99   0.00   0.00   6.86    -0.86
  O       11     1.88   5.02   0.00   0.00   6.91    -0.91
  O       12     1.87   4.99   0.00   0.00   6.86    -0.86
  O       13     1.87   4.99   0.00   0.00   6.86    -0.86
  O       14     1.87   4.99   0.00   0.00   6.85    -0.85
  O       15     1.88   5.03   0.00   0.00   6.91    -0.91
  O       16     1.86   4.95   0.00   0.00   6.80    -0.80
  O       17     1.87   4.99   0.00   0.00   6.86    -0.86
  O       18     1.88   5.02   0.00   0.00   6.91    -0.91
  O       19     1.88   5.03   0.00   0.00   6.91    -0.91
  O       20     1.86   4.95   0.00   0.00   6.80    -0.80
  O       21     1.88   5.02   0.00   0.00   6.91    -0.91
  O       22     1.87   4.99   0.00   0.00   6.86    -0.86
  O       23     1.86   4.95   0.00   0.00   6.80    -0.80
  O       24     1.88   5.03   0.00   0.00   6.91    -0.91
  O       25     1.88   5.03   0.00   0.00   6.91    -0.91
  O       26     1.87   4.99   0.00   0.00   6.86    -0.86
  O       27     1.87   4.99   0.00   0.00   6.85    -0.85
  O       28     1.87   4.99   0.00   0.00   6.86    -0.86
  O       29     1.86   4.95   0.00   0.00   6.80    -0.80
  O       30     1.88   5.03   0.00   0.00   6.91    -0.91
  O       31     1.87   4.99   0.00   0.00   6.85    -0.85
  O       32     1.87   4.99   0.00   0.00   6.86    -0.86
  O       33     1.87   4.99   0.00   0.00   6.86    -0.86
  O       34     1.87   4.99   0.00   0.00   6.86    -0.86
  O       35     1.87   4.99   0.00   0.00   6.85    -0.85
  O       36     1.86   4.95   0.00   0.00   6.80    -0.80
  O       37     1.88   5.02   0.00   0.00   6.91    -0.91
  O       38     1.86   4.95   0.00   0.00   6.80    -0.80
  O       39     1.88   5.02   0.00   0.00   6.91    -0.91
  O       40     1.86   4.95   0.00   0.00   6.80    -0.80
  O       41     1.87   4.99   0.00   0.00   6.86    -0.86
  O       42     1.87   4.99   0.00   0.00   6.86    -0.86
  O       43     1.86   4.95   0.00   0.00   6.80    -0.80
  O       44     1.87   4.99   0.00   0.00   6.85    -0.85
  O       45     1.87   4.99   0.00   0.00   6.86    -0.86
  O       46     1.86   4.95   0.00   0.00   6.80    -0.80
  O       47     1.87   4.99   0.00   0.00   6.86    -0.86
  O       48     1.87   4.99   0.00   0.00   6.86    -0.86
  O       49     1.87   4.99   0.00   0.00   6.86    -0.86
  O       50     1.87   4.99   0.00   0.00   6.86    -0.86
  O       51     1.86   4.95   0.00   0.00   6.80    -0.80
  O       52     1.87   4.99   0.00   0.00   6.86    -0.86
  O       53     1.87   4.99   0.00   0.00   6.86    -0.86
  O       54     1.87   4.99   0.00   0.00   6.86    -0.86
  O       55     1.87   4.99   0.00   0.00   6.86    -0.86
  O       56     1.87   4.99   0.00   0.00   6.86    -0.86
  Zr       1     2.37   6.51   1.92   0.00  10.80     1.20
  Zr       2     2.37   6.48   1.92   0.00  10.77     1.23
  Zr       3     2.37   6.48   1.92   0.00  10.77     1.23
  Zr       4     2.37   6.48   1.92   0.00  10.77     1.23
[...]
  La       2     2.07   6.18   1.19   0.00   9.44     1.56
  La       3     2.07   6.18   1.19   0.00   9.44     1.56
  La       4     2.02   6.17   1.19   0.00   9.38     1.62
  La       5     2.07   6.18   1.19   0.00   9.44     1.56
  La       6     2.07   6.18   1.19   0.00   9.44     1.56
  La       7     2.02   6.17   1.19   0.00   9.38     1.62
  La       8     2.15   6.21   1.19   0.00   9.56     1.44
  La       9     2.05   6.17   1.19   0.00   9.42     1.58
  La      10     2.05   6.17   1.19   0.00   9.42     1.58
  La      11     2.05   6.17   1.19   0.00   9.42     1.58
  La      12     2.05   6.17   1.19   0.00   9.42     1.58
  La      13     2.11   6.17   1.19   0.00   9.48     1.52
  La      14     2.03   6.17   1.19   0.00   9.39     1.61
  La      15     2.03   6.17   1.19   0.00   9.39     1.61
  La      16     2.11   6.17   1.19   0.00   9.48     1.52

            Bond              Population      Length (A)
         O 53 -- Sn 2              0.34        2.10365
         O 47 -- Sn 1              0.34        2.10365
         O 49 -- Sn 1              0.34        2.10365
         O 55 -- Sn 2              0.34        2.10365
         O 24 -- Sn 7              0.34        2.10548
         O 30 -- Sn 7              0.34        2.10548
         O 19 -- Sn 8              0.34        2.10548
         O 15 -- Sn 8              0.34        2.10548
         O 45 -- Sn 8              0.34        2.10561
         O 52 -- Sn 7              0.34        2.10561
         O 19 -- Sn 4              0.33        2.10657
         O 30 -- Sn 6              0.33        2.10657
         O 15 -- Sn 5              0.33        2.10657
         O 24 -- Sn 3              0.33        2.10657
         O 42 -- Sn 6              0.34        2.10707
         O 10 -- Sn 3              0.34        2.10707
         O 28 -- Sn 4              0.34        2.10707
         O 33 -- Sn 5              0.34        2.10707
         O 34 -- Sn 1              0.34        2.10719
         O 12 -- Sn 2              0.34        2.10719
         O 26 -- Sn 2              0.34        2.10719
         O 41 -- Sn 1              0.34        2.10719
         O 48 -- Sn 5              0.35        2.10870
         O 54 -- Sn 3              0.35        2.10870
         O 56 -- Sn 4              0.35        2.10870
         O 50 -- Sn 6              0.35        2.10870
         O 27 -- Sn 8              0.35        2.10890
         O 9  -- Sn 7              0.35        2.10890
         O 32 -- Sn 5              0.35        2.11050
         O 22 -- Sn 4              0.35        2.11050
         O 17 -- Sn 3              0.35        2.11050
         O 13 -- Sn 6              0.35        2.11050
         O 14 -- Sn 7              0.34        2.11052
         O 35 -- Sn 8              0.34        2.11052
         O 31 -- Sn 8              0.34        2.11052
         O 44 -- Sn 7              0.34        2.11052
         O 11 -- Sn 4              0.34        2.11076
         O 11 -- Sn 5              0.34        2.11076
         O 25 -- Sn 3              0.34        2.11076
         O 25 -- Sn 6              0.34        2.11076
         O 29 -- Zr 4              0.41        2.11459
         O 36 -- Zr 3              0.41        2.11459
         O 16 -- Zr 5              0.41        2.11459
         O 43 -- Zr 2              0.41        2.11459
         O 39 -- Sn 1              0.33        2.11549
         O 18 -- Sn 2              0.33        2.11549
         O 37 -- Sn 1              0.33        2.11549
         O 21 -- Sn 2              0.33        2.11549
         O 39 -- Sn 3              0.33        2.11608
         O 21 -- Sn 5              0.33        2.11608
         O 37 -- Sn 4              0.33        2.11608
         O 18 -- Sn 6              0.33        2.11608
         O 16 -- Zr 8              0.41        2.11643
         O 36 -- Zr 8              0.41        2.11643
         O 29 -- Zr 7              0.41        2.11643
         O 43 -- Zr 7              0.41        2.11643
         O 52 -- Zr 1              0.44        2.11739
         O 45 -- Zr 1              0.44        2.11739
         O 38 -- Zr 6              0.42        2.11748
         O 20 -- Zr 6              0.42        2.11748
[...]
         O 16 -- O 32             -0.03        2.82736
         O 13 -- O 34             -0.03        2.82855
         O 12 -- O 22             -0.03        2.82855
         O 17 -- O 26             -0.03        2.82855
         O 32 -- O 41             -0.03        2.82855
         O 36 -- O 44             -0.03        2.83048
         O 14 -- O 29             -0.03        2.83048
         O 35 -- O 43             -0.03        2.83048
         O 16 -- O 31             -0.03        2.83048
         O 54 -- O 56             -0.03        2.83249
         O 48 -- O 50             -0.03        2.83249
         O 10 -- O 23             -0.03        2.83446
         O 38 -- O 42             -0.03        2.83446
         O 20 -- O 28             -0.03        2.83446
         O 33 -- O 40             -0.03        2.83446

Writing analysis data to 036.castep_bin

Writing model to 036.check

 A BibTeX formatted list of references used in this run has been written to
 036.bib

Initialisation time =     54.67 s
Calculation time    =  33600.44 s
Finalisation time   =     53.83 s
Total time          =  33708.94 s

Overall parallel efficiency rating: Good (78%)

Data was distributed by:-
G-vector (4-way); efficiency rating: Very good (80%)
k-point (14-way); efficiency rating: Excellent (98%)