 Compiled for linux_x86_64_ifort16 on Sat, 23 Jul 2016 23:44:54 +0100
 from code version
 203e84763863+ Castep161_branch Fri, 04 Mar 2016 19:21:07 +0000
 Compiler: Intel Fortran 16.0.3.210; Optimisation: fast
 MATHLIBS: Intel MKL(11.3.3) (LAPACK version 3.6.0)
 FFT Lib : mkl
 Fundamental constants values: CODATA 2010

 Run started: Sat, 19 May 2018 13:58:46 +0100
 |           N   N    M   M    RRRR                |
 |           NN  N    MM MM    R   R               |
 |           N N N    M M M    RRRR                |
 |           N  NN    M   M    R  R                |
 |           N   N    M   M    R   R               |
 | Welcome to Materials Studio CASTEP-NMR          |
 | Authors:                                        |
 | J.R. Yates, C.J. Pickard, F. Mauri              |
 | Contributors:                                   |
 | T.F.G. Green, S.A. Joyce                        |
 | Copyright (c) 2004 - 2015                       |
 | Please cite the appropriate publications in all |
 | work arising from your use of CASTEP NMR.       |
 | For NMR Shielding Tensors cite:                 |
 |    "All-electron magnetic response with         |
 |    pseudopotentials: NMR chemical shifts",      |
 |    C. J. Pickard, F. Mauri;                     |
 |    Physical Review B63 245101 (2001), and       |
 |    "Calculation of NMR Chemical Shifts          |
 |    for extended systems using                   |
 |    Ultrasoft Pseudopotentials",                 |
 |    J. R. Yates, C. J. Pickard and F. Mauri      |
 |    Physical Review B76 024401 (2007)            |
 | For Electric Field Gradients cite:              |
 |   "Accurate First Principles Prediction of 17O  |
 |    NMR Parameters in SiO2: Assignment of the    |
 |    Zeolite Ferrierite Spectrum"                 |
 |    M. Profeta, F. Mauri and C. J. Pickard       |
 |    J. Amer. Chem. Soc. 125 541 (2003)           |
 | For Spin-Spin (J) Couplings cite:               |
 |   "A first principles theory of NMR J-coupling  |
 |   in solid-state systems"                       |
 |   S.A. Joyce, J.R. Yates, C.J. Pickard, F. Mauri|
 |   J. Chem. Phys. 127 204107 (2007)              |
 |   "Relativistic NMR J-coupling with ultrasoft   |
 |   pseudopotentials and the zeroth-order regular |
 |   approximation"                                |
 |   T.F.G. Green and J.R. Yates                   |
 |   J. Chem. Phys. 140 234106 (2014)              |

 Atomic calculation performed for O: 1s2 2s2 2p4

 Converged in 44 iterations to an ae energy of -2040.855 eV

 Atomic calculation performed for O: 1s2 2s2 2p4

 Exceeded max iterations: converged to 0.000000062 eV

   | Pseudopotential Report - Date of generation 19-05-2018   |
   | Element: O Ionic charge:  6.00 Level of theory: PBE      |
   | Atomic Solver: ZORA (scalar)                             |
   |               Reference Electronic Structure             |
   |         Orbital         Occupation         Energy        |
   |            2s              2.000           -0.881        |
   |            2p              4.000           -0.332        |
   |                 Pseudopotential Definition               |
   |        Beta     l      e      Rc     scheme   norm       |
   |          1      0   -0.881   1.100     qc      0         |
   |          2      0    0.250   1.100     qc      0         |
   |          3      1   -0.332   1.100     qc      0         |
   |          4      1    0.250   1.100     qc      0         |
   |         loc     2    0.000   1.100     pn      0         |
   | Augmentation charge Rinner = 0.769                       |
   | Partial core correction Rc = 0.769                       |
   | "2|1.1|15|18|20|20:21(qc=7)"                             |
   |      Author: Chris J. Pickard, Cambridge University      |

 Atomic calculation performed for Zr: 1s2 2s2 2p6 3s2 3p6 3d10 4s2 4p6 4d2 5s2

[...]

 Atomic calculation performed for Zr: 1s2 2s2 2p6 3s2 3p6 3d10 4s2 4p6 4d2 5s2

[...]

 Warning: ion_atom_descreen_psp: negative charge density encountered
   | Pseudopotential Report - Date of generation 19-05-2018   |
   | Element: Zr Ionic charge: 12.00 Level of theory: PBE     |
   | Atomic Solver: ZORA (scalar)                             |
   |               Reference Electronic Structure             |
   |         Orbital         Occupation         Energy        |
   |            4s              2.000           -2.003        |
   |            4p              6.000           -1.193        |
   |            5s              2.000           -0.163        |
   |            4d              2.000           -0.132        |
   |                 Pseudopotential Definition               |
   |        Beta     l      e      Rc     scheme   norm       |
   |          1      0   -2.003   2.105     qc      0         |
   |          2      0   -0.163   2.105     qc      0         |
   |          3      0    0.250   2.105     qc      0         |
   |          4      1   -1.193   2.105     qc      0         |
   |          5      1    0.250   2.105     qc      0         |
   |          6      2   -0.132   2.105     qc      0         |
   |          7      2    0.250   2.105     qc      0         |
   |         loc     3    0.000   2.105     pn      0         |
   | Augmentation charge Rinner = 1.471                       |
   | Partial core correction Rc = 1.471                       |
   | "3|2.1|7|8|9|40U:50:41:42"                               |
   |      Author: Chris J. Pickard, Cambridge University      |

 Atomic calculation performed for Sn:

[...]

 Atomic calculation performed for Sn:

[...]

   | Pseudopotential Report - Date of generation 19-05-2018   |
   | Element: Sn Ionic charge: 14.00 Level of theory: PBE     |
   | Atomic Solver: ZORA (scalar)                             |
   |               Reference Electronic Structure             |
   |         Orbital         Occupation         Energy        |
   |            4d             10.000           -0.950        |
   |            5s              2.000           -0.388        |
   |            5p              2.000           -0.136        |
   |                 Pseudopotential Definition               |
   |        Beta     l      e      Rc     scheme   norm       |
   |          1      0   -0.388   2.199     qc      0         |
   |          2      0    0.250   2.199     qc      0         |
   |          3      1   -0.136   2.199     qc      0         |
   |          4      1    0.250   2.199     qc      0         |
   |          5      2   -0.950   2.199     qc      0         |
   |          6      2    0.250   2.199     qc      0         |
   |         loc     3    0.000   2.199     pn      0         |
   | Augmentation charge Rinner = 1.537                       |
   | Partial core correction Rc = 1.537                       |
   | "3|2.2|7|8|9|50:51:42"                                   |
   |      Author: Chris J. Pickard, Cambridge University      |

 Atomic calculation performed for La:

 Converged in 56 iterations to an ae energy of -230121.495 eV

 Atomic calculation performed for La:

 Exceeded max iterations: converged to 0.000000907 eV

 Warning: ion_atom_descreen_psp: negative charge density encountered
   | Pseudopotential Report - Date of generation 19-05-2018   |
   | Element: La Ionic charge: 11.00 Level of theory: PBE     |
   | Atomic Solver: ZORA (scalar)                             |
   |               Reference Electronic Structure             |
   |         Orbital         Occupation         Energy        |
   |            5s              2.000           -1.430        |
   |            5p              6.000           -0.823        |
   |            6s              2.000           -0.135        |
   |            5d              1.000           -0.114        |
   |                 Pseudopotential Definition               |
   |        Beta     l      e      Rc     scheme   norm       |
   |          1      0   -1.430   2.298     qc      0         |
   |          2      0   -0.135   2.298     qc      0         |
   |          3      0    0.250   2.298     qc      0         |
   |          4      1   -0.823   2.298     qc      0         |
   |          5      1    0.250   2.298     qc      0         |
   |          6      2   -0.114   2.298     qc      0         |
   |          7      2    0.250   2.298     qc      0         |
   |         loc     2    0.000   2.298     pn      0         |
   | Augmentation charge Rinner = 1.606                       |
   | Partial core correction Rc = 1.606                       |
   | "2|2.3|5|6|7|50U:60:51:52(qc=4.5)"                       |
   |      Author: Chris J. Pickard, Cambridge University      |

 Pseudo atomic calculation performed for O 2s2 2p4

 Converged in 39 iterations to a total energy of -432.6554 eV

 Pseudo atomic calculation performed for Zr 4s2 4p6 4d2 5s2

[...]

 Calculation parallelised over 56 processes.
 Data is distributed by G-vector(4-way) and k-point(14-way)

 ************************************ Title ************************************
 nmr testing

 ***************************** General Parameters ******************************

 output verbosity                               : normal  (1)
 write checkpoint data to                       : 038.check
 type of calculation                            : Magnetic Resonance
 stress calculation                             : on
 density difference calculation                 : off
 electron localisation func (ELF) calculation   : off
 Hirshfeld analysis                             : off
 unlimited duration calculation
 timing information                             : on
 write final potential to formatted file        : off
 write final density to formatted file          : off
 write structure in CIF formatted file          : on
 write structure in CELL formatted file         : on
 write BibTeX reference list                    : on
 write OTFG pseudopotential files               : on
 checkpoint writing                             : both castep_bin and check files

 output         length unit                     : A
 output           mass unit                     : amu
 output           time unit                     : ps
 output         charge unit                     : e
 output           spin unit                     : hbar/2
 output         energy unit                     : eV
 output          force unit                     : eV/A
 output       velocity unit                     : A/ps
 output       pressure unit                     : GPa
 output     inv_length unit                     : 1/A
 output      frequency unit                     : cm-1
 output force constant unit                     : eV/A**2
 output         volume unit                     : A**3
 output   IR intensity unit                     : (D/A)**2/amu
 output         dipole unit                     : D
 output         efield unit                     : eV/A/e
 output        entropy unit                     : J/mol/K

 wavefunctions paging                           : none
 random number generator seed                   : randomised (135848163)
 data distribution                              : optimal for this architecture
[...]
  |    O          42      -89.92      83.99      0.18  -3.159E+00   0.08 |
  |    O          43      -89.12      86.48      0.06  -3.205E+00   0.08 |
  |    O          44      -90.45      96.16      0.31  -3.158E+00   0.10 |
  |    O          45      -87.05      96.32      0.29  -3.188E+00   0.10 |
  |    O          46     -161.44     140.09      0.88   1.075E+00   0.66 |
  |    O          47      -84.55      87.31      0.11  -3.219E+00   0.08 |
  |    O          48     -160.55     144.24      0.82   1.057E+00   0.71 |
  |    O          49      -85.97      86.57      0.10  -3.194E+00   0.08 |
  |    O          50      -87.60      85.47      0.04  -3.184E+00   0.10 |
  |    O          51     -163.03     142.13      0.87   1.051E+00   0.67 |
  |    O          52      -89.30      87.13      0.16  -3.270E+00   0.12 |
  |    O          53      -87.53      84.96      0.11  -3.178E+00   0.08 |
  |    O          54     -162.62     153.64      0.86   1.048E+00   0.80 |
  |    O          55      -88.35      86.29      0.08  -3.207E+00   0.07 |
  |    O          56     -162.07     152.06      0.81   1.024E+00   0.80 |
  |    Zr          1     1628.98    -124.89      0.11  -3.775E+01   0.05 |
  |    Zr          2     1607.02    -118.37      0.15  -3.581E+01   0.03 |
  |    Zr          3     1621.40    -127.70      0.23  -3.665E+01   0.06 |
  |    Zr          4     1621.79    -126.67      0.22  -3.658E+01   0.10 |
[...]
  |    La          2     4646.07     656.80      0.11  -7.848E+01   0.12 |
  |    La          3     4652.66     659.05      0.10  -8.057E+01   0.09 |
  |    La          4     4712.12     756.61      0.03  -8.591E+01   0.05 |
  |    La          5     4596.56     525.77      0.10  -7.577E+01   0.09 |
  |    La          6     4652.34     653.25      0.11  -8.008E+01   0.13 |
  |    La          7     4755.42     863.87      0.04  -8.828E+01   0.05 |
  |    La          8     4661.11     650.87      0.09  -8.118E+01   0.14 |
  |    La          9     4597.38     550.30      0.11  -7.584E+01   0.18 |
  |    La         10     4603.90     540.44      0.08  -7.687E+01   0.16 |
  |    La         11     4544.06     381.61      0.10  -7.135E+01   0.09 |
  |    La         12     4598.22     548.56      0.11  -7.587E+01   0.18 |
  |    La         13     4708.13     783.27      0.10  -8.498E+01   0.10 |
  |    La         14     4712.99     775.13      0.09  -8.612E+01   0.12 |
  |    La         15     4667.93     649.92      0.07  -8.272E+01   0.13 |
  |    La         16     4661.19     657.13      0.08  -8.162E+01   0.10 |

 *********************** Forces ***********************
 *            Cartesian components (eV/A)             *
 *                   x            y            z      *
 * O         1     -0.00218     -0.00267     -0.00294 *
 * O         2     -0.00267      0.00473     -0.00375 *
 * O         3      0.00057     -0.00001      0.00167 *
 * O         4      0.00276     -0.00119      0.00049 *
 * O         5     -0.00823     -0.00190      0.00238 *
 * O         6      0.00060     -0.00097     -0.00037 *
 * O         7      0.00395      0.00070     -0.00615 *
 * O         8      0.00388      0.00251      0.00394 *
 * O         9      0.01337      0.00536      0.00338 *
 * O        10     -0.00627     -0.00436      0.00286 *
 * O        11     -0.00618      0.00127      0.00959 *
 * O        12      0.00852      0.00047      0.00191 *
 * O        13     -0.00320      0.01074     -0.00778 *
 * O        14     -0.01473     -0.00633      0.02539 *
 * O        15     -0.01939      0.00293      0.01719 *
 * O        16     -0.01747      0.00804     -0.01604 *
 * O        17     -0.02449     -0.01697      0.00729 *
 * O        18     -0.01001      0.01054     -0.00959 *
 * O        19     -0.01307      0.01390     -0.00169 *
 * O        20     -0.02196     -0.01336      0.00321 *
 * O        21      0.02714      0.00893     -0.02736 *
 * O        22      0.02648     -0.00575      0.02550 *
 * O        23      0.02176     -0.00752      0.00528 *
 * O        24      0.02284      0.00727     -0.01931 *
 * O        25     -0.00432      0.01791     -0.02140 *
 * O        26     -0.01201     -0.00752     -0.00169 *
 * O        27     -0.00759      0.00008     -0.00235 *
 * O        28      0.00980     -0.00583     -0.00175 *
 * O        29      0.01471      0.02830     -0.00432 *
 * O        30      0.00331     -0.00701      0.00679 *
 * O        31      0.01489     -0.01351      0.01336 *
 * O        32      0.02999      0.02849     -0.00342 *
 * O        33      0.01075      0.01352     -0.00301 *
 * O        34     -0.01218      0.00369     -0.00101 *
 * O        35      0.01231      0.00863     -0.01676 *
 * O        36      0.00826     -0.01051      0.02169 *
 * O        37      0.01778     -0.01967      0.01500 *
 * O        38      0.02073      0.00684     -0.00678 *
 * O        39     -0.02645     -0.00778      0.01639 *
 * O        40     -0.01424      0.00861     -0.01295 *
 * O        41      0.00455      0.00121     -0.00096 *
 * O        42     -0.00519     -0.01513      0.01866 *
 * O        43     -0.02240     -0.02749      0.00833 *
 * O        44     -0.01545      0.01723     -0.01063 *
 * O        45      0.01313      0.00989      0.00869 *
 * O        46     -0.01360     -0.00612     -0.00193 *
 * O        47     -0.02044      0.01099     -0.01440 *
 * O        48     -0.00037     -0.00456      0.01293 *
 * O        49      0.01913      0.00998     -0.01875 *
 * O        50     -0.00725     -0.00789     -0.00862 *
 * O        51      0.00547     -0.00018     -0.00322 *
 * O        52     -0.01895     -0.01335     -0.00930 *
 * O        53      0.01768     -0.01688      0.00972 *
 * O        54      0.00714      0.00287     -0.01347 *
 * O        55     -0.02474     -0.01343      0.01937 *
 * O        56     -0.00078      0.01250      0.00258 *
 * Zr        1      0.00465      0.02658     -0.00332 *
 * Zr        2      0.00433      0.00958      0.00412 *
 * Zr        3      0.00216      0.00222     -0.01102 *
 * Zr        4      0.00337     -0.00972      0.01426 *
[...]
 * La        2      0.01096     -0.00869      0.00127 *
 * La        3     -0.00404      0.00200      0.00684 *
 * La        4     -0.01755     -0.00532     -0.01184 *
 * La        5     -0.00102     -0.00899     -0.00783 *
 * La        6      0.00495     -0.00007     -0.00538 *
 * La        7      0.00063     -0.00981      0.01865 *
 * La        8      0.00566      0.00034     -0.00519 *
 * La        9     -0.00706      0.00326     -0.00103 *
 * La       10     -0.00340      0.00485     -0.00035 *
 * La       11     -0.00034      0.00150      0.00506 *
 * La       12     -0.00348     -0.00385     -0.00178 *
 * La       13      0.00231     -0.00634     -0.00140 *
 * La       14     -0.00688     -0.00382     -0.01172 *
 * La       15      0.01779      0.00146      0.00345 *
 * La       16     -0.01479      0.00310      0.00599 *

 ***************** Stress Tensor *****************
 *          Cartesian components (GPa)           *
 *             x             y             z     *
 *  x      0.028015      0.008461     -0.004874  *
 *  y      0.008461      0.033144     -0.022174  *
 *  z     -0.004874     -0.022174      0.028622  *
 *  Pressure:   -0.0299                          *

[...]

 Pseudo atomic calculation performed for Sn 4d10 5s2 5p2

[...]

 Pseudo atomic calculation performed for La 5s2 5p6 5d1 6s2

 Converged in 34 iterations to a total energy of -968.0372 eV

Charge spilling parameter for spin component 1 = 0.24%

     Atomic Populations (Mulliken)
Species   Ion     s      p      d      f     Total  Charge (e)
  O        1     1.87   5.00   0.00   0.00   6.87    -0.87
  O        2     1.87   5.00   0.00   0.00   6.87    -0.87
  O        3     1.87   5.00   0.00   0.00   6.87    -0.87
  O        4     1.87   5.00   0.00   0.00   6.87    -0.87
  O        5     1.87   5.00   0.00   0.00   6.87    -0.87
  O        6     1.87   5.00   0.00   0.00   6.87    -0.87
  O        7     1.87   5.00   0.00   0.00   6.87    -0.87
  O        8     1.87   5.00   0.00   0.00   6.87    -0.87
  O        9     1.88   5.02   0.00   0.00   6.91    -0.91
  O       10     1.86   4.95   0.00   0.00   6.80    -0.80
  O       11     1.86   4.95   0.00   0.00   6.80    -0.80
  O       12     1.88   5.03   0.00   0.00   6.91    -0.91
  O       13     1.88   5.02   0.00   0.00   6.91    -0.91
  O       14     1.87   4.99   0.00   0.00   6.86    -0.86
  O       15     1.87   4.99   0.00   0.00   6.85    -0.85
  O       16     1.87   4.99   0.00   0.00   6.86    -0.86
  O       17     1.87   4.99   0.00   0.00   6.86    -0.86
  O       18     1.88   5.02   0.00   0.00   6.91    -0.91
  O       19     1.87   4.99   0.00   0.00   6.85    -0.85
  O       20     1.87   4.99   0.00   0.00   6.86    -0.86
  O       21     1.87   4.99   0.00   0.00   6.86    -0.86
  O       22     1.87   4.99   0.00   0.00   6.86    -0.86
  O       23     1.87   4.99   0.00   0.00   6.86    -0.86
  O       24     1.87   4.99   0.00   0.00   6.86    -0.86
  O       25     1.87   4.99   0.00   0.00   6.86    -0.86
  O       26     1.88   5.02   0.00   0.00   6.91    -0.91
  O       27     1.88   5.03   0.00   0.00   6.91    -0.91
  O       28     1.86   4.95   0.00   0.00   6.80    -0.80
  O       29     1.87   4.99   0.00   0.00   6.86    -0.86
  O       30     1.88   5.02   0.00   0.00   6.91    -0.91
  O       31     1.87   4.99   0.00   0.00   6.86    -0.86
  O       32     1.87   4.99   0.00   0.00   6.86    -0.86
  O       33     1.86   4.95   0.00   0.00   6.80    -0.80
  O       34     1.88   5.02   0.00   0.00   6.91    -0.91
  O       35     1.87   4.99   0.00   0.00   6.86    -0.86
  O       36     1.87   4.99   0.00   0.00   6.86    -0.86
  O       37     1.87   4.99   0.00   0.00   6.86    -0.86
  O       38     1.87   4.99   0.00   0.00   6.86    -0.86
  O       39     1.87   4.99   0.00   0.00   6.86    -0.86
  O       40     1.87   4.99   0.00   0.00   6.86    -0.86
  O       41     1.88   5.02   0.00   0.00   6.91    -0.91
  O       42     1.87   4.99   0.00   0.00   6.86    -0.86
  O       43     1.87   4.99   0.00   0.00   6.86    -0.86
  O       44     1.87   4.99   0.00   0.00   6.85    -0.85
  O       45     1.87   4.99   0.00   0.00   6.85    -0.85
  O       46     1.86   4.95   0.00   0.00   6.80    -0.80
  O       47     1.87   4.99   0.00   0.00   6.86    -0.86
  O       48     1.86   4.95   0.00   0.00   6.80    -0.80
  O       49     1.87   4.99   0.00   0.00   6.86    -0.86
  O       50     1.87   4.99   0.00   0.00   6.86    -0.86
  O       51     1.86   4.95   0.00   0.00   6.80    -0.80
  O       52     1.87   4.99   0.00   0.00   6.86    -0.86
  O       53     1.87   4.99   0.00   0.00   6.86    -0.86
  O       54     1.86   4.95   0.00   0.00   6.80    -0.80
  O       55     1.87   4.99   0.00   0.00   6.86    -0.86
  O       56     1.86   4.95   0.00   0.00   6.80    -0.80
  Zr       1     2.37   6.48   1.92   0.00  10.78     1.22
  Zr       2     2.37   6.50   1.92   0.00  10.79     1.21
  Zr       3     2.37   6.49   1.92   0.00  10.78     1.22
  Zr       4     2.37   6.49   1.92   0.00  10.78     1.22
[...]
  La       2     2.09   6.17   1.19   0.00   9.45     1.55
  La       3     2.07   6.17   1.19   0.00   9.44     1.56
  La       4     2.02   6.17   1.19   0.00   9.38     1.62
  La       5     2.10   6.18   1.19   0.00   9.48     1.52
  La       6     2.07   6.17   1.19   0.00   9.44     1.56
  La       7     2.00   6.15   1.19   0.00   9.35     1.65
  La       8     2.05   6.18   1.19   0.00   9.41     1.59
  La       9     2.10   6.18   1.19   0.00   9.48     1.52
  La      10     2.09   6.19   1.19   0.00   9.47     1.53
  La      11     2.13   6.20   1.19   0.00   9.52     1.48
  La      12     2.08   6.18   1.19   0.00   9.46     1.54
  La      13     2.02   6.16   1.20   0.00   9.38     1.62
  La      14     2.02   6.16   1.19   0.00   9.38     1.62
  La      15     2.04   6.18   1.19   0.00   9.42     1.58
  La      16     2.05   6.18   1.19   0.00   9.42     1.58

            Bond              Population      Length (A)
         O 52 -- Sn 6              0.34        2.10067
         O 37 -- Sn 1              0.35        2.10118
         O 31 -- Sn 7              0.34        2.10292
         O 47 -- Sn 1              0.35        2.10420
         O 23 -- Sn 3              0.35        2.10523
         O 32 -- Sn 8              0.35        2.10524
         O 36 -- Sn 8              0.35        2.10529
         O 40 -- Sn 3              0.35        2.10561
         O 16 -- Sn 8              0.35        2.10561
         O 55 -- Sn 2              0.35        2.10582
         O 50 -- Sn 4              0.34        2.10604
         O 42 -- Sn 4              0.35        2.10617
         O 43 -- Sn 5              0.35        2.10620
         O 35 -- Sn 7              0.34        2.10646
         O 45 -- Sn 7              0.34        2.10648
         O 24 -- Sn 6              0.35        2.10660
         O 19 -- Sn 7              0.34        2.10670
         O 27 -- Sn 7              0.34        2.10676
         O 49 -- Sn 1              0.34        2.10688
         O 21 -- Sn 2              0.35        2.10690
         O 17 -- Sn 8              0.35        2.10692
         O 20 -- Sn 3              0.35        2.10703
         O 14 -- Sn 6              0.34        2.10730
         O 39 -- Sn 1              0.34        2.10762
         O 12 -- Sn 5              0.33        2.10774
         O 22 -- Sn 5              0.34        2.10865
         O 15 -- Sn 7              0.34        2.10876
         O 9  -- Sn 6              0.34        2.10948
         O 38 -- Sn 3              0.34        2.10953
         O 44 -- Sn 6              0.34        2.10955
         O 27 -- Sn 3              0.33        2.10981
         O 12 -- Sn 2              0.33        2.10982
         O 53 -- Sn 2              0.34        2.11004
         O 13 -- Sn 4              0.34        2.11008
         O 29 -- Sn 5              0.35        2.11029
         O 18 -- Sn 2              0.34        2.11048
         O 25 -- Sn 4              0.35        2.11074
         O 18 -- Sn 4              0.33        2.11149
         O 13 -- Sn 5              0.34        2.11216
         O 41 -- Sn 8              0.33        2.11247
         O 9  -- Sn 3              0.33        2.11298
         O 41 -- Sn 1              0.33        2.11353
         O 34 -- Sn 5              0.33        2.11360
         O 54 -- Zr 6              0.42        2.11448
         O 32 -- Zr 8              0.45        2.11524
         O 26 -- Sn 2              0.33        2.11529
         O 31 -- Zr 5              0.45        2.11546
         O 28 -- Zr 7              0.41        2.11557
         O 33 -- Zr 8              0.41        2.11570
         O 26 -- Sn 8              0.33        2.11607
         O 28 -- Zr 4              0.41        2.11638
         O 22 -- Zr 7              0.45        2.11683
         O 44 -- Zr 3              0.45        2.11723
         O 30 -- Sn 4              0.33        2.11734
         O 54 -- Zr 1              0.41        2.11750
         O 33 -- Zr 3              0.41        2.11754
         O 34 -- Sn 1              0.32        2.11756
         O 30 -- Sn 6              0.33        2.11763
         O 35 -- Zr 2              0.45        2.11801
         O 10 -- Zr 5              0.41        2.11812
[...]
         O 19 -- O 28             -0.03        2.82705
         O 36 -- O 46             -0.03        2.82745
         O 47 -- O 51             -0.03        2.82884
         O 33 -- O 40             -0.03        2.82888
         O 20 -- O 28             -0.03        2.82928
         O 46 -- O 49             -0.03        2.82953
         O 10 -- O 23             -0.03        2.83044
         O 11 -- O 32             -0.03        2.83057
         O 14 -- O 29             -0.03        2.83078
         O 46 -- O 53             -0.03        2.83120
         O 25 -- O 39             -0.03        2.83205
         O 11 -- O 22             -0.03        2.83287
         O 48 -- O 50             -0.03        2.83506
         O 38 -- O 42             -0.03        2.83532
         O 17 -- O 25             -0.03        2.83640

Writing analysis data to 038.castep_bin

Writing model to 038.check

 A BibTeX formatted list of references used in this run has been written to
 038.bib

Initialisation time =     53.68 s
Calculation time    =  33673.01 s
Finalisation time   =     51.36 s
Total time          =  33778.05 s

Overall parallel efficiency rating: Good (78%)

Data was distributed by:-
G-vector (4-way); efficiency rating: Very good (80%)
k-point (14-way); efficiency rating: Excellent (97%)