 Compiled for linux_x86_64_ifort16 on Sat, 23 Jul 2016 23:44:54 +0100
 from code version
 203e84763863+ Castep161_branch Fri, 04 Mar 2016 19:21:07 +0000
 Compiler: Intel Fortran 16.0.3.210; Optimisation: fast
 MATHLIBS: Intel MKL(11.3.3) (LAPACK version 3.6.0)
 FFT Lib : mkl
 Fundamental constants values: CODATA 2010

 Run started: Mon, 07 May 2018 12:06:04 +0100
 |           N   N    M   M    RRRR                |
 |           NN  N    MM MM    R   R               |
 |           N N N    M M M    RRRR                |
 |           N  NN    M   M    R  R                |
 |           N   N    M   M    R   R               |
 | Welcome to Materials Studio CASTEP-NMR          |
 | Authors:                                        |
 | J.R. Yates, C.J. Pickard, F. Mauri              |
 | Contributors:                                   |
 | T.F.G. Green, S.A. Joyce                        |
 | Copyright (c) 2004 - 2015                       |
 | Please cite the appropriate publications in all |
 | work arising from your use of CASTEP NMR.       |
 | For NMR Shielding Tensors cite:                 |
 |    "All-electron magnetic response with         |
 |    pseudopotentials: NMR chemical shifts",      |
 |    C. J. Pickard, F. Mauri;                     |
 |    Physical Review B63 245101 (2001), and       |
 |    "Calculation of NMR Chemical Shifts          |
 |    for extended systems using                   |
 |    Ultrasoft Pseudopotentials",                 |
 |    J. R. Yates, C. J. Pickard and F. Mauri      |
 |    Physical Review B76 024401 (2007)            |
 | For Electric Field Gradients cite:              |
 |   "Accurate First Principles Prediction of 17O  |
 |    NMR Parameters in SiO2: Assignment of the    |
 |    Zeolite Ferrierite Spectrum"                 |
 |    M. Profeta, F. Mauri and C. J. Pickard       |
 |    J. Amer. Chem. Soc. 125 541 (2003)           |
 | For Spin-Spin (J) Couplings cite:               |
 |   "A first principles theory of NMR J-coupling  |
 |   in solid-state systems"                       |
 |   S.A. Joyce, J.R. Yates, C.J. Pickard, F. Mauri|
 |   J. Chem. Phys. 127 204107 (2007)              |
 |   "Relativistic NMR J-coupling with ultrasoft   |
 |   pseudopotentials and the zeroth-order regular |
 |   approximation"                                |
 |   T.F.G. Green and J.R. Yates                   |
 |   J. Chem. Phys. 140 234106 (2014)              |

 Atomic calculation performed for O: 1s2 2s2 2p4

 Converged in 44 iterations to an ae energy of -2040.855 eV

 Atomic calculation performed for O: 1s2 2s2 2p4

 Exceeded max iterations: converged to 0.000000062 eV

   | Pseudopotential Report - Date of generation  7-05-2018   |
   | Element: O Ionic charge:  6.00 Level of theory: PBE      |
   | Atomic Solver: ZORA (scalar)                             |
   |               Reference Electronic Structure             |
   |         Orbital         Occupation         Energy        |
   |            2s              2.000           -0.881        |
   |            2p              4.000           -0.332        |
   |                 Pseudopotential Definition               |
   |        Beta     l      e      Rc     scheme   norm       |
   |          1      0   -0.881   1.100     qc      0         |
   |          2      0    0.250   1.100     qc      0         |
   |          3      1   -0.332   1.100     qc      0         |
   |          4      1    0.250   1.100     qc      0         |
   |         loc     2    0.000   1.100     pn      0         |
   | Augmentation charge Rinner = 0.769                       |
   | Partial core correction Rc = 0.769                       |
   | "2|1.1|15|18|20|20:21(qc=7)"                             |
   |      Author: Chris J. Pickard, Cambridge University      |

 Atomic calculation performed for Zr: 1s2 2s2 2p6 3s2 3p6 3d10 4s2 4p6 4d2 5s2

[...]

 Atomic calculation performed for Zr: 1s2 2s2 2p6 3s2 3p6 3d10 4s2 4p6 4d2 5s2

[...]

 Warning: ion_atom_descreen_psp: negative charge density encountered
   | Pseudopotential Report - Date of generation  7-05-2018   |
   | Element: Zr Ionic charge: 12.00 Level of theory: PBE     |
   | Atomic Solver: ZORA (scalar)                             |
   |               Reference Electronic Structure             |
   |         Orbital         Occupation         Energy        |
   |            4s              2.000           -2.003        |
   |            4p              6.000           -1.193        |
   |            5s              2.000           -0.163        |
   |            4d              2.000           -0.132        |
   |                 Pseudopotential Definition               |
   |        Beta     l      e      Rc     scheme   norm       |
   |          1      0   -2.003   2.105     qc      0         |
   |          2      0   -0.163   2.105     qc      0         |
   |          3      0    0.250   2.105     qc      0         |
   |          4      1   -1.193   2.105     qc      0         |
   |          5      1    0.250   2.105     qc      0         |
   |          6      2   -0.132   2.105     qc      0         |
   |          7      2    0.250   2.105     qc      0         |
   |         loc     3    0.000   2.105     pn      0         |
   | Augmentation charge Rinner = 1.471                       |
   | Partial core correction Rc = 1.471                       |
   | "3|2.1|7|8|9|40U:50:41:42"                               |
   |      Author: Chris J. Pickard, Cambridge University      |

 Atomic calculation performed for Sn:

[...]

 Atomic calculation performed for Sn:

[...]

   | Pseudopotential Report - Date of generation  7-05-2018   |
   | Element: Sn Ionic charge: 14.00 Level of theory: PBE     |
   | Atomic Solver: ZORA (scalar)                             |
   |               Reference Electronic Structure             |
   |         Orbital         Occupation         Energy        |
   |            4d             10.000           -0.950        |
   |            5s              2.000           -0.388        |
   |            5p              2.000           -0.136        |
   |                 Pseudopotential Definition               |
   |        Beta     l      e      Rc     scheme   norm       |
   |          1      0   -0.388   2.199     qc      0         |
   |          2      0    0.250   2.199     qc      0         |
   |          3      1   -0.136   2.199     qc      0         |
   |          4      1    0.250   2.199     qc      0         |
   |          5      2   -0.950   2.199     qc      0         |
   |          6      2    0.250   2.199     qc      0         |
   |         loc     3    0.000   2.199     pn      0         |
   | Augmentation charge Rinner = 1.537                       |
   | Partial core correction Rc = 1.537                       |
   | "3|2.2|7|8|9|50:51:42"                                   |
   |      Author: Chris J. Pickard, Cambridge University      |

 Atomic calculation performed for La:

 Converged in 56 iterations to an ae energy of -230121.495 eV

 Atomic calculation performed for La:

 Exceeded max iterations: converged to 0.000000907 eV

 Warning: ion_atom_descreen_psp: negative charge density encountered
   | Pseudopotential Report - Date of generation  7-05-2018   |
   | Element: La Ionic charge: 11.00 Level of theory: PBE     |
   | Atomic Solver: ZORA (scalar)                             |
   |               Reference Electronic Structure             |
   |         Orbital         Occupation         Energy        |
   |            5s              2.000           -1.430        |
   |            5p              6.000           -0.823        |
   |            6s              2.000           -0.135        |
   |            5d              1.000           -0.114        |
   |                 Pseudopotential Definition               |
   |        Beta     l      e      Rc     scheme   norm       |
   |          1      0   -1.430   2.298     qc      0         |
   |          2      0   -0.135   2.298     qc      0         |
   |          3      0    0.250   2.298     qc      0         |
   |          4      1   -0.823   2.298     qc      0         |
   |          5      1    0.250   2.298     qc      0         |
   |          6      2   -0.114   2.298     qc      0         |
   |          7      2    0.250   2.298     qc      0         |
   |         loc     2    0.000   2.298     pn      0         |
   | Augmentation charge Rinner = 1.606                       |
   | Partial core correction Rc = 1.606                       |
   | "2|2.3|5|6|7|50U:60:51:52(qc=4.5)"                       |
   |      Author: Chris J. Pickard, Cambridge University      |

 Pseudo atomic calculation performed for O 2s2 2p4

 Converged in 39 iterations to a total energy of -432.6554 eV

 Pseudo atomic calculation performed for Zr 4s2 4p6 4d2 5s2

[...]

 Calculation parallelised over 56 processes.
 Data is distributed by G-vector(4-way) and k-point(14-way)

 ************************************ Title ************************************
 nmr testing

 ***************************** General Parameters ******************************

 output verbosity                               : normal  (1)
 write checkpoint data to                       : 041.check
 type of calculation                            : Magnetic Resonance
 stress calculation                             : on
 density difference calculation                 : off
 electron localisation func (ELF) calculation   : off
 Hirshfeld analysis                             : off
 unlimited duration calculation
 timing information                             : on
 write final potential to formatted file        : off
 write final density to formatted file          : off
 write structure in CIF formatted file          : on
 write structure in CELL formatted file         : on
 write BibTeX reference list                    : on
 write OTFG pseudopotential files               : on
 checkpoint writing                             : both castep_bin and check files

 output         length unit                     : A
 output           mass unit                     : amu
 output           time unit                     : ps
 output         charge unit                     : e
 output           spin unit                     : hbar/2
 output         energy unit                     : eV
 output          force unit                     : eV/A
 output       velocity unit                     : A/ps
 output       pressure unit                     : GPa
 output     inv_length unit                     : 1/A
 output      frequency unit                     : cm-1
 output force constant unit                     : eV/A**2
 output         volume unit                     : A**3
 output   IR intensity unit                     : (D/A)**2/amu
 output         dipole unit                     : D
 output         efield unit                     : eV/A/e
 output        entropy unit                     : J/mol/K

 wavefunctions paging                           : none
 random number generator seed                   : randomised (120605906)
 data distribution                              : optimal for this architecture
[...]
  |    O          42      -85.73      85.36      0.18  -3.145E+00   0.08 |
  |    O          43     -161.99     146.22      0.87   1.059E+00   0.73 |
  |    O          44      -89.64      95.95      0.30  -3.192E+00   0.10 |
  |    O          45      -89.55      95.80      0.30  -3.191E+00   0.10 |
  |    O          46     -162.04     146.27      0.87   1.058E+00   0.72 |
  |    O          47      -89.64      95.95      0.30  -3.192E+00   0.10 |
  |    O          48     -161.99     146.22      0.87   1.059E+00   0.73 |
  |    O          49      -85.71      85.79      0.13  -3.192E+00   0.08 |
  |    O          50      -86.47      85.20      0.04  -3.216E+00   0.08 |
  |    O          51     -162.04     146.27      0.87   1.058E+00   0.72 |
  |    O          52      -89.55      95.80      0.30  -3.191E+00   0.10 |
  |    O          53      -89.64      95.95      0.30  -3.192E+00   0.10 |
  |    O          54     -161.99     146.22      0.87   1.059E+00   0.73 |
  |    O          55      -85.71      85.79      0.13  -3.192E+00   0.08 |
  |    O          56      -86.47      85.20      0.04  -3.216E+00   0.08 |
  |    Zr          1     1623.33    -128.25      0.23  -3.683E+01   0.10 |
  |    Zr          2     1621.61    -123.04      0.17  -3.656E+01   0.03 |
  |    Zr          3     1622.99    -128.25      0.23  -3.685E+01   0.09 |
  |    Zr          4     1621.61    -123.04      0.17  -3.656E+01   0.03 |
[...]
  |    La          2     4594.62     520.69      0.10  -7.578E+01   0.08 |
  |    La          3     4705.59     779.50      0.10  -8.486E+01   0.10 |
  |    La          4     4712.07     760.09      0.03  -8.604E+01   0.06 |
  |    La          5     4594.62     520.69      0.10  -7.578E+01   0.08 |
  |    La          6     4705.59     779.50      0.10  -8.486E+01   0.10 |
  |    La          7     4712.07     760.09      0.03  -8.604E+01   0.06 |
  |    La          8     4605.91     543.02      0.08  -7.674E+01   0.17 |
  |    La          9     4594.62     520.69      0.10  -7.578E+01   0.08 |
  |    La         10     4605.81     542.57      0.08  -7.679E+01   0.17 |
  |    La         11     4594.62     520.69      0.10  -7.578E+01   0.08 |
  |    La         12     4605.81     542.57      0.08  -7.679E+01   0.17 |
  |    La         13     4705.50     778.81      0.11  -8.478E+01   0.11 |
  |    La         14     4712.07     760.09      0.03  -8.604E+01   0.06 |
  |    La         15     4712.07     760.09      0.03  -8.604E+01   0.06 |
  |    La         16     4605.91     543.02      0.08  -7.674E+01   0.17 |

 *********************** Forces ***********************
 *            Cartesian components (eV/A)             *
 *                   x            y            z      *
 * O         1     -0.00706     -0.00159     -0.00293 *
 * O         2     -0.00706     -0.00159     -0.00293 *
 * O         3      0.00205     -0.00224      0.00642 *
 * O         4      0.00205     -0.00224      0.00642 *
 * O         5     -0.00205      0.00224     -0.00642 *
 * O         6      0.00706      0.00159      0.00293 *
 * O         7     -0.00205      0.00224     -0.00642 *
 * O         8      0.00706      0.00159      0.00293 *
 * O         9      0.00133      0.00713      0.00236 *
 * O        10     -0.00245     -0.01015      0.00287 *
 * O        11      0.00611     -0.01798      0.03272 *
 * O        12      0.00992      0.01793      0.02148 *
 * O        13      0.01553      0.00126      0.01745 *
 * O        14     -0.02765      0.00196      0.03163 *
 * O        15     -0.02835      0.00045      0.02481 *
 * O        16     -0.01727      0.00151     -0.01561 *
 * O        17     -0.03481     -0.01887     -0.00502 *
 * O        18     -0.00346      0.00721     -0.00036 *
 * O        19     -0.00346      0.00721     -0.00035 *
 * O        20     -0.03481     -0.01887     -0.00502 *
 * O        21      0.02765     -0.00196     -0.03163 *
 * O        22     -0.01553     -0.00126     -0.01745 *
 * O        23      0.01727     -0.00151      0.01561 *
 * O        24      0.02835     -0.00045     -0.02481 *
 * O        25     -0.00611      0.01798     -0.03272 *
 * O        26     -0.00133     -0.00713     -0.00236 *
 * O        27     -0.00133     -0.00713     -0.00236 *
 * O        28     -0.00611      0.01798     -0.03272 *
 * O        29      0.00077      0.00983     -0.00090 *
 * O        30      0.00346     -0.00721      0.00035 *
 * O        31      0.02010     -0.01819      0.01112 *
 * O        32      0.03481      0.01887      0.00502 *
 * O        33      0.00245      0.01015     -0.00287 *
 * O        34     -0.00992     -0.01793     -0.02148 *
 * O        35      0.02765     -0.00196     -0.03163 *
 * O        36      0.01727     -0.00151      0.01561 *
 * O        37      0.00346     -0.00721      0.00036 *
 * O        38      0.03481      0.01887      0.00502 *
 * O        39     -0.02765      0.00197      0.03163 *
 * O        40     -0.01727      0.00151     -0.01561 *
 * O        41      0.00133      0.00713      0.00236 *
 * O        42      0.00611     -0.01798      0.03272 *
 * O        43     -0.00077     -0.00983      0.00090 *
 * O        44     -0.02010      0.01819     -0.01112 *
 * O        45      0.00992      0.01793      0.02148 *
 * O        46     -0.00245     -0.01015      0.00287 *
 * O        47     -0.02010      0.01820     -0.01112 *
 * O        48     -0.00078     -0.00983      0.00090 *
 * O        49      0.02834     -0.00045     -0.02481 *
 * O        50     -0.01553     -0.00126     -0.01745 *
 * O        51      0.00245      0.01015     -0.00287 *
 * O        52     -0.00992     -0.01793     -0.02148 *
 * O        53      0.02010     -0.01820      0.01112 *
 * O        54      0.00078      0.00983     -0.00090 *
 * O        55     -0.02834      0.00045      0.02481 *
 * O        56      0.01553      0.00126      0.01745 *
 * Zr        1      0.00000     -0.00000     -0.00000 *
 * Zr        2     -0.00280      0.00091      0.01721 *
 * Zr        3      0.00001      0.00000      0.00000 *
 * Zr        4      0.00280     -0.00091     -0.01721 *
[...]
 * La        2      0.00640      0.00008      0.00690 *
 * La        3     -0.00001     -0.00000     -0.00000 *
 * La        4     -0.02293     -0.00034     -0.02163 *
 * La        5     -0.00640     -0.00008     -0.00690 *
 * La        6      0.00001     -0.00000      0.00000 *
 * La        7      0.02294      0.00034      0.02163 *
 * La        8     -0.00000     -0.00000     -0.00000 *
 * La        9     -0.00638     -0.00008     -0.00690 *
 * La       10     -0.00001      0.00000      0.00000 *
 * La       11      0.00638      0.00008      0.00690 *
 * La       12      0.00001      0.00000     -0.00000 *
 * La       13      0.00000      0.00000     -0.00000 *
 * La       14     -0.02294     -0.00035     -0.02163 *
 * La       15      0.02293      0.00035      0.02163 *
 * La       16      0.00000     -0.00000      0.00000 *

 ***************** Stress Tensor *****************
 *          Cartesian components (GPa)           *
 *             x             y             z     *
 *  x     -0.001549      0.007918     -0.000308  *
 *  y      0.007918     -0.003227     -0.007666  *
 *  z     -0.000308     -0.007666      0.004247  *
 *  Pressure:    0.0002                          *

[...]

 Pseudo atomic calculation performed for Sn 4d10 5s2 5p2

[...]

 Pseudo atomic calculation performed for La 5s2 5p6 5d1 6s2

 Converged in 34 iterations to a total energy of -968.0372 eV

Charge spilling parameter for spin component 1 = 0.24%

     Atomic Populations (Mulliken)
Species   Ion     s      p      d      f     Total  Charge (e)
  O        1     1.87   5.00   0.00   0.00   6.87    -0.87
  O        2     1.87   5.00   0.00   0.00   6.87    -0.87
  O        3     1.87   5.00   0.00   0.00   6.87    -0.87
  O        4     1.87   5.00   0.00   0.00   6.87    -0.87
  O        5     1.87   5.00   0.00   0.00   6.87    -0.87
  O        6     1.87   5.00   0.00   0.00   6.87    -0.87
  O        7     1.87   5.00   0.00   0.00   6.87    -0.87
  O        8     1.87   5.00   0.00   0.00   6.87    -0.87
  O        9     1.88   5.02   0.00   0.00   6.91    -0.91
  O       10     1.86   4.95   0.00   0.00   6.80    -0.80
  O       11     1.87   4.99   0.00   0.00   6.86    -0.86
  O       12     1.87   4.99   0.00   0.00   6.86    -0.86
  O       13     1.87   4.99   0.00   0.00   6.86    -0.86
  O       14     1.87   4.99   0.00   0.00   6.86    -0.86
  O       15     1.87   4.99   0.00   0.00   6.86    -0.86
  O       16     1.87   4.99   0.00   0.00   6.86    -0.86
  O       17     1.87   4.99   0.00   0.00   6.86    -0.86
  O       18     1.88   5.02   0.00   0.00   6.91    -0.91
  O       19     1.88   5.02   0.00   0.00   6.91    -0.91
  O       20     1.87   4.99   0.00   0.00   6.86    -0.86
  O       21     1.87   4.99   0.00   0.00   6.86    -0.86
  O       22     1.87   4.99   0.00   0.00   6.86    -0.86
  O       23     1.87   4.99   0.00   0.00   6.86    -0.86
  O       24     1.87   4.99   0.00   0.00   6.86    -0.86
  O       25     1.87   4.99   0.00   0.00   6.86    -0.86
  O       26     1.88   5.02   0.00   0.00   6.91    -0.91
  O       27     1.88   5.02   0.00   0.00   6.91    -0.91
  O       28     1.87   4.99   0.00   0.00   6.86    -0.86
  O       29     1.86   4.95   0.00   0.00   6.80    -0.80
  O       30     1.88   5.02   0.00   0.00   6.91    -0.91
  O       31     1.87   4.99   0.00   0.00   6.86    -0.86
  O       32     1.87   4.99   0.00   0.00   6.86    -0.86
  O       33     1.86   4.95   0.00   0.00   6.80    -0.80
  O       34     1.87   4.99   0.00   0.00   6.86    -0.86
  O       35     1.87   4.99   0.00   0.00   6.86    -0.86
  O       36     1.87   4.99   0.00   0.00   6.86    -0.86
  O       37     1.88   5.02   0.00   0.00   6.91    -0.91
  O       38     1.87   4.99   0.00   0.00   6.86    -0.86
  O       39     1.87   4.99   0.00   0.00   6.86    -0.86
  O       40     1.87   4.99   0.00   0.00   6.86    -0.86
  O       41     1.88   5.02   0.00   0.00   6.91    -0.91
  O       42     1.87   4.99   0.00   0.00   6.86    -0.86
  O       43     1.86   4.95   0.00   0.00   6.80    -0.80
  O       44     1.87   4.99   0.00   0.00   6.86    -0.86
  O       45     1.87   4.99   0.00   0.00   6.86    -0.86
  O       46     1.86   4.95   0.00   0.00   6.80    -0.80
  O       47     1.87   4.99   0.00   0.00   6.86    -0.86
  O       48     1.86   4.95   0.00   0.00   6.80    -0.80
  O       49     1.87   4.99   0.00   0.00   6.86    -0.86
  O       50     1.87   4.99   0.00   0.00   6.86    -0.86
  O       51     1.86   4.95   0.00   0.00   6.80    -0.80
  O       52     1.87   4.99   0.00   0.00   6.86    -0.86
  O       53     1.87   4.99   0.00   0.00   6.86    -0.86
  O       54     1.86   4.95   0.00   0.00   6.80    -0.80
  O       55     1.87   4.99   0.00   0.00   6.86    -0.86
  O       56     1.87   4.99   0.00   0.00   6.86    -0.86
  Zr       1     2.37   6.49   1.92   0.00  10.78     1.22
  Zr       2     2.37   6.49   1.92   0.00  10.78     1.22
  Zr       3     2.37   6.49   1.92   0.00  10.78     1.22
  Zr       4     2.37   6.49   1.92   0.00  10.78     1.22
[...]
  La       2     2.10   6.18   1.19   0.00   9.48     1.52
  La       3     2.04   6.16   1.20   0.00   9.40     1.60
  La       4     2.02   6.17   1.19   0.00   9.38     1.62
  La       5     2.10   6.18   1.19   0.00   9.48     1.52
  La       6     2.04   6.16   1.20   0.00   9.40     1.60
  La       7     2.02   6.17   1.19   0.00   9.38     1.62
  La       8     2.07   6.19   1.19   0.00   9.45     1.55
  La       9     2.10   6.18   1.19   0.00   9.48     1.52
  La      10     2.07   6.19   1.19   0.00   9.45     1.55
  La      11     2.10   6.18   1.19   0.00   9.48     1.52
  La      12     2.07   6.19   1.19   0.00   9.45     1.55
  La      13     2.04   6.16   1.20   0.00   9.40     1.60
  La      14     2.02   6.17   1.19   0.00   9.38     1.62
  La      15     2.02   6.17   1.19   0.00   9.38     1.62
  La      16     2.07   6.19   1.19   0.00   9.45     1.55

            Bond              Population      Length (A)
         O 56 -- Sn 4              0.35        2.10512
         O 50 -- Sn 5              0.35        2.10512
         O 13 -- Sn 5              0.35        2.10512
         O 22 -- Sn 4              0.35        2.10512
         O 40 -- Sn 3              0.35        2.10515
         O 36 -- Sn 8              0.35        2.10515
         O 16 -- Sn 8              0.35        2.10515
         O 23 -- Sn 3              0.35        2.10515
         O 15 -- Sn 7              0.35        2.10664
         O 49 -- Sn 1              0.35        2.10664
         O 24 -- Sn 6              0.35        2.10664
         O 55 -- Sn 2              0.35        2.10664
         O 14 -- Sn 6              0.35        2.10671
         O 21 -- Sn 2              0.35        2.10671
         O 39 -- Sn 1              0.35        2.10671
         O 35 -- Sn 7              0.35        2.10671
         O 32 -- Sn 8              0.35        2.10677
         O 20 -- Sn 3              0.35        2.10677
         O 38 -- Sn 3              0.35        2.10677
         O 17 -- Sn 8              0.35        2.10677
         O 44 -- Sn 6              0.34        2.10681
         O 53 -- Sn 2              0.34        2.10681
         O 31 -- Sn 7              0.34        2.10681
         O 47 -- Sn 1              0.34        2.10681
         O 52 -- Sn 6              0.34        2.10683
         O 12 -- Sn 2              0.34        2.10683
         O 34 -- Sn 1              0.34        2.10683
         O 45 -- Sn 7              0.34        2.10683
         O 25 -- Sn 5              0.35        2.10685
         O 11 -- Sn 4              0.35        2.10685
         O 42 -- Sn 5              0.35        2.10685
         O 28 -- Sn 4              0.35        2.10685
         O 41 -- Sn 1              0.34        2.11124
         O 27 -- Sn 7              0.34        2.11124
         O 26 -- Sn 2              0.34        2.11124
         O 9  -- Sn 6              0.34        2.11124
         O 37 -- Sn 1              0.34        2.11125
         O 19 -- Sn 7              0.34        2.11125
         O 18 -- Sn 2              0.34        2.11125
         O 30 -- Sn 6              0.34        2.11125
         O 19 -- Sn 4              0.33        2.11406
         O 37 -- Sn 4              0.33        2.11406
         O 18 -- Sn 5              0.33        2.11406
         O 30 -- Sn 5              0.33        2.11406
         O 41 -- Sn 8              0.33        2.11407
         O 27 -- Sn 3              0.33        2.11407
         O 26 -- Sn 8              0.33        2.11407
         O 9  -- Sn 3              0.33        2.11407
         O 46 -- Zr 4              0.42        2.11764
         O 51 -- Zr 2              0.42        2.11764
         O 10 -- Zr 6              0.42        2.11764
         O 33 -- Zr 7              0.42        2.11764
         O 47 -- Zr 5              0.45        2.11768
         O 31 -- Zr 5              0.45        2.11768
         O 53 -- Zr 3              0.45        2.11768
         O 44 -- Zr 3              0.45        2.11768
         O 12 -- Zr 8              0.45        2.11770
         O 45 -- Zr 1              0.45        2.11770
         O 52 -- Zr 1              0.45        2.11770
         O 34 -- Zr 8              0.45        2.11770
[...]
         O 51 -- O 55             -0.03        2.82527
         O 15 -- O 33             -0.03        2.82527
         O 46 -- O 49             -0.03        2.82527
         O 22 -- O 43             -0.03        2.82936
         O 13 -- O 29             -0.03        2.82936
         O 48 -- O 50             -0.03        2.82936
         O 54 -- O 56             -0.03        2.82936
         O 36 -- O 46             -0.03        2.82953
         O 16 -- O 51             -0.03        2.82953
         O 33 -- O 40             -0.03        2.82953
         O 10 -- O 23             -0.03        2.82953
         O 20 -- O 28             -0.03        2.83769
         O 17 -- O 25             -0.03        2.83769
         O 11 -- O 32             -0.03        2.83769
         O 38 -- O 42             -0.03        2.83769

Writing analysis data to 041.castep_bin

Writing model to 041.check

 A BibTeX formatted list of references used in this run has been written to
 041.bib

Initialisation time =     53.40 s
Calculation time    =  33747.46 s
Finalisation time   =     42.37 s
Total time          =  33843.24 s

Overall parallel efficiency rating: Good (76%)

Data was distributed by:-
G-vector (4-way); efficiency rating: Good (77%)
k-point (14-way); efficiency rating: Excellent (99%)