 Compiled for linux_x86_64_ifort16 on Sat, 23 Jul 2016 23:44:54 +0100
 from code version
 203e84763863+ Castep161_branch Fri, 04 Mar 2016 19:21:07 +0000
 Compiler: Intel Fortran 16.0.3.210; Optimisation: fast
 MATHLIBS: Intel MKL(11.3.3) (LAPACK version 3.6.0)
 FFT Lib : mkl
 Fundamental constants values: CODATA 2010

 Run started: Tue, 15 May 2018 06:22:21 +0100
 |           N   N    M   M    RRRR                |
 |           NN  N    MM MM    R   R               |
 |           N N N    M M M    RRRR                |
 |           N  NN    M   M    R  R                |
 |           N   N    M   M    R   R               |
 | Welcome to Materials Studio CASTEP-NMR          |
 | Authors:                                        |
 | J.R. Yates, C.J. Pickard, F. Mauri              |
 | Contributors:                                   |
 | T.F.G. Green, S.A. Joyce                        |
 | Copyright (c) 2004 - 2015                       |
 | Please cite the appropriate publications in all |
 | work arising from your use of CASTEP NMR.       |
 | For NMR Shielding Tensors cite:                 |
 |    "All-electron magnetic response with         |
 |    pseudopotentials: NMR chemical shifts",      |
 |    C. J. Pickard, F. Mauri;                     |
 |    Physical Review B63 245101 (2001), and       |
 |    "Calculation of NMR Chemical Shifts          |
 |    for extended systems using                   |
 |    Ultrasoft Pseudopotentials",                 |
 |    J. R. Yates, C. J. Pickard and F. Mauri      |
 |    Physical Review B76 024401 (2007)            |
 | For Electric Field Gradients cite:              |
 |   "Accurate First Principles Prediction of 17O  |
 |    NMR Parameters in SiO2: Assignment of the    |
 |    Zeolite Ferrierite Spectrum"                 |
 |    M. Profeta, F. Mauri and C. J. Pickard       |
 |    J. Amer. Chem. Soc. 125 541 (2003)           |
 | For Spin-Spin (J) Couplings cite:               |
 |   "A first principles theory of NMR J-coupling  |
 |   in solid-state systems"                       |
 |   S.A. Joyce, J.R. Yates, C.J. Pickard, F. Mauri|
 |   J. Chem. Phys. 127 204107 (2007)              |
 |   "Relativistic NMR J-coupling with ultrasoft   |
 |   pseudopotentials and the zeroth-order regular |
 |   approximation"                                |
 |   T.F.G. Green and J.R. Yates                   |
 |   J. Chem. Phys. 140 234106 (2014)              |

 Atomic calculation performed for O: 1s2 2s2 2p4

 Converged in 44 iterations to an ae energy of -2040.855 eV

 Atomic calculation performed for O: 1s2 2s2 2p4

 Exceeded max iterations: converged to 0.000000062 eV

   | Pseudopotential Report - Date of generation 15-05-2018   |
   | Element: O Ionic charge:  6.00 Level of theory: PBE      |
   | Atomic Solver: ZORA (scalar)                             |
   |               Reference Electronic Structure             |
   |         Orbital         Occupation         Energy        |
   |            2s              2.000           -0.881        |
   |            2p              4.000           -0.332        |
   |                 Pseudopotential Definition               |
   |        Beta     l      e      Rc     scheme   norm       |
   |          1      0   -0.881   1.100     qc      0         |
   |          2      0    0.250   1.100     qc      0         |
   |          3      1   -0.332   1.100     qc      0         |
   |          4      1    0.250   1.100     qc      0         |
   |         loc     2    0.000   1.100     pn      0         |
   | Augmentation charge Rinner = 0.769                       |
   | Partial core correction Rc = 0.769                       |
   | "2|1.1|15|18|20|20:21(qc=7)"                             |
   |      Author: Chris J. Pickard, Cambridge University      |

 Atomic calculation performed for Zr: 1s2 2s2 2p6 3s2 3p6 3d10 4s2 4p6 4d2 5s2

[...]

 Atomic calculation performed for Zr: 1s2 2s2 2p6 3s2 3p6 3d10 4s2 4p6 4d2 5s2

[...]

 Warning: ion_atom_descreen_psp: negative charge density encountered
   | Pseudopotential Report - Date of generation 15-05-2018   |
   | Element: Zr Ionic charge: 12.00 Level of theory: PBE     |
   | Atomic Solver: ZORA (scalar)                             |
   |               Reference Electronic Structure             |
   |         Orbital         Occupation         Energy        |
   |            4s              2.000           -2.003        |
   |            4p              6.000           -1.193        |
   |            5s              2.000           -0.163        |
   |            4d              2.000           -0.132        |
   |                 Pseudopotential Definition               |
   |        Beta     l      e      Rc     scheme   norm       |
   |          1      0   -2.003   2.105     qc      0         |
   |          2      0   -0.163   2.105     qc      0         |
   |          3      0    0.250   2.105     qc      0         |
   |          4      1   -1.193   2.105     qc      0         |
   |          5      1    0.250   2.105     qc      0         |
   |          6      2   -0.132   2.105     qc      0         |
   |          7      2    0.250   2.105     qc      0         |
   |         loc     3    0.000   2.105     pn      0         |
   | Augmentation charge Rinner = 1.471                       |
   | Partial core correction Rc = 1.471                       |
   | "3|2.1|7|8|9|40U:50:41:42"                               |
   |      Author: Chris J. Pickard, Cambridge University      |

 Atomic calculation performed for Sn:

[...]

 Atomic calculation performed for Sn:

[...]

   | Pseudopotential Report - Date of generation 15-05-2018   |
   | Element: Sn Ionic charge: 14.00 Level of theory: PBE     |
   | Atomic Solver: ZORA (scalar)                             |
   |               Reference Electronic Structure             |
   |         Orbital         Occupation         Energy        |
   |            4d             10.000           -0.950        |
   |            5s              2.000           -0.388        |
   |            5p              2.000           -0.136        |
   |                 Pseudopotential Definition               |
   |        Beta     l      e      Rc     scheme   norm       |
   |          1      0   -0.388   2.199     qc      0         |
   |          2      0    0.250   2.199     qc      0         |
   |          3      1   -0.136   2.199     qc      0         |
   |          4      1    0.250   2.199     qc      0         |
   |          5      2   -0.950   2.199     qc      0         |
   |          6      2    0.250   2.199     qc      0         |
   |         loc     3    0.000   2.199     pn      0         |
   | Augmentation charge Rinner = 1.537                       |
   | Partial core correction Rc = 1.537                       |
   | "3|2.2|7|8|9|50:51:42"                                   |
   |      Author: Chris J. Pickard, Cambridge University      |

 Atomic calculation performed for La:

 Converged in 56 iterations to an ae energy of -230121.495 eV

 Atomic calculation performed for La:

 Exceeded max iterations: converged to 0.000000907 eV

 Warning: ion_atom_descreen_psp: negative charge density encountered
   | Pseudopotential Report - Date of generation 15-05-2018   |
   | Element: La Ionic charge: 11.00 Level of theory: PBE     |
   | Atomic Solver: ZORA (scalar)                             |
   |               Reference Electronic Structure             |
   |         Orbital         Occupation         Energy        |
   |            5s              2.000           -1.430        |
   |            5p              6.000           -0.823        |
   |            6s              2.000           -0.135        |
   |            5d              1.000           -0.114        |
   |                 Pseudopotential Definition               |
   |        Beta     l      e      Rc     scheme   norm       |
   |          1      0   -1.430   2.298     qc      0         |
   |          2      0   -0.135   2.298     qc      0         |
   |          3      0    0.250   2.298     qc      0         |
   |          4      1   -0.823   2.298     qc      0         |
   |          5      1    0.250   2.298     qc      0         |
   |          6      2   -0.114   2.298     qc      0         |
   |          7      2    0.250   2.298     qc      0         |
   |         loc     2    0.000   2.298     pn      0         |
   | Augmentation charge Rinner = 1.606                       |
   | Partial core correction Rc = 1.606                       |
   | "2|2.3|5|6|7|50U:60:51:52(qc=4.5)"                       |
   |      Author: Chris J. Pickard, Cambridge University      |

 Pseudo atomic calculation performed for O 2s2 2p4

 Converged in 39 iterations to a total energy of -432.6554 eV

 Pseudo atomic calculation performed for Zr 4s2 4p6 4d2 5s2

[...]

 Calculation parallelised over 56 processes.
 Data is distributed by G-vector(4-way) and k-point(14-way)

 ************************************ Title ************************************
 nmr testing

 ***************************** General Parameters ******************************

 output verbosity                               : normal  (1)
 write checkpoint data to                       : 044.check
 type of calculation                            : Magnetic Resonance
 stress calculation                             : on
 density difference calculation                 : off
 electron localisation func (ELF) calculation   : off
 Hirshfeld analysis                             : off
 unlimited duration calculation
 timing information                             : on
 write final potential to formatted file        : off
 write final density to formatted file          : off
 write structure in CIF formatted file          : on
 write structure in CELL formatted file         : on
 write BibTeX reference list                    : on
 write OTFG pseudopotential files               : on
 checkpoint writing                             : both castep_bin and check files

 output         length unit                     : A
 output           mass unit                     : amu
 output           time unit                     : ps
 output         charge unit                     : e
 output           spin unit                     : hbar/2
 output         energy unit                     : eV
 output          force unit                     : eV/A
 output       velocity unit                     : A/ps
 output       pressure unit                     : GPa
 output     inv_length unit                     : 1/A
 output      frequency unit                     : cm-1
 output force constant unit                     : eV/A**2
 output         volume unit                     : A**3
 output   IR intensity unit                     : (D/A)**2/amu
 output         dipole unit                     : D
 output         efield unit                     : eV/A/e
 output        entropy unit                     : J/mol/K

 wavefunctions paging                           : none
 random number generator seed                   : randomised (62224337)
 data distribution                              : optimal for this architecture
[...]
  |    O          42     -164.81     151.22      0.87   1.071E+00   0.79 |
  |    O          43      -86.42      89.11      0.25  -3.216E+00   0.06 |
  |    O          44     -163.44     156.38      0.78   1.065E+00   0.78 |
  |    O          45      -90.83      86.52      0.14  -3.274E+00   0.12 |
  |    O          46     -162.98     139.89      0.83   1.026E+00   0.67 |
  |    O          47      -88.63      85.27      0.11  -3.166E+00   0.09 |
  |    O          48      -91.17      79.41      0.18  -3.259E+00   0.12 |
  |    O          49      -85.83      85.83      0.10  -3.225E+00   0.08 |
  |    O          50     -161.91     139.73      0.78   1.021E+00   0.71 |
  |    O          51     -159.99     140.92      0.86   1.088E+00   0.63 |
  |    O          52     -163.38     150.39      0.72   1.060E+00   0.76 |
  |    O          53      -85.83      85.83      0.10  -3.225E+00   0.08 |
  |    O          54     -161.91     139.73      0.78   1.021E+00   0.71 |
  |    O          55      -88.63      85.27      0.11  -3.166E+00   0.09 |
  |    O          56      -91.17      79.40      0.18  -3.259E+00   0.12 |
  |    Zr          1     1609.70    -114.55      0.12  -3.759E+01   0.10 |
  |    Zr          2     1622.20    -125.77      0.18  -3.642E+01   0.13 |
  |    Zr          3     1614.54    -119.45      0.11  -3.657E+01   0.09 |
  |    Zr          4     1614.54    -119.45      0.11  -3.657E+01   0.09 |
[...]
  |    La          2     4650.28     624.73      0.01  -7.931E+01   0.01 |
  |    La          3     4651.19     653.85      0.10  -8.050E+01   0.15 |
  |    La          4     4705.39     763.51      0.04  -8.545E+01   0.08 |
  |    La          5     4651.19     653.85      0.10  -8.050E+01   0.15 |
  |    La          6     4650.28     624.73      0.01  -7.931E+01   0.01 |
  |    La          7     4705.39     763.51      0.04  -8.545E+01   0.08 |
  |    La          8     4614.13     507.10      0.08  -7.729E+01   0.08 |
  |    La          9     4553.27     379.74      0.08  -7.278E+01   0.09 |
  |    La         10     4649.99     671.19      0.10  -7.941E+01   0.11 |
  |    La         11     4649.99     671.19      0.10  -7.941E+01   0.11 |
  |    La         12     4553.27     379.74      0.08  -7.278E+01   0.09 |
  |    La         13     4706.38     754.66      0.02  -8.398E+01   0.06 |
  |    La         14     4618.09     497.34      0.07  -7.854E+01   0.06 |
  |    La         15     4706.99     783.01      0.10  -8.545E+01   0.14 |
  |    La         16     4706.38     754.66      0.02  -8.398E+01   0.06 |

 *********************** Forces ***********************
 *            Cartesian components (eV/A)             *
 *                   x            y            z      *
 * O         1      0.00520      0.00333      0.00333 *
 * O         2     -0.00087     -0.00065     -0.00567 *
 * O         3      0.00417      0.00245      0.00245 *
 * O         4     -0.00087     -0.00567     -0.00065 *
 * O         5     -0.00379     -0.00234     -0.00234 *
 * O         6      0.00150      0.00143      0.00143 *
 * O         7     -0.00205      0.00018      0.00527 *
 * O         8     -0.00205      0.00527      0.00018 *
 * O         9      0.00320     -0.01846     -0.01847 *
 * O        10     -0.01923     -0.00983      0.00316 *
 * O        11     -0.00561      0.00424      0.00424 *
 * O        12      0.01331     -0.00515      0.00342 *
 * O        13     -0.03381     -0.00020     -0.02929 *
 * O        14      0.00401     -0.00966     -0.00391 *
 * O        15     -0.00211      0.00181      0.00545 *
 * O        16     -0.00926      0.00499     -0.02443 *
 * O        17     -0.03381     -0.02929     -0.00020 *
 * O        18     -0.02420      0.02533     -0.00681 *
 * O        19     -0.00211      0.00545      0.00181 *
 * O        20     -0.01764      0.00332      0.00499 *
 * O        21      0.00437      0.00860     -0.00475 *
 * O        22     -0.00136     -0.01059      0.00115 *
 * O        23      0.00940     -0.00774      0.01495 *
 * O        24     -0.00063      0.00145     -0.00656 *
 * O        25     -0.00663     -0.01166     -0.01166 *
 * O        26     -0.00176      0.00704     -0.00089 *
 * O        27     -0.00944     -0.00492     -0.00492 *
 * O        28      0.00419      0.01589     -0.01253 *
 * O        29      0.02559      0.02384     -0.00690 *
 * O        30     -0.00063     -0.00656      0.00145 *
 * O        31      0.01474     -0.01381      0.00247 *
 * O        32     -0.00136      0.00115     -0.01059 *
 * O        33      0.00418     -0.01253      0.01590 *
 * O        34     -0.00177     -0.00089      0.00704 *
 * O        35      0.01474      0.00247     -0.01381 *
 * O        36      0.02559     -0.00690      0.02384 *
 * O        37      0.00437     -0.00475      0.00860 *
 * O        38      0.00940      0.01495     -0.00774 *
 * O        39     -0.02420     -0.00681      0.02533 *
 * O        40     -0.01764      0.00499      0.00332 *
 * O        41      0.01332      0.00342     -0.00515 *
 * O        42     -0.01923      0.00316     -0.00983 *
 * O        43     -0.00926     -0.02443      0.00499 *
 * O        44      0.00401     -0.00391     -0.00966 *
 * O        45      0.01631      0.01210      0.01210 *
 * O        46     -0.00065      0.00806      0.00806 *
 * O        47     -0.01014      0.01874     -0.00603 *
 * O        48      0.00873      0.01016      0.00625 *
 * O        49      0.02406      0.01499     -0.01223 *
 * O        50     -0.00637     -0.00781     -0.00807 *
 * O        51      0.01242      0.00573      0.00573 *
 * O        52     -0.01359     -0.00877     -0.00877 *
 * O        53      0.02406     -0.01223      0.01499 *
 * O        54     -0.00637     -0.00807     -0.00781 *
 * O        55     -0.01014     -0.00603      0.01874 *
 * O        56      0.00873      0.00626      0.01016 *
 * Zr        1     -0.02496     -0.01536     -0.01536 *
 * Zr        2      0.00222      0.01250     -0.01521 *
 * Zr        3      0.00379     -0.01117     -0.01075 *
 * Zr        4      0.00379     -0.01076     -0.01117 *
[...]
 * La        2      0.00345      0.01948      0.01999 *
 * La        3      0.00022     -0.00192     -0.00532 *
 * La        4      0.01503      0.00257      0.00573 *
 * La        5      0.00022     -0.00533     -0.00193 *
 * La        6      0.00345      0.01999      0.01948 *
 * La        7      0.01503      0.00573      0.00257 *
 * La        8      0.00070      0.00149      0.00148 *
 * La        9     -0.00127      0.00864      0.00236 *
 * La       10      0.00160     -0.01046     -0.00521 *
 * La       11      0.00160     -0.00521     -0.01046 *
 * La       12     -0.00127      0.00236      0.00864 *
 * La       13      0.00729     -0.01050      0.01280 *
 * La       14     -0.00912     -0.00057     -0.00057 *
 * La       15     -0.00037      0.00742      0.00742 *
 * La       16      0.00729      0.01280     -0.01050 *

 ***************** Stress Tensor *****************
 *          Cartesian components (GPa)           *
 *             x             y             z     *
 *  x      0.046447     -0.000605     -0.000605  *
 *  y     -0.000605      0.039802     -0.029008  *
 *  z     -0.000605     -0.029008      0.039803  *
 *  Pressure:   -0.0420                          *

[...]

 Pseudo atomic calculation performed for Sn 4d10 5s2 5p2

[...]

 Pseudo atomic calculation performed for La 5s2 5p6 5d1 6s2

 Converged in 34 iterations to a total energy of -968.0372 eV

Charge spilling parameter for spin component 1 = 0.24%

     Atomic Populations (Mulliken)
Species   Ion     s      p      d      f     Total  Charge (e)
  O        1     1.87   5.00   0.00   0.00   6.87    -0.87
  O        2     1.87   5.00   0.00   0.00   6.87    -0.87
  O        3     1.87   5.00   0.00   0.00   6.87    -0.87
  O        4     1.87   5.00   0.00   0.00   6.87    -0.87
  O        5     1.87   5.00   0.00   0.00   6.87    -0.87
  O        6     1.87   5.00   0.00   0.00   6.87    -0.87
  O        7     1.87   5.00   0.00   0.00   6.87    -0.87
  O        8     1.87   5.00   0.00   0.00   6.87    -0.87
  O        9     1.87   4.99   0.00   0.00   6.85    -0.85
  O       10     1.86   4.95   0.00   0.00   6.80    -0.80
  O       11     1.88   5.02   0.00   0.00   6.91    -0.91
  O       12     1.88   5.02   0.00   0.00   6.91    -0.91
  O       13     1.87   4.99   0.00   0.00   6.86    -0.86
  O       14     1.86   4.95   0.00   0.00   6.80    -0.80
  O       15     1.88   5.02   0.00   0.00   6.91    -0.91
  O       16     1.87   4.99   0.00   0.00   6.86    -0.86
  O       17     1.87   4.99   0.00   0.00   6.86    -0.86
  O       18     1.87   4.99   0.00   0.00   6.86    -0.86
  O       19     1.88   5.02   0.00   0.00   6.91    -0.91
  O       20     1.87   4.99   0.00   0.00   6.85    -0.85
  O       21     1.88   5.02   0.00   0.00   6.91    -0.91
  O       22     1.88   5.02   0.00   0.00   6.91    -0.91
  O       23     1.87   4.99   0.00   0.00   6.86    -0.86
  O       24     1.86   4.95   0.00   0.00   6.80    -0.80
  O       25     1.86   4.95   0.00   0.00   6.80    -0.80
  O       26     1.88   5.02   0.00   0.00   6.91    -0.91
  O       27     1.88   5.02   0.00   0.00   6.91    -0.91
  O       28     1.87   4.99   0.00   0.00   6.86    -0.86
  O       29     1.87   4.99   0.00   0.00   6.86    -0.86
  O       30     1.86   4.95   0.00   0.00   6.80    -0.80
  O       31     1.87   4.99   0.00   0.00   6.86    -0.86
  O       32     1.88   5.02   0.00   0.00   6.91    -0.91
  O       33     1.87   4.99   0.00   0.00   6.86    -0.86
  O       34     1.88   5.02   0.00   0.00   6.91    -0.91
  O       35     1.87   4.99   0.00   0.00   6.86    -0.86
  O       36     1.87   4.99   0.00   0.00   6.86    -0.86
  O       37     1.88   5.02   0.00   0.00   6.91    -0.91
  O       38     1.87   4.99   0.00   0.00   6.86    -0.86
  O       39     1.87   4.99   0.00   0.00   6.86    -0.86
  O       40     1.87   4.99   0.00   0.00   6.85    -0.85
  O       41     1.88   5.02   0.00   0.00   6.91    -0.91
  O       42     1.86   4.95   0.00   0.00   6.80    -0.80
  O       43     1.87   4.99   0.00   0.00   6.86    -0.86
  O       44     1.86   4.95   0.00   0.00   6.80    -0.80
  O       45     1.87   4.99   0.00   0.00   6.86    -0.86
  O       46     1.86   4.95   0.00   0.00   6.80    -0.80
  O       47     1.87   4.99   0.00   0.00   6.86    -0.86
  O       48     1.87   4.99   0.00   0.00   6.86    -0.86
  O       49     1.87   4.99   0.00   0.00   6.86    -0.86
  O       50     1.86   4.95   0.00   0.00   6.80    -0.80
  O       51     1.86   4.95   0.00   0.00   6.80    -0.80
  O       52     1.86   4.95   0.00   0.00   6.80    -0.80
  O       53     1.87   4.99   0.00   0.00   6.86    -0.86
  O       54     1.86   4.95   0.00   0.00   6.80    -0.80
  O       55     1.87   4.99   0.00   0.00   6.86    -0.86
  O       56     1.87   4.99   0.00   0.00   6.86    -0.86
  Zr       1     2.37   6.49   1.92   0.00  10.78     1.22
  Zr       2     2.37   6.49   1.92   0.00  10.78     1.22
  Zr       3     2.37   6.49   1.92   0.00  10.78     1.22
  Zr       4     2.37   6.49   1.92   0.00  10.78     1.22
[...]
  La       2     2.08   6.17   1.19   0.00   9.45     1.55
  La       3     2.08   6.17   1.19   0.00   9.44     1.56
  La       4     2.03   6.16   1.19   0.00   9.38     1.62
  La       5     2.08   6.17   1.19   0.00   9.44     1.56
  La       6     2.08   6.17   1.19   0.00   9.45     1.55
  La       7     2.03   6.16   1.19   0.00   9.38     1.62
  La       8     2.08   6.19   1.19   0.00   9.46     1.54
  La       9     2.12   6.20   1.19   0.00   9.52     1.48
  La      10     2.06   6.16   1.19   0.00   9.42     1.58
  La      11     2.06   6.16   1.19   0.00   9.42     1.58
  La      12     2.12   6.20   1.19   0.00   9.52     1.48
  La      13     2.03   6.16   1.19   0.00   9.39     1.61
  La      14     2.09   6.20   1.19   0.00   9.48     1.52
  La      15     2.03   6.16   1.20   0.00   9.38     1.62
  La      16     2.03   6.16   1.19   0.00   9.39     1.61

            Bond              Population      Length (A)
         O 45 -- Sn 7              0.34        2.09710
         O 49 -- Sn 1              0.35        2.10061
         O 53 -- Sn 2              0.35        2.10061
         O 48 -- Sn 5              0.35        2.10107
         O 56 -- Sn 4              0.35        2.10107
         O 29 -- Sn 6              0.35        2.10129
         O 36 -- Sn 8              0.35        2.10129
         O 39 -- Sn 1              0.35        2.10244
         O 18 -- Sn 2              0.35        2.10244
         O 9  -- Sn 3              0.34        2.10289
         O 38 -- Sn 3              0.35        2.10370
         O 23 -- Sn 3              0.35        2.10370
         O 17 -- Sn 8              0.34        2.10639
         O 13 -- Sn 6              0.34        2.10639
         O 43 -- Sn 6              0.35        2.10753
         O 16 -- Sn 8              0.35        2.10753
         O 28 -- Sn 4              0.34        2.10806
         O 33 -- Sn 5              0.34        2.10806
         O 9  -- Zr 8              0.46        2.10826
         O 20 -- Sn 3              0.34        2.10983
         O 40 -- Sn 3              0.34        2.10983
         O 34 -- Sn 6              0.33        2.10988
         O 26 -- Sn 8              0.33        2.10988
         O 27 -- Sn 7              0.34        2.11047
         O 34 -- Sn 1              0.33        2.11068
         O 26 -- Sn 2              0.33        2.11068
         O 13 -- Zr 7              0.45        2.11071
         O 17 -- Zr 6              0.45        2.11071
         O 55 -- Sn 2              0.34        2.11095
         O 47 -- Sn 1              0.34        2.11095
         O 27 -- Sn 3              0.33        2.11121
         O 31 -- Sn 7              0.34        2.11171
         O 35 -- Sn 7              0.34        2.11171
         O 14 -- Zr 4              0.43        2.11211
         O 44 -- Zr 3              0.43        2.11211
         O 15 -- Sn 5              0.33        2.11360
         O 19 -- Sn 4              0.33        2.11360
         O 10 -- Zr 5              0.41        2.11382
         O 42 -- Zr 2              0.41        2.11382
         O 22 -- Sn 4              0.34        2.11385
         O 32 -- Sn 5              0.34        2.11385
         O 15 -- Sn 7              0.34        2.11401
         O 19 -- Sn 7              0.34        2.11401
         O 52 -- Zr 1              0.44        2.11412
         O 10 -- Zr 6              0.41        2.11420
         O 42 -- Zr 7              0.41        2.11420
         O 37 -- Sn 4              0.33        2.11443
         O 21 -- Sn 5              0.33        2.11443
         O 22 -- Sn 6              0.34        2.11455
         O 32 -- Sn 8              0.34        2.11455
         O 37 -- Sn 1              0.34        2.11495
         O 21 -- Sn 2              0.34        2.11495
         O 45 -- Zr 1              0.43        2.11674
         O 44 -- Zr 8              0.42        2.11731
         O 14 -- Zr 8              0.42        2.11731
         O 29 -- Zr 4              0.44        2.11753
         O 36 -- Zr 3              0.44        2.11753
         O 30 -- Zr 7              0.43        2.11816
         O 24 -- Zr 6              0.43        2.11816
         O 18 -- Zr 7              0.45        2.11848
[...]
         O 25 -- O 39             -0.03        2.82812
         O 46 -- O 53             -0.03        2.82902
         O 46 -- O 49             -0.03        2.82902
         O 43 -- O 51             -0.03        2.82913
         O 16 -- O 51             -0.03        2.82913
         O 47 -- O 51             -0.03        2.83122
         O 51 -- O 55             -0.03        2.83122
         O 17 -- O 25             -0.03        2.83135
         O 13 -- O 25             -0.03        2.83135
         O 48 -- O 50             -0.03        2.83149
         O 54 -- O 56             -0.03        2.83149
         O 16 -- O 31             -0.03        2.83355
         O 35 -- O 43             -0.03        2.83355
         O 33 -- O 40             -0.03        2.83730
         O 20 -- O 28             -0.03        2.83730

Writing analysis data to 044.castep_bin

Writing model to 044.check

 A BibTeX formatted list of references used in this run has been written to
 044.bib

Initialisation time =     55.06 s
Calculation time    =  33590.82 s
Finalisation time   =     82.87 s
Total time          =  33728.76 s

Overall parallel efficiency rating: Good (78%)

Data was distributed by:-
G-vector (4-way); efficiency rating: Good (79%)
k-point (14-way); efficiency rating: Excellent (99%)