 Compiled for linux_x86_64_ifort16 on Sat, 23 Jul 2016 23:44:54 +0100
 from code version
 203e84763863+ Castep161_branch Fri, 04 Mar 2016 19:21:07 +0000
 Compiler: Intel Fortran 16.0.3.210; Optimisation: fast
 MATHLIBS: Intel MKL(11.3.3) (LAPACK version 3.6.0)
 FFT Lib : mkl
 Fundamental constants values: CODATA 2010

 Run started: Fri, 11 May 2018 21:50:33 +0100
 |           N   N    M   M    RRRR                |
 |           NN  N    MM MM    R   R               |
 |           N N N    M M M    RRRR                |
 |           N  NN    M   M    R  R                |
 |           N   N    M   M    R   R               |
 | Welcome to Materials Studio CASTEP-NMR          |
 | Authors:                                        |
 | J.R. Yates, C.J. Pickard, F. Mauri              |
 | Contributors:                                   |
 | T.F.G. Green, S.A. Joyce                        |
 | Copyright (c) 2004 - 2015                       |
 | Please cite the appropriate publications in all |
 | work arising from your use of CASTEP NMR.       |
 | For NMR Shielding Tensors cite:                 |
 |    "All-electron magnetic response with         |
 |    pseudopotentials: NMR chemical shifts",      |
 |    C. J. Pickard, F. Mauri;                     |
 |    Physical Review B63 245101 (2001), and       |
 |    "Calculation of NMR Chemical Shifts          |
 |    for extended systems using                   |
 |    Ultrasoft Pseudopotentials",                 |
 |    J. R. Yates, C. J. Pickard and F. Mauri      |
 |    Physical Review B76 024401 (2007)            |
 | For Electric Field Gradients cite:              |
 |   "Accurate First Principles Prediction of 17O  |
 |    NMR Parameters in SiO2: Assignment of the    |
 |    Zeolite Ferrierite Spectrum"                 |
 |    M. Profeta, F. Mauri and C. J. Pickard       |
 |    J. Amer. Chem. Soc. 125 541 (2003)           |
 | For Spin-Spin (J) Couplings cite:               |
 |   "A first principles theory of NMR J-coupling  |
 |   in solid-state systems"                       |
 |   S.A. Joyce, J.R. Yates, C.J. Pickard, F. Mauri|
 |   J. Chem. Phys. 127 204107 (2007)              |
 |   "Relativistic NMR J-coupling with ultrasoft   |
 |   pseudopotentials and the zeroth-order regular |
 |   approximation"                                |
 |   T.F.G. Green and J.R. Yates                   |
 |   J. Chem. Phys. 140 234106 (2014)              |

 Atomic calculation performed for O: 1s2 2s2 2p4

 Converged in 44 iterations to an ae energy of -2040.855 eV

 Atomic calculation performed for O: 1s2 2s2 2p4

 Exceeded max iterations: converged to 0.000000062 eV

   | Pseudopotential Report - Date of generation 11-05-2018   |
   | Element: O Ionic charge:  6.00 Level of theory: PBE      |
   | Atomic Solver: ZORA (scalar)                             |
   |               Reference Electronic Structure             |
   |         Orbital         Occupation         Energy        |
   |            2s              2.000           -0.881        |
   |            2p              4.000           -0.332        |
   |                 Pseudopotential Definition               |
   |        Beta     l      e      Rc     scheme   norm       |
   |          1      0   -0.881   1.100     qc      0         |
   |          2      0    0.250   1.100     qc      0         |
   |          3      1   -0.332   1.100     qc      0         |
   |          4      1    0.250   1.100     qc      0         |
   |         loc     2    0.000   1.100     pn      0         |
   | Augmentation charge Rinner = 0.769                       |
   | Partial core correction Rc = 0.769                       |
   | "2|1.1|15|18|20|20:21(qc=7)"                             |
   |      Author: Chris J. Pickard, Cambridge University      |

 Atomic calculation performed for Zr: 1s2 2s2 2p6 3s2 3p6 3d10 4s2 4p6 4d2 5s2

[...]

 Atomic calculation performed for Zr: 1s2 2s2 2p6 3s2 3p6 3d10 4s2 4p6 4d2 5s2

[...]

 Warning: ion_atom_descreen_psp: negative charge density encountered
   | Pseudopotential Report - Date of generation 11-05-2018   |
   | Element: Zr Ionic charge: 12.00 Level of theory: PBE     |
   | Atomic Solver: ZORA (scalar)                             |
   |               Reference Electronic Structure             |
   |         Orbital         Occupation         Energy        |
   |            4s              2.000           -2.003        |
   |            4p              6.000           -1.193        |
   |            5s              2.000           -0.163        |
   |            4d              2.000           -0.132        |
   |                 Pseudopotential Definition               |
   |        Beta     l      e      Rc     scheme   norm       |
   |          1      0   -2.003   2.105     qc      0         |
   |          2      0   -0.163   2.105     qc      0         |
   |          3      0    0.250   2.105     qc      0         |
   |          4      1   -1.193   2.105     qc      0         |
   |          5      1    0.250   2.105     qc      0         |
   |          6      2   -0.132   2.105     qc      0         |
   |          7      2    0.250   2.105     qc      0         |
   |         loc     3    0.000   2.105     pn      0         |
   | Augmentation charge Rinner = 1.471                       |
   | Partial core correction Rc = 1.471                       |
   | "3|2.1|7|8|9|40U:50:41:42"                               |
   |      Author: Chris J. Pickard, Cambridge University      |

 Atomic calculation performed for Sn:

[...]

 Atomic calculation performed for Sn:

[...]

   | Pseudopotential Report - Date of generation 11-05-2018   |
   | Element: Sn Ionic charge: 14.00 Level of theory: PBE     |
   | Atomic Solver: ZORA (scalar)                             |
   |               Reference Electronic Structure             |
   |         Orbital         Occupation         Energy        |
   |            4d             10.000           -0.950        |
   |            5s              2.000           -0.388        |
   |            5p              2.000           -0.136        |
   |                 Pseudopotential Definition               |
   |        Beta     l      e      Rc     scheme   norm       |
   |          1      0   -0.388   2.199     qc      0         |
   |          2      0    0.250   2.199     qc      0         |
   |          3      1   -0.136   2.199     qc      0         |
   |          4      1    0.250   2.199     qc      0         |
   |          5      2   -0.950   2.199     qc      0         |
   |          6      2    0.250   2.199     qc      0         |
   |         loc     3    0.000   2.199     pn      0         |
   | Augmentation charge Rinner = 1.537                       |
   | Partial core correction Rc = 1.537                       |
   | "3|2.2|7|8|9|50:51:42"                                   |
   |      Author: Chris J. Pickard, Cambridge University      |

 Atomic calculation performed for La:

 Converged in 56 iterations to an ae energy of -230121.495 eV

 Atomic calculation performed for La:

 Exceeded max iterations: converged to 0.000000907 eV

 Warning: ion_atom_descreen_psp: negative charge density encountered
   | Pseudopotential Report - Date of generation 11-05-2018   |
   | Element: La Ionic charge: 11.00 Level of theory: PBE     |
   | Atomic Solver: ZORA (scalar)                             |
   |               Reference Electronic Structure             |
   |         Orbital         Occupation         Energy        |
   |            5s              2.000           -1.430        |
   |            5p              6.000           -0.823        |
   |            6s              2.000           -0.135        |
   |            5d              1.000           -0.114        |
   |                 Pseudopotential Definition               |
   |        Beta     l      e      Rc     scheme   norm       |
   |          1      0   -1.430   2.298     qc      0         |
   |          2      0   -0.135   2.298     qc      0         |
   |          3      0    0.250   2.298     qc      0         |
   |          4      1   -0.823   2.298     qc      0         |
   |          5      1    0.250   2.298     qc      0         |
   |          6      2   -0.114   2.298     qc      0         |
   |          7      2    0.250   2.298     qc      0         |
   |         loc     2    0.000   2.298     pn      0         |
   | Augmentation charge Rinner = 1.606                       |
   | Partial core correction Rc = 1.606                       |
   | "2|2.3|5|6|7|50U:60:51:52(qc=4.5)"                       |
   |      Author: Chris J. Pickard, Cambridge University      |

 Pseudo atomic calculation performed for O 2s2 2p4

 Converged in 39 iterations to a total energy of -432.6554 eV

 Pseudo atomic calculation performed for Zr 4s2 4p6 4d2 5s2

[...]

 Calculation parallelised over 56 processes.
 Data is distributed by G-vector(4-way) and k-point(14-way)

 ************************************ Title ************************************
 nmr testing

 ***************************** General Parameters ******************************

 output verbosity                               : normal  (1)
 write checkpoint data to                       : 051.check
 type of calculation                            : Magnetic Resonance
 stress calculation                             : on
 density difference calculation                 : off
 electron localisation func (ELF) calculation   : off
 Hirshfeld analysis                             : off
 unlimited duration calculation
 timing information                             : on
 write final potential to formatted file        : off
 write final density to formatted file          : off
 write structure in CIF formatted file          : on
 write structure in CELL formatted file         : on
 write BibTeX reference list                    : on
 write OTFG pseudopotential files               : on
 checkpoint writing                             : both castep_bin and check files

 output         length unit                     : A
 output           mass unit                     : amu
 output           time unit                     : ps
 output         charge unit                     : e
 output           spin unit                     : hbar/2
 output         energy unit                     : eV
 output          force unit                     : eV/A
 output       velocity unit                     : A/ps
 output       pressure unit                     : GPa
 output     inv_length unit                     : 1/A
 output      frequency unit                     : cm-1
 output force constant unit                     : eV/A**2
 output         volume unit                     : A**3
 output   IR intensity unit                     : (D/A)**2/amu
 output         dipole unit                     : D
 output         efield unit                     : eV/A/e
 output        entropy unit                     : J/mol/K

 wavefunctions paging                           : none
 random number generator seed                   : randomised (215034628)
 data distribution                              : optimal for this architecture
[...]
  |    O          42      -88.89      92.12      0.32  -3.133E+00   0.09 |
  |    O          43     -161.15     148.22      0.86   1.070E+00   0.70 |
  |    O          44     -160.83     153.55      0.81   1.052E+00   0.79 |
  |    O          45      -90.39      92.51      0.32  -3.123E+00   0.09 |
  |    O          46     -161.66     153.55      0.81   1.031E+00   0.83 |
  |    O          47      -89.79      92.07      0.24  -3.195E+00   0.10 |
  |    O          48      -90.08      85.23      0.26  -3.230E+00   0.09 |
  |    O          49      -88.77      95.53      0.24  -3.178E+00   0.11 |
  |    O          50      -89.25      85.18      0.23  -3.169E+00   0.07 |
  |    O          51     -162.48     153.77      0.85   1.037E+00   0.78 |
  |    O          52     -164.80     154.35      0.82   1.041E+00   0.80 |
  |    O          53      -88.77      95.53      0.24  -3.178E+00   0.11 |
  |    O          54      -89.25      85.17      0.23  -3.169E+00   0.07 |
  |    O          55      -89.79      92.06      0.24  -3.195E+00   0.10 |
  |    O          56      -90.08      85.23      0.26  -3.230E+00   0.09 |
  |    Zr          1     1609.48    -117.69      0.04  -3.575E+01   0.13 |
  |    Zr          2     1621.91    -121.94      0.12  -3.665E+01   0.05 |
  |    Zr          3     1627.13    -125.86      0.23  -3.759E+01   0.06 |
  |    Zr          4     1627.13    -125.87      0.23  -3.759E+01   0.06 |
[...]
  |    La          2     4702.70     749.19      0.02  -8.380E+01   0.06 |
  |    La          3     4657.95     653.86      0.08  -8.164E+01   0.11 |
  |    La          4     4660.41     649.35      0.01  -8.291E+01   0.03 |
  |    La          5     4657.95     653.86      0.08  -8.164E+01   0.11 |
  |    La          6     4702.70     749.20      0.02  -8.380E+01   0.06 |
  |    La          7     4660.41     649.35      0.01  -8.291E+01   0.03 |
  |    La          8     4492.79     221.95      0.01  -6.707E+01   0.00 |
  |    La          9     4604.82     521.51      0.08  -7.731E+01   0.09 |
  |    La         10     4654.10     652.99      0.02  -8.134E+01   0.02 |
  |    La         11     4654.10     652.98      0.02  -8.134E+01   0.02 |
  |    La         12     4604.82     521.52      0.08  -7.731E+01   0.09 |
  |    La         13     4653.39     658.57      0.07  -7.974E+01   0.12 |
  |    La         14     4707.85     744.68      0.03  -8.535E+01   0.09 |
  |    La         15     4704.86     751.30      0.03  -8.373E+01   0.07 |
  |    La         16     4653.39     658.57      0.07  -7.974E+01   0.12 |

 *********************** Forces ***********************
 *            Cartesian components (eV/A)             *
 *                   x            y            z      *
 * O         1     -0.01150     -0.00394     -0.00394 *
 * O         2     -0.00038     -0.00203     -0.01458 *
 * O         3      0.00126      0.00475      0.00475 *
 * O         4     -0.00038     -0.01458     -0.00203 *
 * O         5     -0.00898     -0.00968     -0.00968 *
 * O         6      0.01089      0.00454      0.00454 *
 * O         7     -0.00147      0.00345      0.00399 *
 * O         8     -0.00147      0.00399      0.00345 *
 * O         9      0.00081     -0.00137     -0.00137 *
 * O        10     -0.00824      0.00711     -0.01293 *
 * O        11     -0.00753      0.00257      0.00257 *
 * O        12      0.00191      0.01837      0.02072 *
 * O        13      0.01824     -0.00273      0.01724 *
 * O        14      0.00410     -0.00967      0.01010 *
 * O        15     -0.00584     -0.00221      0.00685 *
 * O        16      0.00126      0.00793      0.00493 *
 * O        17      0.01824      0.01724     -0.00273 *
 * O        18     -0.00331      0.00144     -0.00862 *
 * O        19     -0.00584      0.00685     -0.00221 *
 * O        20     -0.00984     -0.00315     -0.00117 *
 * O        21     -0.00163      0.00320     -0.00358 *
 * O        22     -0.01801      0.00136     -0.02146 *
 * O        23      0.00203     -0.00757      0.00619 *
 * O        24     -0.00751      0.00926      0.00450 *
 * O        25     -0.00065     -0.00367     -0.00367 *
 * O        26     -0.00608     -0.01471     -0.02593 *
 * O        27     -0.00395     -0.01359     -0.01359 *
 * O        28      0.00436      0.01275     -0.01569 *
 * O        29      0.00168      0.00043     -0.00696 *
 * O        30     -0.00751      0.00450      0.00926 *
 * O        31      0.01799     -0.01525      0.00105 *
 * O        32     -0.01801     -0.02146      0.00136 *
 * O        33      0.00436     -0.01569      0.01275 *
 * O        34     -0.00608     -0.02593     -0.01471 *
 * O        35      0.01799      0.00105     -0.01525 *
 * O        36      0.00168     -0.00696      0.00043 *
 * O        37     -0.00163     -0.00358      0.00320 *
 * O        38      0.00203      0.00619     -0.00757 *
 * O        39     -0.00331     -0.00862      0.00144 *
 * O        40     -0.00984     -0.00117     -0.00315 *
 * O        41      0.00191      0.02072      0.01837 *
 * O        42     -0.00824     -0.01293      0.00711 *
 * O        43      0.00126      0.00493      0.00793 *
 * O        44      0.00410      0.01010     -0.00967 *
 * O        45      0.00678      0.01895      0.01895 *
 * O        46     -0.00296      0.00307      0.00307 *
 * O        47     -0.01313      0.01051     -0.00882 *
 * O        48      0.01836      0.01931      0.00501 *
 * O        49      0.01935      0.00640     -0.00870 *
 * O        50     -0.01684     -0.00201     -0.01674 *
 * O        51      0.00873      0.00275      0.00275 *
 * O        52     -0.00913     -0.00371     -0.00371 *
 * O        53      0.01935     -0.00870      0.00640 *
 * O        54     -0.01684     -0.01674     -0.00201 *
 * O        55     -0.01313     -0.00882      0.01051 *
 * O        56      0.01836      0.00501      0.01931 *
 * Zr        1     -0.01814      0.00814      0.00814 *
 * Zr        2      0.00746     -0.00243      0.01612 *
 * Zr        3     -0.01239     -0.04087     -0.00288 *
 * Zr        4     -0.01239     -0.00288     -0.04087 *
[...]
 * La        2      0.01455      0.01734      0.02314 *
 * La        3     -0.00407     -0.00418     -0.01832 *
 * La        4      0.00563      0.01125     -0.01277 *
 * La        5     -0.00407     -0.01832     -0.00418 *
 * La        6      0.01455      0.02314      0.01734 *
 * La        7      0.00563     -0.01277      0.01125 *
 * La        8      0.00376     -0.00112     -0.00112 *
 * La        9     -0.01457      0.01245      0.00028 *
 * La       10      0.01110      0.00074     -0.00483 *
 * La       11      0.01110     -0.00483      0.00074 *
 * La       12     -0.01457      0.00028      0.01245 *
 * La       13     -0.00470     -0.00678      0.01110 *
 * La       14     -0.02071     -0.01773     -0.01773 *
 * La       15      0.02504      0.02187      0.02187 *
 * La       16     -0.00470      0.01110     -0.00678 *

 ***************** Stress Tensor *****************
 *          Cartesian components (GPa)           *
 *             x             y             z     *
 *  x      0.022881      0.018922      0.018922  *
 *  y      0.018922      0.022105      0.004587  *
 *  z      0.018922      0.004587      0.022105  *
 *  Pressure:   -0.0224                          *

[...]

 Pseudo atomic calculation performed for Sn 4d10 5s2 5p2

[...]

 Pseudo atomic calculation performed for La 5s2 5p6 5d1 6s2

 Converged in 34 iterations to a total energy of -968.0372 eV

Charge spilling parameter for spin component 1 = 0.24%

     Atomic Populations (Mulliken)
Species   Ion     s      p      d      f     Total  Charge (e)
  O        1     1.87   5.00   0.00   0.00   6.87    -0.87
  O        2     1.87   5.00   0.00   0.00   6.87    -0.87
  O        3     1.87   5.00   0.00   0.00   6.87    -0.87
  O        4     1.87   5.00   0.00   0.00   6.87    -0.87
  O        5     1.87   5.00   0.00   0.00   6.87    -0.87
  O        6     1.87   5.00   0.00   0.00   6.87    -0.87
  O        7     1.87   5.00   0.00   0.00   6.87    -0.87
  O        8     1.87   5.00   0.00   0.00   6.87    -0.87
  O        9     1.87   4.99   0.00   0.00   6.85    -0.85
  O       10     1.87   4.99   0.00   0.00   6.86    -0.86
  O       11     1.88   5.02   0.00   0.00   6.91    -0.91
  O       12     1.87   4.99   0.00   0.00   6.86    -0.86
  O       13     1.87   4.99   0.00   0.00   6.86    -0.86
  O       14     1.86   4.95   0.00   0.00   6.80    -0.80
  O       15     1.88   5.02   0.00   0.00   6.91    -0.91
  O       16     1.86   4.95   0.00   0.00   6.80    -0.80
  O       17     1.87   4.99   0.00   0.00   6.86    -0.86
  O       18     1.88   5.02   0.00   0.00   6.91    -0.91
  O       19     1.88   5.02   0.00   0.00   6.91    -0.91
  O       20     1.87   4.99   0.00   0.00   6.86    -0.86
  O       21     1.88   5.02   0.00   0.00   6.91    -0.91
  O       22     1.87   4.99   0.00   0.00   6.86    -0.86
  O       23     1.87   4.99   0.00   0.00   6.86    -0.86
  O       24     1.87   4.99   0.00   0.00   6.86    -0.86
  O       25     1.88   5.02   0.00   0.00   6.91    -0.91
  O       26     1.87   4.99   0.00   0.00   6.86    -0.86
  O       27     1.88   5.02   0.00   0.00   6.91    -0.91
  O       28     1.87   4.99   0.00   0.00   6.86    -0.86
  O       29     1.86   4.95   0.00   0.00   6.80    -0.80
  O       30     1.87   4.99   0.00   0.00   6.86    -0.86
  O       31     1.87   4.99   0.00   0.00   6.86    -0.86
  O       32     1.87   4.99   0.00   0.00   6.86    -0.86
  O       33     1.87   4.99   0.00   0.00   6.86    -0.86
  O       34     1.87   4.99   0.00   0.00   6.86    -0.86
  O       35     1.87   4.99   0.00   0.00   6.86    -0.86
  O       36     1.86   4.95   0.00   0.00   6.80    -0.80
  O       37     1.88   5.02   0.00   0.00   6.91    -0.91
  O       38     1.87   4.99   0.00   0.00   6.86    -0.86
  O       39     1.88   5.02   0.00   0.00   6.91    -0.91
  O       40     1.87   4.99   0.00   0.00   6.86    -0.86
  O       41     1.87   4.99   0.00   0.00   6.86    -0.86
  O       42     1.87   4.99   0.00   0.00   6.86    -0.86
  O       43     1.86   4.95   0.00   0.00   6.80    -0.80
  O       44     1.86   4.95   0.00   0.00   6.80    -0.80
  O       45     1.87   4.99   0.00   0.00   6.86    -0.86
  O       46     1.86   4.95   0.00   0.00   6.80    -0.80
  O       47     1.87   4.99   0.00   0.00   6.86    -0.86
  O       48     1.87   4.99   0.00   0.00   6.86    -0.86
  O       49     1.87   4.99   0.00   0.00   6.86    -0.86
  O       50     1.87   4.99   0.00   0.00   6.86    -0.86
  O       51     1.86   4.95   0.00   0.00   6.80    -0.80
  O       52     1.86   4.95   0.00   0.00   6.80    -0.80
  O       53     1.87   4.99   0.00   0.00   6.86    -0.86
  O       54     1.87   4.99   0.00   0.00   6.86    -0.86
  O       55     1.87   4.99   0.00   0.00   6.86    -0.86
  O       56     1.87   4.99   0.00   0.00   6.86    -0.86
  Zr       1     2.37   6.50   1.92   0.00  10.79     1.21
  Zr       2     2.37   6.49   1.92   0.00  10.78     1.22
  Zr       3     2.37   6.48   1.92   0.00  10.78     1.22
  Zr       4     2.37   6.48   1.92   0.00  10.78     1.22
[...]
  La       2     2.05   6.16   1.19   0.00   9.41     1.59
  La       3     2.07   6.18   1.19   0.00   9.44     1.56
  La       4     2.04   6.18   1.19   0.00   9.41     1.59
  La       5     2.07   6.18   1.19   0.00   9.44     1.56
  La       6     2.05   6.16   1.19   0.00   9.41     1.59
  La       7     2.04   6.18   1.19   0.00   9.41     1.59
  La       8     2.13   6.22   1.19   0.00   9.54     1.46
  La       9     2.07   6.19   1.19   0.00   9.45     1.55
  La      10     2.04   6.17   1.19   0.00   9.41     1.59
  La      11     2.04   6.17   1.19   0.00   9.41     1.59
  La      12     2.07   6.19   1.19   0.00   9.45     1.55
  La      13     2.07   6.17   1.19   0.00   9.44     1.56
  La      14     2.04   6.17   1.19   0.00   9.41     1.59
  La      15     2.03   6.17   1.19   0.00   9.39     1.61
  La      16     2.07   6.17   1.19   0.00   9.44     1.56

            Bond              Population      Length (A)
         O 38 -- Sn 3              0.35        2.10305
         O 23 -- Sn 3              0.35        2.10305
         O 30 -- Sn 7              0.34        2.10310
         O 24 -- Sn 4              0.34        2.10310
         O 53 -- Sn 2              0.34        2.10382
         O 49 -- Sn 1              0.34        2.10382
         O 56 -- Sn 5              0.35        2.10565
         O 48 -- Sn 6              0.35        2.10565
         O 41 -- Sn 1              0.35        2.10587
         O 12 -- Sn 2              0.35        2.10587
         O 26 -- Sn 2              0.35        2.10593
         O 34 -- Sn 1              0.35        2.10593
         O 33 -- Sn 6              0.34        2.10656
         O 28 -- Sn 5              0.34        2.10656
         O 13 -- Sn 7              0.35        2.10657
         O 17 -- Sn 4              0.35        2.10657
         O 45 -- Sn 8              0.34        2.10671
         O 10 -- Sn 4              0.34        2.10686
         O 42 -- Sn 7              0.34        2.10686
         O 47 -- Sn 1              0.34        2.10739
         O 55 -- Sn 2              0.34        2.10739
         O 20 -- Sn 3              0.35        2.10768
         O 40 -- Sn 3              0.35        2.10768
         O 35 -- Sn 8              0.34        2.10839
         O 31 -- Sn 8              0.34        2.10839
         O 50 -- Sn 7              0.34        2.10902
         O 54 -- Sn 4              0.34        2.10902
         O 15 -- Sn 8              0.34        2.10904
         O 19 -- Sn 8              0.34        2.10904
         O 22 -- Sn 5              0.35        2.10937
         O 32 -- Sn 6              0.35        2.10937
         O 9  -- Sn 3              0.34        2.11008
         O 11 -- Sn 5              0.34        2.11048
         O 11 -- Sn 6              0.34        2.11048
         O 19 -- Sn 5              0.33        2.11076
         O 15 -- Sn 6              0.33        2.11076
         O 18 -- Sn 7              0.34        2.11274
         O 39 -- Sn 4              0.34        2.11274
         O 18 -- Sn 2              0.34        2.11325
         O 39 -- Sn 1              0.34        2.11325
         O 25 -- Sn 4              0.34        2.11367
         O 25 -- Sn 7              0.34        2.11367
         O 27 -- Sn 3              0.33        2.11379
         O 29 -- Zr 6              0.41        2.11428
         O 36 -- Zr 8              0.41        2.11428
         O 52 -- Zr 1              0.42        2.11480
         O 29 -- Zr 4              0.42        2.11556
         O 36 -- Zr 3              0.42        2.11556
         O 27 -- Sn 8              0.34        2.11564
         O 37 -- Sn 1              0.33        2.11573
         O 21 -- Sn 2              0.33        2.11573
         O 49 -- Zr 4              0.44        2.11621
         O 53 -- Zr 3              0.44        2.11621
         O 21 -- Sn 6              0.33        2.11729
         O 37 -- Sn 5              0.33        2.11729
         O 43 -- Zr 2              0.42        2.11765
         O 16 -- Zr 5              0.42        2.11765
         O 44 -- Zr 3              0.43        2.11768
         O 14 -- Zr 4              0.43        2.11768
         O 30 -- Zr 7              0.44        2.11770
[...]
         O 35 -- O 43             -0.03        2.82785
         O 10 -- O 23             -0.03        2.82831
         O 38 -- O 42             -0.03        2.82831
         O 13 -- O 34             -0.03        2.82847
         O 17 -- O 26             -0.03        2.82847
         O 9  -- O 24             -0.03        2.82916
         O 9  -- O 30             -0.03        2.82916
         O 32 -- O 41             -0.03        2.82927
         O 12 -- O 22             -0.03        2.82927
         O 16 -- O 32             -0.03        2.82997
         O 22 -- O 43             -0.03        2.82997
         O 48 -- O 50             -0.03        2.83091
         O 54 -- O 56             -0.03        2.83091
         O 33 -- O 40             -0.03        2.83812
         O 20 -- O 28             -0.03        2.83812

Writing analysis data to 051.castep_bin

Writing model to 051.check

 A BibTeX formatted list of references used in this run has been written to
 051.bib

Initialisation time =     53.98 s
Calculation time    =  33421.02 s
Finalisation time   =     52.55 s
Total time          =  33527.55 s

Overall parallel efficiency rating: Good (78%)

Data was distributed by:-
G-vector (4-way); efficiency rating: Good (79%)
k-point (14-way); efficiency rating: Excellent (99%)