 Compiled for linux_x86_64_ifort16 on Sat, 23 Jul 2016 23:44:54 +0100
 from code version
 203e84763863+ Castep161_branch Fri, 04 Mar 2016 19:21:07 +0000
 Compiler: Intel Fortran 16.0.3.210; Optimisation: fast
 MATHLIBS: Intel MKL(11.3.3) (LAPACK version 3.6.0)
 FFT Lib : mkl
 Fundamental constants values: CODATA 2010

 Run started: Sat, 12 May 2018 16:31:40 +0100
 |           N   N    M   M    RRRR                |
 |           NN  N    MM MM    R   R               |
 |           N N N    M M M    RRRR                |
 |           N  NN    M   M    R  R                |
 |           N   N    M   M    R   R               |
 | Welcome to Materials Studio CASTEP-NMR          |
 | Authors:                                        |
 | J.R. Yates, C.J. Pickard, F. Mauri              |
 | Contributors:                                   |
 | T.F.G. Green, S.A. Joyce                        |
 | Copyright (c) 2004 - 2015                       |
 | Please cite the appropriate publications in all |
 | work arising from your use of CASTEP NMR.       |
 | For NMR Shielding Tensors cite:                 |
 |    "All-electron magnetic response with         |
 |    pseudopotentials: NMR chemical shifts",      |
 |    C. J. Pickard, F. Mauri;                     |
 |    Physical Review B63 245101 (2001), and       |
 |    "Calculation of NMR Chemical Shifts          |
 |    for extended systems using                   |
 |    Ultrasoft Pseudopotentials",                 |
 |    J. R. Yates, C. J. Pickard and F. Mauri      |
 |    Physical Review B76 024401 (2007)            |
 | For Electric Field Gradients cite:              |
 |   "Accurate First Principles Prediction of 17O  |
 |    NMR Parameters in SiO2: Assignment of the    |
 |    Zeolite Ferrierite Spectrum"                 |
 |    M. Profeta, F. Mauri and C. J. Pickard       |
 |    J. Amer. Chem. Soc. 125 541 (2003)           |
 | For Spin-Spin (J) Couplings cite:               |
 |   "A first principles theory of NMR J-coupling  |
 |   in solid-state systems"                       |
 |   S.A. Joyce, J.R. Yates, C.J. Pickard, F. Mauri|
 |   J. Chem. Phys. 127 204107 (2007)              |
 |   "Relativistic NMR J-coupling with ultrasoft   |
 |   pseudopotentials and the zeroth-order regular |
 |   approximation"                                |
 |   T.F.G. Green and J.R. Yates                   |
 |   J. Chem. Phys. 140 234106 (2014)              |

 Atomic calculation performed for O: 1s2 2s2 2p4

 Converged in 44 iterations to an ae energy of -2040.855 eV

 Atomic calculation performed for O: 1s2 2s2 2p4

 Exceeded max iterations: converged to 0.000000062 eV

   | Pseudopotential Report - Date of generation 12-05-2018   |
   | Element: O Ionic charge:  6.00 Level of theory: PBE      |
   | Atomic Solver: ZORA (scalar)                             |
   |               Reference Electronic Structure             |
   |         Orbital         Occupation         Energy        |
   |            2s              2.000           -0.881        |
   |            2p              4.000           -0.332        |
   |                 Pseudopotential Definition               |
   |        Beta     l      e      Rc     scheme   norm       |
   |          1      0   -0.881   1.100     qc      0         |
   |          2      0    0.250   1.100     qc      0         |
   |          3      1   -0.332   1.100     qc      0         |
   |          4      1    0.250   1.100     qc      0         |
   |         loc     2    0.000   1.100     pn      0         |
   | Augmentation charge Rinner = 0.769                       |
   | Partial core correction Rc = 0.769                       |
   | "2|1.1|15|18|20|20:21(qc=7)"                             |
   |      Author: Chris J. Pickard, Cambridge University      |

 Atomic calculation performed for Zr: 1s2 2s2 2p6 3s2 3p6 3d10 4s2 4p6 4d2 5s2

[...]

 Atomic calculation performed for Zr: 1s2 2s2 2p6 3s2 3p6 3d10 4s2 4p6 4d2 5s2

[...]

 Warning: ion_atom_descreen_psp: negative charge density encountered
   | Pseudopotential Report - Date of generation 12-05-2018   |
   | Element: Zr Ionic charge: 12.00 Level of theory: PBE     |
   | Atomic Solver: ZORA (scalar)                             |
   |               Reference Electronic Structure             |
   |         Orbital         Occupation         Energy        |
   |            4s              2.000           -2.003        |
   |            4p              6.000           -1.193        |
   |            5s              2.000           -0.163        |
   |            4d              2.000           -0.132        |
   |                 Pseudopotential Definition               |
   |        Beta     l      e      Rc     scheme   norm       |
   |          1      0   -2.003   2.105     qc      0         |
   |          2      0   -0.163   2.105     qc      0         |
   |          3      0    0.250   2.105     qc      0         |
   |          4      1   -1.193   2.105     qc      0         |
   |          5      1    0.250   2.105     qc      0         |
   |          6      2   -0.132   2.105     qc      0         |
   |          7      2    0.250   2.105     qc      0         |
   |         loc     3    0.000   2.105     pn      0         |
   | Augmentation charge Rinner = 1.471                       |
   | Partial core correction Rc = 1.471                       |
   | "3|2.1|7|8|9|40U:50:41:42"                               |
   |      Author: Chris J. Pickard, Cambridge University      |

 Atomic calculation performed for Sn:

[...]

 Atomic calculation performed for Sn:

[...]

   | Pseudopotential Report - Date of generation 12-05-2018   |
   | Element: Sn Ionic charge: 14.00 Level of theory: PBE     |
   | Atomic Solver: ZORA (scalar)                             |
   |               Reference Electronic Structure             |
   |         Orbital         Occupation         Energy        |
   |            4d             10.000           -0.950        |
   |            5s              2.000           -0.388        |
   |            5p              2.000           -0.136        |
   |                 Pseudopotential Definition               |
   |        Beta     l      e      Rc     scheme   norm       |
   |          1      0   -0.388   2.199     qc      0         |
   |          2      0    0.250   2.199     qc      0         |
   |          3      1   -0.136   2.199     qc      0         |
   |          4      1    0.250   2.199     qc      0         |
   |          5      2   -0.950   2.199     qc      0         |
   |          6      2    0.250   2.199     qc      0         |
   |         loc     3    0.000   2.199     pn      0         |
   | Augmentation charge Rinner = 1.537                       |
   | Partial core correction Rc = 1.537                       |
   | "3|2.2|7|8|9|50:51:42"                                   |
   |      Author: Chris J. Pickard, Cambridge University      |

 Atomic calculation performed for La:

 Converged in 56 iterations to an ae energy of -230121.495 eV

 Atomic calculation performed for La:

 Exceeded max iterations: converged to 0.000000907 eV

 Warning: ion_atom_descreen_psp: negative charge density encountered
   | Pseudopotential Report - Date of generation 12-05-2018   |
   | Element: La Ionic charge: 11.00 Level of theory: PBE     |
   | Atomic Solver: ZORA (scalar)                             |
   |               Reference Electronic Structure             |
   |         Orbital         Occupation         Energy        |
   |            5s              2.000           -1.430        |
   |            5p              6.000           -0.823        |
   |            6s              2.000           -0.135        |
   |            5d              1.000           -0.114        |
   |                 Pseudopotential Definition               |
   |        Beta     l      e      Rc     scheme   norm       |
   |          1      0   -1.430   2.298     qc      0         |
   |          2      0   -0.135   2.298     qc      0         |
   |          3      0    0.250   2.298     qc      0         |
   |          4      1   -0.823   2.298     qc      0         |
   |          5      1    0.250   2.298     qc      0         |
   |          6      2   -0.114   2.298     qc      0         |
   |          7      2    0.250   2.298     qc      0         |
   |         loc     2    0.000   2.298     pn      0         |
   | Augmentation charge Rinner = 1.606                       |
   | Partial core correction Rc = 1.606                       |
   | "2|2.3|5|6|7|50U:60:51:52(qc=4.5)"                       |
   |      Author: Chris J. Pickard, Cambridge University      |

 Pseudo atomic calculation performed for O 2s2 2p4

 Converged in 39 iterations to a total energy of -432.6554 eV

 Pseudo atomic calculation performed for Zr 4s2 4p6 4d2 5s2

[...]

 Calculation parallelised over 56 processes.
 Data is distributed by G-vector(4-way) and k-point(14-way)

 ************************************ Title ************************************
 nmr testing

 ***************************** General Parameters ******************************

 output verbosity                               : normal  (1)
 write checkpoint data to                       : 053.check
 type of calculation                            : Magnetic Resonance
 stress calculation                             : on
 density difference calculation                 : off
 electron localisation func (ELF) calculation   : off
 Hirshfeld analysis                             : off
 unlimited duration calculation
 timing information                             : on
 write final potential to formatted file        : off
 write final density to formatted file          : off
 write structure in CIF formatted file          : on
 write structure in CELL formatted file         : on
 write BibTeX reference list                    : on
 write OTFG pseudopotential files               : on
 checkpoint writing                             : both castep_bin and check files

 output         length unit                     : A
 output           mass unit                     : amu
 output           time unit                     : ps
 output         charge unit                     : e
 output           spin unit                     : hbar/2
 output         energy unit                     : eV
 output          force unit                     : eV/A
 output       velocity unit                     : A/ps
 output       pressure unit                     : GPa
 output     inv_length unit                     : 1/A
 output      frequency unit                     : cm-1
 output force constant unit                     : eV/A**2
 output         volume unit                     : A**3
 output   IR intensity unit                     : (D/A)**2/amu
 output         dipole unit                     : D
 output         efield unit                     : eV/A/e
 output        entropy unit                     : J/mol/K

 wavefunctions paging                           : none
 random number generator seed                   : randomised (163142079)
 data distribution                              : optimal for this architecture
[...]
  |    O          42     -162.01     151.21      0.83   1.008E+00   0.85 |
  |    O          43      -82.24      83.15      0.26  -3.133E+00   0.08 |
  |    O          44      -81.01      86.76      0.31  -3.127E+00   0.07 |
  |    O          45      -86.05      87.33      0.28  -3.239E+00   0.09 |
  |    O          46     -160.11     144.25      0.83   1.053E+00   0.72 |
  |    O          47      -20.57      38.18      0.72   3.917E+00   0.83 |
  |    O          48      -92.03      94.51      0.24  -3.172E+00   0.11 |
  |    O          49      -88.19      78.37      0.05  -3.241E+00   0.10 |
  |    O          50     -163.69     151.92      0.84   1.050E+00   0.80 |
  |    O          51      -88.46      87.05      0.03  -3.178E+00   0.08 |
  |    O          52      -87.69      94.49      0.27  -3.233E+00   0.09 |
  |    O          53     -164.00     156.41      0.84   1.050E+00   0.86 |
  |    O          54      -88.56      86.11      0.16  -3.192E+00   0.08 |
  |    O          55     -161.50     154.89      0.79   1.056E+00   0.77 |
  |    O          56     -161.26     146.59      0.87   1.071E+00   0.70 |
  |    Zr          1     1623.73    -126.39      0.18  -3.674E+01   0.13 |
  |    Zr          2     1628.31    -125.88      0.19  -3.757E+01   0.08 |
  |    Zr          3     1628.36    -125.25      0.16  -3.737E+01   0.04 |
  |    Zr          4     1628.26    -123.84      0.15  -3.767E+01   0.09 |
[...]
  |    La          2     4659.43     658.97      0.08  -8.222E+01   0.14 |
  |    La          3     4603.91     524.01      0.07  -7.734E+01   0.10 |
  |    La          4     4751.02     869.16      0.04  -8.703E+01   0.05 |
  |    La          5     4657.19     623.72      0.01  -8.062E+01   0.04 |
  |    La          6     4648.42     658.58      0.00  -7.999E+01   0.01 |
  |    La          7     4708.62     747.47      0.03  -8.556E+01   0.10 |
  |    La          8     4659.44     653.56      0.08  -8.159E+01   0.14 |
  |    La          9     4701.48     768.54      0.04  -8.341E+01   0.04 |
  |    La         10     4650.48     628.55      0.00  -7.945E+01   0.05 |
  |    La         11     4606.00     527.28      0.08  -7.769E+01   0.10 |
  |    La         12     4602.03     505.45      0.09  -7.580E+01   0.07 |
  |    La         13     4556.08     384.46      0.07  -7.305E+01   0.10 |
  |    La         14     4614.23     521.59      0.06  -7.879E+01   0.09 |
  |    La         15     4661.54     658.09      0.08  -8.210E+01   0.14 |
  |    La         16     4702.81     786.20      0.10  -8.349E+01   0.10 |

 *********************** Forces ***********************
 *            Cartesian components (eV/A)             *
 *                   x            y            z      *
 * O         1     -0.00229     -0.01405      0.00046 *
 * O         2      0.00290      0.00183      0.00523 *
 * O         3      0.00417     -0.00460     -0.00969 *
 * O         4     -0.00437     -0.00226     -0.00223 *
 * O         5     -0.00951      0.00431     -0.00424 *
 * O         6     -0.01004      0.00199      0.01034 *
 * O         7      0.00671      0.00672      0.00361 *
 * O         8     -0.00443     -0.00666     -0.01184 *
 * O         9      0.00202      0.01417      0.01165 *
 * O        10     -0.00815      0.00355     -0.00518 *
 * O        11     -0.00865      0.00848     -0.01898 *
 * O        12      0.00142     -0.00415     -0.00100 *
 * O        13     -0.01849     -0.00242     -0.00886 *
 * O        14     -0.01068     -0.00167      0.01235 *
 * O        15     -0.00093     -0.01263      0.00301 *
 * O        16     -0.00100      0.01036     -0.00838 *
 * O        17      0.00363     -0.00395      0.00390 *
 * O        18     -0.00285      0.00917     -0.01291 *
 * O        19     -0.01357      0.01672     -0.00385 *
 * O        20      0.00226      0.00796      0.01205 *
 * O        21     -0.01169      0.01342     -0.00076 *
 * O        22     -0.00010     -0.00862      0.02052 *
 * O        23     -0.01268     -0.00104     -0.01651 *
 * O        24     -0.01006      0.00328      0.00106 *
 * O        25      0.00082     -0.02940      0.01717 *
 * O        26     -0.00068      0.01795      0.01520 *
 * O        27     -0.00770     -0.02463     -0.01068 *
 * O        28      0.00754      0.00700      0.00667 *
 * O        29      0.00589      0.02039     -0.00926 *
 * O        30      0.02226     -0.01270      0.00589 *
 * O        31     -0.00097     -0.00303      0.00619 *
 * O        32      0.00223      0.00898     -0.01278 *
 * O        33     -0.00363     -0.02872      0.01280 *
 * O        34     -0.00944     -0.01445     -0.01082 *
 * O        35      0.01947      0.00733     -0.00755 *
 * O        36      0.02012     -0.00167      0.03330 *
 * O        37      0.02546     -0.01867      0.00085 *
 * O        38      0.00961     -0.00341     -0.01313 *
 * O        39     -0.00686     -0.01217      0.00617 *
 * O        40     -0.00186      0.00398      0.00368 *
 * O        41      0.00624     -0.00035      0.00107 *
 * O        42     -0.00089      0.00502     -0.00073 *
 * O        43     -0.01003     -0.00834      0.00577 *
 * O        44     -0.01243      0.02519     -0.00029 *
 * O        45      0.00797      0.00863      0.01439 *
 * O        46     -0.01281      0.00081     -0.00446 *
 * O        47     -0.01304      0.00715     -0.00668 *
 * O        48      0.00638      0.00861      0.00354 *
 * O        49      0.02458      0.00397     -0.01648 *
 * O        50      0.01541     -0.01283     -0.00189 *
 * O        51     -0.00147      0.01632     -0.01381 *
 * O        52     -0.01365     -0.00807     -0.01840 *
 * O        53      0.00422     -0.00770      0.02120 *
 * O        54     -0.01544     -0.01876     -0.00139 *
 * O        55     -0.00036     -0.01026      0.00420 *
 * O        56     -0.00492      0.01076     -0.00090 *
 * Zr        1     -0.00670     -0.01392      0.02622 *
 * Zr        2     -0.00952      0.00245     -0.04171 *
 * Zr        3      0.00491      0.03239      0.00258 *
 * Zr        4      0.00648     -0.00852      0.01477 *
[...]
 * La        2     -0.00185     -0.01902     -0.00044 *
 * La        3     -0.01281      0.00541      0.00394 *
 * La        4      0.01475      0.01238      0.02412 *
 * La        5     -0.00026      0.01583      0.02046 *
 * La        6      0.01006      0.00041     -0.00356 *
 * La        7     -0.02379     -0.02273     -0.01421 *
 * La        8     -0.00338      0.00037      0.01434 *
 * La        9      0.01087     -0.01474     -0.01865 *
 * La       10      0.00490      0.02111      0.01791 *
 * La       11     -0.00636      0.00379      0.00581 *
 * La       12     -0.00022     -0.00632     -0.01401 *
 * La       13      0.00240      0.00001     -0.00044 *
 * La       14      0.00427     -0.01031      0.00490 *
 * La       15      0.01696      0.01047     -0.00663 *
 * La       16     -0.01037     -0.00809      0.00152 *

 ***************** Stress Tensor *****************
 *          Cartesian components (GPa)           *
 *             x             y             z     *
 *  x      0.042249      0.000255      0.027956  *
 *  y      0.000255      0.033322     -0.029023  *
 *  z      0.027956     -0.029023      0.048154  *
 *  Pressure:   -0.0412                          *

[...]

 Pseudo atomic calculation performed for Sn 4d10 5s2 5p2

[...]

 Pseudo atomic calculation performed for La 5s2 5p6 5d1 6s2

 Converged in 34 iterations to a total energy of -968.0372 eV

Charge spilling parameter for spin component 1 = 0.24%

     Atomic Populations (Mulliken)
Species   Ion     s      p      d      f     Total  Charge (e)
  O        1     1.87   5.00   0.00   0.00   6.87    -0.87
  O        2     1.87   5.00   0.00   0.00   6.87    -0.87
  O        3     1.87   5.00   0.00   0.00   6.87    -0.87
  O        4     1.87   5.00   0.00   0.00   6.87    -0.87
  O        5     1.87   5.00   0.00   0.00   6.87    -0.87
  O        6     1.87   5.00   0.00   0.00   6.87    -0.87
  O        7     1.87   5.00   0.00   0.00   6.87    -0.87
  O        8     1.87   5.00   0.00   0.00   6.87    -0.87
  O        9     1.87   4.99   0.00   0.00   6.85    -0.85
  O       10     1.88   5.02   0.00   0.00   6.91    -0.91
  O       11     1.87   4.99   0.00   0.00   6.86    -0.86
  O       12     1.87   4.99   0.00   0.00   6.85    -0.85
  O       13     1.87   4.99   0.00   0.00   6.86    -0.86
  O       14     1.87   4.99   0.00   0.00   6.85    -0.85
  O       15     1.88   5.02   0.00   0.00   6.91    -0.91
  O       16     1.88   5.02   0.00   0.00   6.91    -0.91
  O       17     1.88   5.03   0.00   0.00   6.91    -0.91
  O       18     1.86   4.95   0.00   0.00   6.80    -0.80
  O       19     1.87   4.99   0.00   0.00   6.86    -0.86
  O       20     1.86   4.95   0.00   0.00   6.80    -0.80
  O       21     1.87   4.99   0.00   0.00   6.86    -0.86
  O       22     1.87   4.99   0.00   0.00   6.86    -0.86
  O       23     1.87   4.99   0.00   0.00   6.86    -0.86
  O       24     1.88   5.02   0.00   0.00   6.91    -0.91
  O       25     1.87   4.99   0.00   0.00   6.86    -0.86
  O       26     1.87   4.99   0.00   0.00   6.86    -0.86
  O       27     1.87   4.99   0.00   0.00   6.86    -0.86
  O       28     1.86   4.95   0.00   0.00   6.80    -0.80
  O       29     1.87   4.99   0.00   0.00   6.86    -0.86
  O       30     1.87   4.99   0.00   0.00   6.86    -0.86
  O       31     1.88   5.02   0.00   0.00   6.91    -0.91
  O       32     1.88   5.02   0.00   0.00   6.91    -0.91
  O       33     1.87   4.99   0.00   0.00   6.86    -0.86
  O       34     1.88   5.02   0.00   0.00   6.91    -0.91
  O       35     1.87   4.99   0.00   0.00   6.86    -0.86
  O       36     1.87   4.99   0.00   0.00   6.86    -0.86
  O       37     1.87   4.99   0.00   0.00   6.86    -0.86
  O       38     1.86   4.95   0.00   0.00   6.80    -0.80
  O       39     1.88   5.03   0.00   0.00   6.91    -0.91
  O       40     1.86   4.95   0.00   0.00   6.80    -0.80
  O       41     1.88   5.03   0.00   0.00   6.91    -0.91
  O       42     1.86   4.95   0.00   0.00   6.80    -0.80
  O       43     1.87   4.99   0.00   0.00   6.86    -0.86
  O       44     1.87   4.99   0.00   0.00   6.86    -0.86
  O       45     1.87   4.99   0.00   0.00   6.86    -0.86
  O       46     1.86   4.95   0.00   0.00   6.80    -0.80
  O       47     1.88   5.03   0.00   0.00   6.91    -0.91
  O       48     1.87   4.99   0.00   0.00   6.86    -0.86
  O       49     1.87   4.99   0.00   0.00   6.86    -0.86
  O       50     1.86   4.95   0.00   0.00   6.80    -0.80
  O       51     1.87   4.99   0.00   0.00   6.86    -0.86
  O       52     1.87   4.99   0.00   0.00   6.86    -0.86
  O       53     1.86   4.95   0.00   0.00   6.80    -0.80
  O       54     1.87   4.99   0.00   0.00   6.86    -0.86
  O       55     1.86   4.95   0.00   0.00   6.80    -0.80
  O       56     1.86   4.95   0.00   0.00   6.80    -0.80
  Zr       1     2.37   6.49   1.92   0.00  10.78     1.22
  Zr       2     2.37   6.48   1.92   0.00  10.77     1.23
  Zr       3     2.37   6.48   1.92   0.00  10.77     1.23
  Zr       4     2.37   6.48   1.92   0.00  10.77     1.23
[...]
  La       2     2.07   6.17   1.19   0.00   9.44     1.56
  La       3     2.10   6.18   1.19   0.00   9.47     1.53
  La       4     2.01   6.15   1.20   0.00   9.35     1.65
  La       5     2.07   6.18   1.19   0.00   9.44     1.56
  La       6     2.05   6.17   1.19   0.00   9.41     1.59
  La       7     2.05   6.17   1.19   0.00   9.41     1.59
  La       8     2.07   6.17   1.19   0.00   9.43     1.57
  La       9     2.03   6.16   1.19   0.00   9.38     1.62
  La      10     2.08   6.17   1.19   0.00   9.45     1.55
  La      11     2.08   6.19   1.19   0.00   9.45     1.55
  La      12     2.10   6.19   1.19   0.00   9.48     1.52
  La      13     2.10   6.20   1.19   0.00   9.50     1.50
  La      14     2.07   6.19   1.19   0.00   9.45     1.55
  La      15     2.05   6.17   1.19   0.00   9.42     1.58
  La      16     2.03   6.16   1.20   0.00   9.39     1.61

            Bond              Population      Length (A)
         O 30 -- Sn 6              0.35        2.10008
         O 27 -- Sn 7              0.35        2.10009
         O 29 -- Sn 5              0.35        2.10019
         O 52 -- Sn 6              0.35        2.10215
         O 33 -- Sn 4              0.35        2.10276
         O 22 -- Sn 5              0.35        2.10312
         O 21 -- Sn 4              0.34        2.10357
         O 45 -- Sn 7              0.35        2.10373
         O 35 -- Sn 7              0.34        2.10426
         O 41 -- Sn 8              0.34        2.10454
         O 11 -- Sn 4              0.35        2.10523
         O 26 -- Sn 8              0.35        2.10566
         O 43 -- Sn 5              0.35        2.10630
         O 9  -- Sn 6              0.35        2.10646
         O 17 -- Sn 3              0.34        2.10665
         O 39 -- Sn 1              0.34        2.10667
         O 44 -- Sn 6              0.35        2.10673
         O 49 -- Sn 1              0.35        2.10688
         O 13 -- Sn 5              0.34        2.10801
         O 10 -- Sn 2              0.34        2.10812
         O 39 -- Sn 3              0.33        2.10825
         O 47 -- Sn 1              0.34        2.10825
         O 47 -- Sn 2              0.33        2.10884
         O 48 -- Sn 4              0.34        2.10891
         O 16 -- Sn 2              0.34        2.10902
         O 51 -- Sn 2              0.34        2.10962
         O 19 -- Sn 7              0.34        2.10984
         O 23 -- Sn 2              0.34        2.10995
         O 16 -- Sn 8              0.34        2.11029
         O 10 -- Sn 3              0.34        2.11032
         O 12 -- Sn 5              0.34        2.11035
         O 17 -- Sn 8              0.33        2.11060
         O 41 -- Sn 1              0.33        2.11067
         O 14 -- Sn 6              0.34        2.11084
         O 54 -- Sn 3              0.34        2.11161
         O 36 -- Sn 8              0.34        2.11169
         O 25 -- Sn 3              0.34        2.11190
         O 53 -- Zr 5              0.41        2.11209
         O 38 -- Zr 2              0.42        2.11237
         O 38 -- Zr 6              0.41        2.11289
         O 37 -- Sn 1              0.34        2.11324
         O 15 -- Sn 4              0.33        2.11337
         O 29 -- Zr 4              0.44        2.11379
         O 15 -- Sn 7              0.33        2.11399
         O 28 -- Zr 7              0.42        2.11442
         O 53 -- Zr 3              0.42        2.11444
         O 50 -- Zr 1              0.41        2.11480
         O 28 -- Zr 4              0.41        2.11488
         O 30 -- Zr 8              0.44        2.11510
         O 50 -- Zr 8              0.42        2.11560
         O 35 -- Zr 2              0.44        2.11583
         O 24 -- Sn 6              0.33        2.11599
         O 34 -- Sn 5              0.33        2.11605
         O 24 -- Sn 3              0.33        2.11629
         O 52 -- Zr 1              0.45        2.11694
         O 33 -- Zr 3              0.44        2.11706
         O 18 -- Zr 8              0.43        2.11770
         O 56 -- Zr 7              0.42        2.11777
         O 19 -- Zr 7              0.45        2.11798
         O 20 -- Zr 6              0.42        2.11803
[...]
         O 36 -- O 46             -0.03        2.82516
         O 35 -- O 43             -0.03        2.82548
         O 18 -- O 25             -0.03        2.82582
         O 51 -- O 55             -0.03        2.82869
         O 18 -- O 26             -0.03        2.82882
         O 46 -- O 49             -0.03        2.82908
         O 33 -- O 40             -0.03        2.82967
         O 54 -- O 56             -0.03        2.83019
         O 45 -- O 54             -0.03        2.83199
         O 20 -- O 23             -0.03        2.83308
         O 9  -- O 23             -0.03        2.83310
         O 11 -- O 37             -0.03        2.83597
         O 13 -- O 25             -0.03        2.83748
         O 43 -- O 51             -0.03        2.83771
         O 36 -- O 44             -0.03        2.83882

Writing analysis data to 053.castep_bin

Writing model to 053.check

 A BibTeX formatted list of references used in this run has been written to
 053.bib

Initialisation time =     54.30 s
Calculation time    =  33686.72 s
Finalisation time   =     28.68 s
Total time          =  33769.70 s

Overall parallel efficiency rating: Good (79%)

Data was distributed by:-
G-vector (4-way); efficiency rating: Good (79%)
k-point (14-way); efficiency rating: Excellent (99%)