 Compiled for linux_x86_64_ifort16 on Sat, 23 Jul 2016 23:44:54 +0100
 from code version
 203e84763863+ Castep161_branch Fri, 04 Mar 2016 19:21:07 +0000
 Compiler: Intel Fortran 16.0.3.210; Optimisation: fast
 MATHLIBS: Intel MKL(11.3.3) (LAPACK version 3.6.0)
 FFT Lib : mkl
 Fundamental constants values: CODATA 2010

 Run started: Mon, 14 May 2018 15:34:19 +0100
 |           N   N    M   M    RRRR                |
 |           NN  N    MM MM    R   R               |
 |           N N N    M M M    RRRR                |
 |           N  NN    M   M    R  R                |
 |           N   N    M   M    R   R               |
 | Welcome to Materials Studio CASTEP-NMR          |
 | Authors:                                        |
 | J.R. Yates, C.J. Pickard, F. Mauri              |
 | Contributors:                                   |
 | T.F.G. Green, S.A. Joyce                        |
 | Copyright (c) 2004 - 2015                       |
 | Please cite the appropriate publications in all |
 | work arising from your use of CASTEP NMR.       |
 | For NMR Shielding Tensors cite:                 |
 |    "All-electron magnetic response with         |
 |    pseudopotentials: NMR chemical shifts",      |
 |    C. J. Pickard, F. Mauri;                     |
 |    Physical Review B63 245101 (2001), and       |
 |    "Calculation of NMR Chemical Shifts          |
 |    for extended systems using                   |
 |    Ultrasoft Pseudopotentials",                 |
 |    J. R. Yates, C. J. Pickard and F. Mauri      |
 |    Physical Review B76 024401 (2007)            |
 | For Electric Field Gradients cite:              |
 |   "Accurate First Principles Prediction of 17O  |
 |    NMR Parameters in SiO2: Assignment of the    |
 |    Zeolite Ferrierite Spectrum"                 |
 |    M. Profeta, F. Mauri and C. J. Pickard       |
 |    J. Amer. Chem. Soc. 125 541 (2003)           |
 | For Spin-Spin (J) Couplings cite:               |
 |   "A first principles theory of NMR J-coupling  |
 |   in solid-state systems"                       |
 |   S.A. Joyce, J.R. Yates, C.J. Pickard, F. Mauri|
 |   J. Chem. Phys. 127 204107 (2007)              |
 |   "Relativistic NMR J-coupling with ultrasoft   |
 |   pseudopotentials and the zeroth-order regular |
 |   approximation"                                |
 |   T.F.G. Green and J.R. Yates                   |
 |   J. Chem. Phys. 140 234106 (2014)              |

 Atomic calculation performed for O: 1s2 2s2 2p4

 Converged in 44 iterations to an ae energy of -2040.855 eV

 Atomic calculation performed for O: 1s2 2s2 2p4

 Exceeded max iterations: converged to 0.000000062 eV

   | Pseudopotential Report - Date of generation 14-05-2018   |
   | Element: O Ionic charge:  6.00 Level of theory: PBE      |
   | Atomic Solver: ZORA (scalar)                             |
   |               Reference Electronic Structure             |
   |         Orbital         Occupation         Energy        |
   |            2s              2.000           -0.881        |
   |            2p              4.000           -0.332        |
   |                 Pseudopotential Definition               |
   |        Beta     l      e      Rc     scheme   norm       |
   |          1      0   -0.881   1.100     qc      0         |
   |          2      0    0.250   1.100     qc      0         |
   |          3      1   -0.332   1.100     qc      0         |
   |          4      1    0.250   1.100     qc      0         |
   |         loc     2    0.000   1.100     pn      0         |
   | Augmentation charge Rinner = 0.769                       |
   | Partial core correction Rc = 0.769                       |
   | "2|1.1|15|18|20|20:21(qc=7)"                             |
   |      Author: Chris J. Pickard, Cambridge University      |

 Atomic calculation performed for Zr: 1s2 2s2 2p6 3s2 3p6 3d10 4s2 4p6 4d2 5s2

[...]

 Atomic calculation performed for Zr: 1s2 2s2 2p6 3s2 3p6 3d10 4s2 4p6 4d2 5s2

[...]

 Warning: ion_atom_descreen_psp: negative charge density encountered
   | Pseudopotential Report - Date of generation 14-05-2018   |
   | Element: Zr Ionic charge: 12.00 Level of theory: PBE     |
   | Atomic Solver: ZORA (scalar)                             |
   |               Reference Electronic Structure             |
   |         Orbital         Occupation         Energy        |
   |            4s              2.000           -2.003        |
   |            4p              6.000           -1.193        |
   |            5s              2.000           -0.163        |
   |            4d              2.000           -0.132        |
   |                 Pseudopotential Definition               |
   |        Beta     l      e      Rc     scheme   norm       |
   |          1      0   -2.003   2.105     qc      0         |
   |          2      0   -0.163   2.105     qc      0         |
   |          3      0    0.250   2.105     qc      0         |
   |          4      1   -1.193   2.105     qc      0         |
   |          5      1    0.250   2.105     qc      0         |
   |          6      2   -0.132   2.105     qc      0         |
   |          7      2    0.250   2.105     qc      0         |
   |         loc     3    0.000   2.105     pn      0         |
   | Augmentation charge Rinner = 1.471                       |
   | Partial core correction Rc = 1.471                       |
   | "3|2.1|7|8|9|40U:50:41:42"                               |
   |      Author: Chris J. Pickard, Cambridge University      |

 Atomic calculation performed for Sn:

[...]

 Atomic calculation performed for Sn:

[...]

   | Pseudopotential Report - Date of generation 14-05-2018   |
   | Element: Sn Ionic charge: 14.00 Level of theory: PBE     |
   | Atomic Solver: ZORA (scalar)                             |
   |               Reference Electronic Structure             |
   |         Orbital         Occupation         Energy        |
   |            4d             10.000           -0.950        |
   |            5s              2.000           -0.388        |
   |            5p              2.000           -0.136        |
   |                 Pseudopotential Definition               |
   |        Beta     l      e      Rc     scheme   norm       |
   |          1      0   -0.388   2.199     qc      0         |
   |          2      0    0.250   2.199     qc      0         |
   |          3      1   -0.136   2.199     qc      0         |
   |          4      1    0.250   2.199     qc      0         |
   |          5      2   -0.950   2.199     qc      0         |
   |          6      2    0.250   2.199     qc      0         |
   |         loc     3    0.000   2.199     pn      0         |
   | Augmentation charge Rinner = 1.537                       |
   | Partial core correction Rc = 1.537                       |
   | "3|2.2|7|8|9|50:51:42"                                   |
   |      Author: Chris J. Pickard, Cambridge University      |

 Atomic calculation performed for La:

 Converged in 56 iterations to an ae energy of -230121.495 eV

 Atomic calculation performed for La:

 Exceeded max iterations: converged to 0.000000907 eV

 Warning: ion_atom_descreen_psp: negative charge density encountered
   | Pseudopotential Report - Date of generation 14-05-2018   |
   | Element: La Ionic charge: 11.00 Level of theory: PBE     |
   | Atomic Solver: ZORA (scalar)                             |
   |               Reference Electronic Structure             |
   |         Orbital         Occupation         Energy        |
   |            5s              2.000           -1.430        |
   |            5p              6.000           -0.823        |
   |            6s              2.000           -0.135        |
   |            5d              1.000           -0.114        |
   |                 Pseudopotential Definition               |
   |        Beta     l      e      Rc     scheme   norm       |
   |          1      0   -1.430   2.298     qc      0         |
   |          2      0   -0.135   2.298     qc      0         |
   |          3      0    0.250   2.298     qc      0         |
   |          4      1   -0.823   2.298     qc      0         |
   |          5      1    0.250   2.298     qc      0         |
   |          6      2   -0.114   2.298     qc      0         |
   |          7      2    0.250   2.298     qc      0         |
   |         loc     2    0.000   2.298     pn      0         |
   | Augmentation charge Rinner = 1.606                       |
   | Partial core correction Rc = 1.606                       |
   | "2|2.3|5|6|7|50U:60:51:52(qc=4.5)"                       |
   |      Author: Chris J. Pickard, Cambridge University      |

 Pseudo atomic calculation performed for O 2s2 2p4

 Converged in 39 iterations to a total energy of -432.6554 eV

 Pseudo atomic calculation performed for Zr 4s2 4p6 4d2 5s2

[...]

 Calculation parallelised over 56 processes.
 Data is distributed by G-vector(4-way) and k-point(14-way)

 ************************************ Title ************************************
 nmr testing

 ***************************** General Parameters ******************************

 output verbosity                               : normal  (1)
 write checkpoint data to                       : 058.check
 type of calculation                            : Magnetic Resonance
 stress calculation                             : on
 density difference calculation                 : off
 electron localisation func (ELF) calculation   : off
 Hirshfeld analysis                             : off
 unlimited duration calculation
 timing information                             : on
 write final potential to formatted file        : off
 write final density to formatted file          : off
 write structure in CIF formatted file          : on
 write structure in CELL formatted file         : on
 write BibTeX reference list                    : on
 write OTFG pseudopotential files               : on
 checkpoint writing                             : both castep_bin and check files

 output         length unit                     : A
 output           mass unit                     : amu
 output           time unit                     : ps
 output         charge unit                     : e
 output           spin unit                     : hbar/2
 output         energy unit                     : eV
 output          force unit                     : eV/A
 output       velocity unit                     : A/ps
 output       pressure unit                     : GPa
 output     inv_length unit                     : 1/A
 output      frequency unit                     : cm-1
 output force constant unit                     : eV/A**2
 output         volume unit                     : A**3
 output   IR intensity unit                     : (D/A)**2/amu
 output         dipole unit                     : D
 output         efield unit                     : eV/A/e
 output        entropy unit                     : J/mol/K

 wavefunctions paging                           : none
 random number generator seed                   : randomised (153421065)
 data distribution                              : optimal for this architecture
[...]
  |    O          42      -87.18      85.25      0.11  -3.135E+00   0.09 |
  |    O          43     -159.86     138.59      0.83   1.084E+00   0.64 |
  |    O          44      -82.41      87.58      0.27  -3.175E+00   0.10 |
  |    O          45      -86.63      85.33      0.16  -3.166E+00   0.06 |
  |    O          46     -161.28     154.42      0.80   1.061E+00   0.78 |
  |    O          47      -23.43      40.09      0.18   3.963E+00   0.81 |
  |    O          48     -166.43     151.93      0.84   1.004E+00   0.85 |
  |    O          49      -90.02      78.30      0.13  -3.215E+00   0.09 |
  |    O          50      -90.37      93.70      0.20  -3.218E+00   0.10 |
  |    O          51      -90.02      78.31      0.13  -3.215E+00   0.09 |
  |    O          52      -90.37      93.70      0.20  -3.218E+00   0.10 |
  |    O          53     -165.14     159.32      0.78   1.029E+00   0.96 |
  |    O          54      -90.23      84.36      0.09  -3.134E+00   0.06 |
  |    O          55     -161.28     154.42      0.80   1.061E+00   0.78 |
  |    O          56      -86.63      85.32      0.16  -3.166E+00   0.06 |
  |    Zr          1     1609.06    -118.90      0.14  -3.584E+01   0.00 |
  |    Zr          2     1628.08    -125.35      0.14  -3.741E+01   0.12 |
  |    Zr          3     1633.87    -126.56      0.14  -3.862E+01   0.09 |
  |    Zr          4     1628.07    -125.35      0.14  -3.741E+01   0.12 |
[...]
  |    La          2     4603.54     526.75      0.08  -7.782E+01   0.11 |
  |    La          3     4665.90     650.38      0.07  -8.313E+01   0.13 |
  |    La          4     4751.01     871.18      0.04  -8.733E+01   0.05 |
  |    La          5     4603.54     526.75      0.08  -7.782E+01   0.11 |
  |    La          6     4751.01     871.18      0.04  -8.733E+01   0.05 |
  |    La          7     4665.90     650.37      0.07  -8.313E+01   0.13 |
  |    La          8     4604.35     512.04      0.08  -7.608E+01   0.06 |
  |    La          9     4695.47     754.41      0.05  -8.050E+01   0.08 |
  |    La         10     4659.74     628.55      0.00  -8.125E+01   0.06 |
  |    La         11     4603.61     545.89      0.10  -7.780E+01   0.20 |
  |    La         12     4661.23     657.76      0.09  -8.190E+01   0.15 |
  |    La         13     4604.35     512.04      0.08  -7.608E+01   0.06 |
  |    La         14     4661.23     657.76      0.09  -8.190E+01   0.15 |
  |    La         15     4659.74     628.55      0.00  -8.125E+01   0.06 |
  |    La         16     4599.13     554.20      0.10  -7.589E+01   0.19 |

 *********************** Forces ***********************
 *            Cartesian components (eV/A)             *
 *                   x            y            z      *
 * O         1     -0.00640     -0.00640     -0.00330 *
 * O         2     -0.00255     -0.00123     -0.00186 *
 * O         3     -0.00123     -0.00255     -0.00186 *
 * O         4      0.00445      0.00445      0.00069 *
 * O         5     -0.00194      0.00616     -0.00058 *
 * O         6     -0.00171     -0.00171      0.01442 *
 * O         7      0.00123      0.00123      0.00437 *
 * O         8      0.00616     -0.00194     -0.00058 *
 * O         9     -0.00318      0.01558      0.01293 *
 * O        10     -0.00877     -0.00738     -0.00223 *
 * O        11     -0.00986     -0.01029      0.02042 *
 * O        12      0.01393      0.00496      0.00253 *
 * O        13      0.01558     -0.00318      0.01293 *
 * O        14     -0.01039      0.00290      0.01674 *
 * O        15     -0.01029     -0.00986      0.02042 *
 * O        16      0.00992      0.00795      0.00845 *
 * O        17      0.00791      0.00791      0.00438 *
 * O        18      0.01477     -0.00852     -0.00439 *
 * O        19      0.00379      0.00379      0.00063 *
 * O        20      0.00420      0.00375      0.01249 *
 * O        21     -0.00675      0.01088     -0.00886 *
 * O        22     -0.01951     -0.00882     -0.01153 *
 * O        23     -0.02207     -0.00518     -0.01812 *
 * O        24     -0.00689      0.00421      0.00123 *
 * O        25      0.00421     -0.00690      0.00122 *
 * O        26      0.00188      0.01000      0.01507 *
 * O        27     -0.00882     -0.01951     -0.01153 *
 * O        28      0.00873      0.02025     -0.01576 *
 * O        29     -0.00509      0.01089     -0.00974 *
 * O        30     -0.00064     -0.00064      0.00823 *
 * O        31     -0.00404      0.00357      0.00720 *
 * O        32      0.01287      0.01287      0.00452 *
 * O        33      0.01088     -0.00675     -0.00886 *
 * O        34     -0.00519     -0.02207     -0.01812 *
 * O        35      0.02025      0.00873     -0.01576 *
 * O        36      0.01000      0.00188      0.01507 *
 * O        37      0.00357     -0.00404      0.00720 *
 * O        38      0.01089     -0.00509     -0.00974 *
 * O        39     -0.00738     -0.00877     -0.00223 *
 * O        40      0.00496      0.01393      0.00253 *
 * O        41      0.00795      0.00992      0.00845 *
 * O        42      0.00290     -0.01039      0.01674 *
 * O        43      0.00375      0.00420      0.01249 *
 * O        44     -0.00852      0.01477     -0.00439 *
 * O        45      0.00687      0.00570      0.01421 *
 * O        46     -0.01175     -0.00590     -0.00445 *
 * O        47     -0.00539     -0.00539     -0.00593 *
 * O        48     -0.00657     -0.00657      0.01022 *
 * O        49      0.02090      0.00501     -0.01609 *
 * O        50     -0.00745     -0.01676     -0.01335 *
 * O        51      0.00501      0.02090     -0.01609 *
 * O        52     -0.01676     -0.00745     -0.01335 *
 * O        53     -0.00362     -0.00362      0.02695 *
 * O        54     -0.01542     -0.01542     -0.00124 *
 * O        55     -0.00590     -0.01175     -0.00445 *
 * O        56      0.00570      0.00687      0.01421 *
 * Zr        1     -0.01329     -0.01328      0.02427 *
 * Zr        2      0.00330      0.00036     -0.00600 *
 * Zr        3      0.00138      0.02534      0.00526 *
 * Zr        4      0.00036      0.00330     -0.00600 *
[...]
 * La        2      0.00689     -0.00680      0.00058 *
 * La        3     -0.00191     -0.00025     -0.00257 *
 * La        4     -0.01916     -0.00959     -0.00772 *
 * La        5     -0.00680      0.00689      0.00058 *
 * La        6     -0.00959     -0.01916     -0.00772 *
 * La        7     -0.00025     -0.00191     -0.00257 *
 * La        8      0.00161     -0.00987      0.00569 *
 * La        9     -0.01423     -0.01423     -0.02407 *
 * La       10     -0.00103      0.01209      0.01533 *
 * La       11     -0.00046     -0.00046      0.00479 *
 * La       12      0.00300     -0.00370     -0.01062 *
 * La       13     -0.00987      0.00161      0.00569 *
 * La       14     -0.00370      0.00300     -0.01062 *
 * La       15      0.01209     -0.00103      0.01533 *
 * La       16      0.00048      0.00048      0.00127 *

 ***************** Stress Tensor *****************
 *          Cartesian components (GPa)           *
 *             x             y             z     *
 *  x      0.044647      0.032463      0.002017  *
 *  y      0.032463      0.044647      0.002017  *
 *  z      0.002017      0.002017      0.039452  *
 *  Pressure:   -0.0429                          *

[...]

 Pseudo atomic calculation performed for Sn 4d10 5s2 5p2

[...]

 Pseudo atomic calculation performed for La 5s2 5p6 5d1 6s2

 Converged in 34 iterations to a total energy of -968.0372 eV

Charge spilling parameter for spin component 1 = 0.24%

     Atomic Populations (Mulliken)
Species   Ion     s      p      d      f     Total  Charge (e)
  O        1     1.87   5.00   0.00   0.00   6.87    -0.87
  O        2     1.87   5.00   0.00   0.00   6.87    -0.87
  O        3     1.87   5.00   0.00   0.00   6.87    -0.87
  O        4     1.87   5.00   0.00   0.00   6.87    -0.87
  O        5     1.87   5.00   0.00   0.00   6.87    -0.87
  O        6     1.87   5.00   0.00   0.00   6.87    -0.87
  O        7     1.87   5.00   0.00   0.00   6.87    -0.87
  O        8     1.87   5.00   0.00   0.00   6.87    -0.87
  O        9     1.87   4.99   0.00   0.00   6.85    -0.85
  O       10     1.88   5.02   0.00   0.00   6.91    -0.91
  O       11     1.87   4.99   0.00   0.00   6.86    -0.86
  O       12     1.86   4.95   0.00   0.00   6.80    -0.80
  O       13     1.87   4.99   0.00   0.00   6.85    -0.85
  O       14     1.87   4.99   0.00   0.00   6.85    -0.85
  O       15     1.87   4.99   0.00   0.00   6.86    -0.86
  O       16     1.88   5.03   0.00   0.00   6.91    -0.91
  O       17     1.88   5.03   0.00   0.00   6.91    -0.91
  O       18     1.87   4.99   0.00   0.00   6.86    -0.86
  O       19     1.88   5.02   0.00   0.00   6.91    -0.91
  O       20     1.86   4.95   0.00   0.00   6.80    -0.80
  O       21     1.86   4.95   0.00   0.00   6.80    -0.80
  O       22     1.87   4.99   0.00   0.00   6.86    -0.86
  O       23     1.87   4.99   0.00   0.00   6.86    -0.86
  O       24     1.88   5.02   0.00   0.00   6.91    -0.91
  O       25     1.88   5.02   0.00   0.00   6.91    -0.91
  O       26     1.87   4.99   0.00   0.00   6.86    -0.86
  O       27     1.87   4.99   0.00   0.00   6.86    -0.86
  O       28     1.87   4.99   0.00   0.00   6.86    -0.86
  O       29     1.86   4.95   0.00   0.00   6.80    -0.80
  O       30     1.88   5.03   0.00   0.00   6.91    -0.91
  O       31     1.88   5.02   0.00   0.00   6.91    -0.91
  O       32     1.87   4.99   0.00   0.00   6.86    -0.86
  O       33     1.86   4.95   0.00   0.00   6.80    -0.80
  O       34     1.87   4.99   0.00   0.00   6.86    -0.86
  O       35     1.87   4.99   0.00   0.00   6.86    -0.86
  O       36     1.87   4.99   0.00   0.00   6.86    -0.86
  O       37     1.88   5.02   0.00   0.00   6.91    -0.91
  O       38     1.86   4.95   0.00   0.00   6.80    -0.80
  O       39     1.88   5.02   0.00   0.00   6.91    -0.91
  O       40     1.86   4.95   0.00   0.00   6.80    -0.80
  O       41     1.88   5.03   0.00   0.00   6.91    -0.91
  O       42     1.87   4.99   0.00   0.00   6.85    -0.85
  O       43     1.86   4.95   0.00   0.00   6.80    -0.80
  O       44     1.87   4.99   0.00   0.00   6.86    -0.86
  O       45     1.87   4.99   0.00   0.00   6.86    -0.86
  O       46     1.86   4.95   0.00   0.00   6.80    -0.80
  O       47     1.88   5.03   0.00   0.00   6.91    -0.91
  O       48     1.86   4.95   0.00   0.00   6.80    -0.80
  O       49     1.87   4.99   0.00   0.00   6.86    -0.86
  O       50     1.87   4.99   0.00   0.00   6.86    -0.86
  O       51     1.87   4.99   0.00   0.00   6.86    -0.86
  O       52     1.87   4.99   0.00   0.00   6.86    -0.86
  O       53     1.85   4.95   0.00   0.00   6.80    -0.80
  O       54     1.87   4.99   0.00   0.00   6.86    -0.86
  O       55     1.86   4.95   0.00   0.00   6.80    -0.80
  O       56     1.87   4.99   0.00   0.00   6.86    -0.86
  Zr       1     2.37   6.50   1.92   0.00  10.79     1.21
  Zr       2     2.37   6.48   1.92   0.00  10.77     1.23
  Zr       3     2.37   6.47   1.93   0.00  10.77     1.23
  Zr       4     2.37   6.48   1.92   0.00  10.77     1.23
[...]
  La       2     2.10   6.18   1.19   0.00   9.48     1.52
  La       3     2.06   6.18   1.19   0.00   9.43     1.57
  La       4     2.01   6.15   1.20   0.00   9.35     1.65
  La       5     2.10   6.18   1.19   0.00   9.48     1.52
  La       6     2.01   6.15   1.20   0.00   9.35     1.65
  La       7     2.06   6.18   1.19   0.00   9.43     1.57
  La       8     2.10   6.18   1.19   0.00   9.48     1.52
  La       9     2.05   6.15   1.19   0.00   9.40     1.60
  La      10     2.06   6.18   1.19   0.00   9.43     1.57
  La      11     2.10   6.18   1.19   0.00   9.47     1.53
  La      12     2.05   6.17   1.19   0.00   9.42     1.58
  La      13     2.10   6.18   1.19   0.00   9.48     1.52
  La      14     2.05   6.17   1.19   0.00   9.42     1.58
  La      15     2.06   6.18   1.19   0.00   9.43     1.57
  La      16     2.09   6.18   1.19   0.00   9.46     1.54

            Bond              Population      Length (A)
         O 30 -- Sn 5              0.34        2.10176
         O 30 -- Sn 6              0.34        2.10176
         O 27 -- Sn 7              0.35        2.10239
         O 22 -- Sn 4              0.35        2.10239
         O 52 -- Sn 6              0.35        2.10254
         O 50 -- Sn 5              0.35        2.10254
         O 11 -- Sn 4              0.35        2.10317
         O 15 -- Sn 7              0.35        2.10317
         O 28 -- Sn 4              0.35        2.10321
         O 35 -- Sn 7              0.35        2.10321
         O 16 -- Sn 8              0.34        2.10455
         O 41 -- Sn 8              0.34        2.10455
         O 18 -- Sn 5              0.34        2.10515
         O 44 -- Sn 6              0.34        2.10515
         O 41 -- Sn 1              0.34        2.10697
         O 16 -- Sn 2              0.34        2.10697
         O 47 -- Sn 2              0.33        2.10710
         O 47 -- Sn 1              0.33        2.10710
         O 56 -- Sn 4              0.35        2.10799
         O 45 -- Sn 7              0.35        2.10799
         O 17 -- Sn 8              0.34        2.10942
         O 49 -- Sn 1              0.34        2.10978
         O 51 -- Sn 2              0.34        2.10978
         O 23 -- Sn 2              0.34        2.11050
         O 34 -- Sn 1              0.34        2.11050
         O 17 -- Sn 3              0.34        2.11060
         O 36 -- Sn 8              0.34        2.11072
         O 26 -- Sn 8              0.34        2.11072
         O 9  -- Sn 6              0.35        2.11095
         O 13 -- Sn 5              0.35        2.11095
         O 54 -- Sn 3              0.34        2.11135
         O 10 -- Sn 3              0.33        2.11165
         O 39 -- Sn 3              0.33        2.11165
         O 29 -- Zr 4              0.41        2.11191
         O 38 -- Zr 2              0.41        2.11191
         O 39 -- Sn 1              0.34        2.11192
         O 10 -- Sn 2              0.34        2.11192
         O 24 -- Sn 3              0.34        2.11361
         O 25 -- Sn 3              0.34        2.11361
         O 42 -- Sn 5              0.34        2.11367
         O 14 -- Sn 6              0.34        2.11367
         O 53 -- Zr 3              0.43        2.11393
         O 53 -- Zr 5              0.43        2.11393
         O 25 -- Sn 5              0.33        2.11398
         O 24 -- Sn 6              0.33        2.11398
         O 19 -- Sn 7              0.33        2.11413
         O 19 -- Sn 4              0.33        2.11413
         O 12 -- Zr 8              0.43        2.11473
         O 40 -- Zr 6              0.43        2.11473
         O 38 -- Zr 6              0.41        2.11546
         O 29 -- Zr 8              0.41        2.11546
         O 21 -- Zr 7              0.42        2.11560
         O 33 -- Zr 7              0.42        2.11560
         O 32 -- Sn 8              0.34        2.11601
         O 48 -- Zr 1              0.42        2.11620
         O 50 -- Zr 1              0.44        2.11623
         O 52 -- Zr 1              0.44        2.11623
         O 21 -- Zr 5              0.42        2.11668
         O 33 -- Zr 3              0.42        2.11668
         O 35 -- Zr 2              0.44        2.11720
[...]
         O 38 -- O 42             -0.03        2.83067
         O 26 -- O 55             -0.03        2.83099
         O 36 -- O 46             -0.03        2.83099
         O 34 -- O 43             -0.03        2.83119
         O 20 -- O 23             -0.03        2.83119
         O 35 -- O 43             -0.03        2.83232
         O 20 -- O 28             -0.03        2.83232
         O 13 -- O 34             -0.03        2.83275
         O 9  -- O 23             -0.03        2.83275
         O 15 -- O 32             -0.03        2.83609
         O 11 -- O 32             -0.03        2.83609
         O 45 -- O 54             -0.03        2.83632
         O 54 -- O 56             -0.03        2.83632
         O 18 -- O 26             -0.03        2.83831
         O 36 -- O 44             -0.03        2.83831

Writing analysis data to 058.castep_bin

Writing model to 058.check

 A BibTeX formatted list of references used in this run has been written to
 058.bib

Initialisation time =     54.89 s
Calculation time    =  33813.86 s
Finalisation time   =     62.73 s
Total time          =  33931.48 s

Overall parallel efficiency rating: Good (79%)

Data was distributed by:-
G-vector (4-way); efficiency rating: Very good (80%)
k-point (14-way); efficiency rating: Excellent (98%)