 Compiled for linux_x86_64_ifort16 on Sat, 23 Jul 2016 23:44:54 +0100
 from code version
 203e84763863+ Castep161_branch Fri, 04 Mar 2016 19:21:07 +0000
 Compiler: Intel Fortran 16.0.3.210; Optimisation: fast
 MATHLIBS: Intel MKL(11.3.3) (LAPACK version 3.6.0)
 FFT Lib : mkl
 Fundamental constants values: CODATA 2010

 Run started: Thu, 26 Apr 2018 17:10:22 +0100
 |           N   N    M   M    RRRR                |
 |           NN  N    MM MM    R   R               |
 |           N N N    M M M    RRRR                |
 |           N  NN    M   M    R  R                |
 |           N   N    M   M    R   R               |
 | Welcome to Materials Studio CASTEP-NMR          |
 | Authors:                                        |
 | J.R. Yates, C.J. Pickard, F. Mauri              |
 | Contributors:                                   |
 | T.F.G. Green, S.A. Joyce                        |
 | Copyright (c) 2004 - 2015                       |
 | Please cite the appropriate publications in all |
 | work arising from your use of CASTEP NMR.       |
 | For NMR Shielding Tensors cite:                 |
 |    "All-electron magnetic response with         |
 |    pseudopotentials: NMR chemical shifts",      |
 |    C. J. Pickard, F. Mauri;                     |
 |    Physical Review B63 245101 (2001), and       |
 |    "Calculation of NMR Chemical Shifts          |
 |    for extended systems using                   |
 |    Ultrasoft Pseudopotentials",                 |
 |    J. R. Yates, C. J. Pickard and F. Mauri      |
 |    Physical Review B76 024401 (2007)            |
 | For Electric Field Gradients cite:              |
 |   "Accurate First Principles Prediction of 17O  |
 |    NMR Parameters in SiO2: Assignment of the    |
 |    Zeolite Ferrierite Spectrum"                 |
 |    M. Profeta, F. Mauri and C. J. Pickard       |
 |    J. Amer. Chem. Soc. 125 541 (2003)           |
 | For Spin-Spin (J) Couplings cite:               |
 |   "A first principles theory of NMR J-coupling  |
 |   in solid-state systems"                       |
 |   S.A. Joyce, J.R. Yates, C.J. Pickard, F. Mauri|
 |   J. Chem. Phys. 127 204107 (2007)              |
 |   "Relativistic NMR J-coupling with ultrasoft   |
 |   pseudopotentials and the zeroth-order regular |
 |   approximation"                                |
 |   T.F.G. Green and J.R. Yates                   |
 |   J. Chem. Phys. 140 234106 (2014)              |

 Atomic calculation performed for O: 1s2 2s2 2p4

 Converged in 44 iterations to an ae energy of -2040.855 eV

 Atomic calculation performed for O: 1s2 2s2 2p4

 Exceeded max iterations: converged to 0.000000062 eV

   | Pseudopotential Report - Date of generation 26-04-2018   |
   | Element: O Ionic charge:  6.00 Level of theory: PBE      |
   | Atomic Solver: ZORA (scalar)                             |
   |               Reference Electronic Structure             |
   |         Orbital         Occupation         Energy        |
   |            2s              2.000           -0.881        |
   |            2p              4.000           -0.332        |
   |                 Pseudopotential Definition               |
   |        Beta     l      e      Rc     scheme   norm       |
   |          1      0   -0.881   1.100     qc      0         |
   |          2      0    0.250   1.100     qc      0         |
   |          3      1   -0.332   1.100     qc      0         |
   |          4      1    0.250   1.100     qc      0         |
   |         loc     2    0.000   1.100     pn      0         |
   | Augmentation charge Rinner = 0.769                       |
   | Partial core correction Rc = 0.769                       |
   | "2|1.1|15|18|20|20:21(qc=7)"                             |
   |      Author: Chris J. Pickard, Cambridge University      |

 Atomic calculation performed for Zr: 1s2 2s2 2p6 3s2 3p6 3d10 4s2 4p6 4d2 5s2

[...]

 Atomic calculation performed for Zr: 1s2 2s2 2p6 3s2 3p6 3d10 4s2 4p6 4d2 5s2

[...]

 Warning: ion_atom_descreen_psp: negative charge density encountered
   | Pseudopotential Report - Date of generation 26-04-2018   |
   | Element: Zr Ionic charge: 12.00 Level of theory: PBE     |
   | Atomic Solver: ZORA (scalar)                             |
   |               Reference Electronic Structure             |
   |         Orbital         Occupation         Energy        |
   |            4s              2.000           -2.003        |
   |            4p              6.000           -1.193        |
   |            5s              2.000           -0.163        |
   |            4d              2.000           -0.132        |
   |                 Pseudopotential Definition               |
   |        Beta     l      e      Rc     scheme   norm       |
   |          1      0   -2.003   2.105     qc      0         |
   |          2      0   -0.163   2.105     qc      0         |
   |          3      0    0.250   2.105     qc      0         |
   |          4      1   -1.193   2.105     qc      0         |
   |          5      1    0.250   2.105     qc      0         |
   |          6      2   -0.132   2.105     qc      0         |
   |          7      2    0.250   2.105     qc      0         |
   |         loc     3    0.000   2.105     pn      0         |
   | Augmentation charge Rinner = 1.471                       |
   | Partial core correction Rc = 1.471                       |
   | "3|2.1|7|8|9|40U:50:41:42"                               |
   |      Author: Chris J. Pickard, Cambridge University      |

 Atomic calculation performed for Sn:

[...]

 Atomic calculation performed for Sn:

[...]

   | Pseudopotential Report - Date of generation 26-04-2018   |
   | Element: Sn Ionic charge: 14.00 Level of theory: PBE     |
   | Atomic Solver: ZORA (scalar)                             |
   |               Reference Electronic Structure             |
   |         Orbital         Occupation         Energy        |
   |            4d             10.000           -0.950        |
   |            5s              2.000           -0.388        |
   |            5p              2.000           -0.136        |
   |                 Pseudopotential Definition               |
   |        Beta     l      e      Rc     scheme   norm       |
   |          1      0   -0.388   2.199     qc      0         |
   |          2      0    0.250   2.199     qc      0         |
   |          3      1   -0.136   2.199     qc      0         |
   |          4      1    0.250   2.199     qc      0         |
   |          5      2   -0.950   2.199     qc      0         |
   |          6      2    0.250   2.199     qc      0         |
   |         loc     3    0.000   2.199     pn      0         |
   | Augmentation charge Rinner = 1.537                       |
   | Partial core correction Rc = 1.537                       |
   | "3|2.2|7|8|9|50:51:42"                                   |
   |      Author: Chris J. Pickard, Cambridge University      |

 Atomic calculation performed for La:

 Converged in 56 iterations to an ae energy of -230121.495 eV

 Atomic calculation performed for La:

 Exceeded max iterations: converged to 0.000000907 eV

 Warning: ion_atom_descreen_psp: negative charge density encountered
   | Pseudopotential Report - Date of generation 26-04-2018   |
   | Element: La Ionic charge: 11.00 Level of theory: PBE     |
   | Atomic Solver: ZORA (scalar)                             |
   |               Reference Electronic Structure             |
   |         Orbital         Occupation         Energy        |
   |            5s              2.000           -1.430        |
   |            5p              6.000           -0.823        |
   |            6s              2.000           -0.135        |
   |            5d              1.000           -0.114        |
   |                 Pseudopotential Definition               |
   |        Beta     l      e      Rc     scheme   norm       |
   |          1      0   -1.430   2.298     qc      0         |
   |          2      0   -0.135   2.298     qc      0         |
   |          3      0    0.250   2.298     qc      0         |
   |          4      1   -0.823   2.298     qc      0         |
   |          5      1    0.250   2.298     qc      0         |
   |          6      2   -0.114   2.298     qc      0         |
   |          7      2    0.250   2.298     qc      0         |
   |         loc     2    0.000   2.298     pn      0         |
   | Augmentation charge Rinner = 1.606                       |
   | Partial core correction Rc = 1.606                       |
   | "2|2.3|5|6|7|50U:60:51:52(qc=4.5)"                       |
   |      Author: Chris J. Pickard, Cambridge University      |

 Pseudo atomic calculation performed for O 2s2 2p4

 Converged in 39 iterations to a total energy of -432.6554 eV

 Pseudo atomic calculation performed for Zr 4s2 4p6 4d2 5s2

[...]

 Calculation parallelised over 56 processes.
 Data is distributed by G-vector(4-way) and k-point(14-way)

 ************************************ Title ************************************
 nmr testing

 ***************************** General Parameters ******************************

 output verbosity                               : normal  (1)
 write checkpoint data to                       : 066.check
 type of calculation                            : Magnetic Resonance
 stress calculation                             : on
 density difference calculation                 : off
 electron localisation func (ELF) calculation   : off
 Hirshfeld analysis                             : off
 unlimited duration calculation
 timing information                             : on
 write final potential to formatted file        : off
 write final density to formatted file          : off
 write structure in CIF formatted file          : on
 write structure in CELL formatted file         : on
 write BibTeX reference list                    : on
 write OTFG pseudopotential files               : on
 checkpoint writing                             : both castep_bin and check files

 output         length unit                     : A
 output           mass unit                     : amu
 output           time unit                     : ps
 output         charge unit                     : e
 output           spin unit                     : hbar/2
 output         energy unit                     : eV
 output          force unit                     : eV/A
 output       velocity unit                     : A/ps
 output       pressure unit                     : GPa
 output     inv_length unit                     : 1/A
 output      frequency unit                     : cm-1
 output force constant unit                     : eV/A**2
 output         volume unit                     : A**3
 output   IR intensity unit                     : (D/A)**2/amu
 output         dipole unit                     : D
 output         efield unit                     : eV/A/e
 output        entropy unit                     : J/mol/K

 wavefunctions paging                           : none
 random number generator seed                   : randomised (171023803)
 data distribution                              : optimal for this architecture
[...]
  |    O          42      -91.60      87.78      0.15  -3.224E+00   0.13 |
  |    O          43      -84.09      89.78      0.11  -3.215E+00   0.08 |
  |    O          44     -159.87     144.70      0.76   1.063E+00   0.69 |
  |    O          45     -160.23     147.14      0.86   1.098E+00   0.68 |
  |    O          46     -161.40     146.32      0.75   1.057E+00   0.69 |
  |    O          47      -18.71      39.52      0.80   3.919E+00   0.83 |
  |    O          48      -91.60      93.76      0.23  -3.182E+00   0.11 |
  |    O          49      -92.19      82.83      0.09  -3.234E+00   0.10 |
  |    O          50      -90.88      95.69      0.28  -3.178E+00   0.10 |
  |    O          51      -85.30      86.28      0.09  -3.164E+00   0.07 |
  |    O          52     -163.32     152.36      0.85   1.089E+00   0.76 |
  |    O          53     -164.86     158.62      0.85   1.048E+00   0.85 |
  |    O          54      -88.43      85.82      0.20  -3.200E+00   0.08 |
  |    O          55     -162.50     153.01      0.87   1.050E+00   0.78 |
  |    O          56      -87.32      85.09      0.29  -3.208E+00   0.09 |
  |    Zr          1     1623.25    -126.96      0.18  -3.654E+01   0.16 |
  |    Zr          2     1630.21    -125.31      0.10  -3.749E+01   0.09 |
  |    Zr          3     1623.96    -120.15      0.14  -3.876E+01   0.04 |
  |    Zr          4     1609.80    -113.87      0.09  -3.767E+01   0.09 |
[...]
  |    La          2     4658.90     630.31      0.02  -8.102E+01   0.05 |
  |    La          3     4664.19     620.59      0.01  -8.227E+01   0.04 |
  |    La          4     4697.18     769.04      0.04  -8.163E+01   0.06 |
  |    La          5     4659.42     659.35      0.08  -8.216E+01   0.13 |
  |    La          6     4705.77     767.08      0.04  -8.559E+01   0.08 |
  |    La          7     4652.28     659.71      0.10  -8.085E+01   0.16 |
  |    La          8     4563.39     374.89      0.05  -7.377E+01   0.09 |
  |    La          9     4701.17     755.53      0.03  -8.230E+01   0.06 |
  |    La         10     4705.69     752.20      0.04  -8.436E+01   0.10 |
  |    La         11     4606.29     516.08      0.08  -7.658E+01   0.07 |
  |    La         12     4659.30     623.16      0.01  -8.101E+01   0.02 |
  |    La         13     4655.04     665.19      0.10  -8.104E+01   0.15 |
  |    La         14     4552.72     382.29      0.06  -7.315E+01   0.12 |
  |    La         15     4601.91     509.35      0.07  -7.636E+01   0.09 |
  |    La         16     4701.57     781.60      0.11  -8.346E+01   0.13 |

 *********************** Forces ***********************
 *            Cartesian components (eV/A)             *
 *                   x            y            z      *
 * O         1     -0.01128     -0.00241      0.00035 *
 * O         2     -0.00375      0.00339     -0.00669 *
 * O         3      0.00051      0.00052     -0.00182 *
 * O         4     -0.00803      0.00189     -0.00010 *
 * O         5     -0.00499     -0.00822     -0.00398 *
 * O         6     -0.00073     -0.00710      0.00764 *
 * O         7      0.00478      0.00288      0.00105 *
 * O         8      0.00594     -0.00971     -0.00680 *
 * O         9      0.00964      0.00426      0.01605 *
 * O        10     -0.00981     -0.00461     -0.00175 *
 * O        11     -0.01547     -0.00525      0.00644 *
 * O        12      0.00037     -0.02835     -0.01337 *
 * O        13     -0.00486      0.00688     -0.00169 *
 * O        14      0.01203      0.00707     -0.00205 *
 * O        15      0.01560     -0.00634     -0.02944 *
 * O        16      0.00285      0.00796     -0.00289 *
 * O        17     -0.00285     -0.00185      0.00359 *
 * O        18      0.02715     -0.01555     -0.00941 *
 * O        19      0.02260     -0.02511     -0.00801 *
 * O        20      0.02093      0.02031      0.01201 *
 * O        21     -0.02755      0.00114      0.00478 *
 * O        22     -0.00919     -0.00837      0.00020 *
 * O        23     -0.02579      0.00110     -0.02985 *
 * O        24     -0.03043      0.00250      0.02655 *
 * O        25      0.00896     -0.00818     -0.00482 *
 * O        26     -0.00448      0.01576      0.02255 *
 * O        27     -0.01301     -0.01555     -0.00157 *
 * O        28      0.02020      0.02572     -0.01419 *
 * O        29      0.02524      0.03499     -0.00467 *
 * O        30     -0.02125      0.03422      0.00681 *
 * O        31     -0.01962      0.02490     -0.01030 *
 * O        32      0.00361      0.00638     -0.01364 *
 * O        33      0.01232     -0.01456      0.00943 *
 * O        34     -0.01327     -0.00165     -0.00047 *
 * O        35     -0.00146      0.00433      0.00783 *
 * O        36      0.02267      0.00128      0.02996 *
 * O        37     -0.00597     -0.00166      0.00667 *
 * O        38     -0.00777     -0.02178     -0.01528 *
 * O        39     -0.00273     -0.01316      0.00389 *
 * O        40      0.01715      0.01246      0.02254 *
 * O        41      0.00821     -0.00089     -0.00496 *
 * O        42     -0.01629     -0.01887      0.01559 *
 * O        43     -0.02321     -0.02628      0.00180 *
 * O        44      0.01093     -0.00457      0.00033 *
 * O        45      0.01456     -0.01029     -0.01450 *
 * O        46     -0.00242     -0.00106      0.00362 *
 * O        47     -0.00570     -0.00265     -0.00694 *
 * O        48      0.00371      0.00891      0.00635 *
 * O        49      0.02645      0.00886     -0.01530 *
 * O        50     -0.00494     -0.01435     -0.02124 *
 * O        51     -0.01019      0.01498     -0.01830 *
 * O        52     -0.01178      0.02020      0.01427 *
 * O        53     -0.00481     -0.00032      0.02157 *
 * O        54     -0.01135     -0.02019     -0.00422 *
 * O        55     -0.00361     -0.01569     -0.00206 *
 * O        56      0.00938      0.00276      0.01533 *
 * Zr        1     -0.01308     -0.00343      0.03031 *
 * Zr        2      0.01410      0.01255     -0.02329 *
 * Zr        3     -0.01028      0.01819     -0.00432 *
 * Zr        4     -0.01808     -0.01816      0.00162 *
[...]
 * La        2      0.01241      0.00132      0.01804 *
 * La        3     -0.01493     -0.01120     -0.00606 *
 * La        4      0.00202      0.00393     -0.00370 *
 * La        5     -0.01849      0.00066      0.00108 *
 * La        6      0.01857      0.01603      0.00709 *
 * La        7     -0.00499     -0.01497      0.00500 *
 * La        8      0.00081      0.00691     -0.00484 *
 * La        9     -0.00795     -0.00120     -0.01849 *
 * La       10      0.01109      0.02202     -0.00076 *
 * La       11      0.01373     -0.01484      0.00710 *
 * La       12     -0.00593     -0.00557      0.00471 *
 * La       13     -0.00513     -0.00487      0.01168 *
 * La       14      0.00099     -0.00110     -0.00413 *
 * La       15      0.01527      0.00425      0.00527 *
 * La       16     -0.00646     -0.00536      0.00000 *

 ***************** Stress Tensor *****************
 *          Cartesian components (GPa)           *
 *             x             y             z     *
 *  x      0.050763      0.001023     -0.035305  *
 *  y      0.001023      0.045799      0.035975  *
 *  z     -0.035305      0.035975      0.055665  *
 *  Pressure:   -0.0507                          *

[...]

 Pseudo atomic calculation performed for Sn 4d10 5s2 5p2

[...]

 Pseudo atomic calculation performed for La 5s2 5p6 5d1 6s2

 Converged in 34 iterations to a total energy of -968.0372 eV

Charge spilling parameter for spin component 1 = 0.24%

     Atomic Populations (Mulliken)
Species   Ion     s      p      d      f     Total  Charge (e)
  O        1     1.87   5.00   0.00   0.00   6.87    -0.87
  O        2     1.87   5.00   0.00   0.00   6.87    -0.87
  O        3     1.87   5.00   0.00   0.00   6.87    -0.87
  O        4     1.87   5.00   0.00   0.00   6.87    -0.87
  O        5     1.87   5.00   0.00   0.00   6.87    -0.87
  O        6     1.87   5.00   0.00   0.00   6.87    -0.87
  O        7     1.87   5.00   0.00   0.00   6.87    -0.87
  O        8     1.87   5.00   0.00   0.00   6.87    -0.87
  O        9     1.86   4.95   0.00   0.00   6.80    -0.80
  O       10     1.88   5.03   0.00   0.00   6.91    -0.91
  O       11     1.88   5.02   0.00   0.00   6.91    -0.91
  O       12     1.87   4.99   0.00   0.00   6.86    -0.86
  O       13     1.88   5.02   0.00   0.00   6.91    -0.91
  O       14     1.86   4.95   0.00   0.00   6.80    -0.80
  O       15     1.87   4.99   0.00   0.00   6.86    -0.86
  O       16     1.88   5.03   0.00   0.00   6.91    -0.91
  O       17     1.88   5.03   0.00   0.00   6.91    -0.91
  O       18     1.87   4.99   0.00   0.00   6.86    -0.86
  O       19     1.87   4.99   0.00   0.00   6.86    -0.86
  O       20     1.86   4.95   0.00   0.00   6.80    -0.80
  O       21     1.87   4.99   0.00   0.00   6.86    -0.86
  O       22     1.88   5.02   0.00   0.00   6.91    -0.91
  O       23     1.87   4.99   0.00   0.00   6.86    -0.86
  O       24     1.87   4.99   0.00   0.00   6.86    -0.86
  O       25     1.88   5.02   0.00   0.00   6.91    -0.91
  O       26     1.87   4.99   0.00   0.00   6.86    -0.86
  O       27     1.86   4.95   0.00   0.00   6.80    -0.80
  O       28     1.87   4.99   0.00   0.00   6.86    -0.86
  O       29     1.87   4.99   0.00   0.00   6.86    -0.86
  O       30     1.87   4.99   0.00   0.00   6.86    -0.86
  O       31     1.87   4.99   0.00   0.00   6.85    -0.85
  O       32     1.88   5.02   0.00   0.00   6.91    -0.91
  O       33     1.87   4.99   0.00   0.00   6.86    -0.86
  O       34     1.88   5.02   0.00   0.00   6.91    -0.91
  O       35     1.86   4.95   0.00   0.00   6.80    -0.80
  O       36     1.87   4.99   0.00   0.00   6.86    -0.86
  O       37     1.88   5.02   0.00   0.00   6.91    -0.91
  O       38     1.86   4.95   0.00   0.00   6.80    -0.80
  O       39     1.88   5.02   0.00   0.00   6.91    -0.91
  O       40     1.86   4.94   0.00   0.00   6.80    -0.80
  O       41     1.88   5.02   0.00   0.00   6.91    -0.91
  O       42     1.87   4.99   0.00   0.00   6.86    -0.86
  O       43     1.87   4.99   0.00   0.00   6.86    -0.86
  O       44     1.86   4.95   0.00   0.00   6.80    -0.80
  O       45     1.86   4.95   0.00   0.00   6.80    -0.80
  O       46     1.86   4.95   0.00   0.00   6.80    -0.80
  O       47     1.88   5.03   0.00   0.00   6.91    -0.91
  O       48     1.87   4.99   0.00   0.00   6.86    -0.86
  O       49     1.87   4.99   0.00   0.00   6.86    -0.86
  O       50     1.87   4.99   0.00   0.00   6.86    -0.86
  O       51     1.87   4.99   0.00   0.00   6.86    -0.86
  O       52     1.86   4.95   0.00   0.00   6.80    -0.80
  O       53     1.86   4.95   0.00   0.00   6.80    -0.80
  O       54     1.87   4.99   0.00   0.00   6.86    -0.86
  O       55     1.86   4.95   0.00   0.00   6.80    -0.80
  O       56     1.87   4.99   0.00   0.00   6.86    -0.86
  Zr       1     2.37   6.49   1.92   0.00  10.78     1.22
  Zr       2     2.37   6.48   1.92   0.00  10.77     1.23
  Zr       3     2.37   6.47   1.92   0.00  10.77     1.23
  Zr       4     2.37   6.49   1.92   0.00  10.77     1.23
[...]
  La       2     2.08   6.17   1.19   0.00   9.44     1.56
  La       3     2.07   6.18   1.19   0.00   9.44     1.56
  La       4     2.04   6.15   1.20   0.00   9.39     1.61
  La       5     2.07   6.17   1.19   0.00   9.44     1.56
  La       6     2.03   6.16   1.19   0.00   9.38     1.62
  La       7     2.08   6.17   1.19   0.00   9.44     1.56
  La       8     2.11   6.21   1.19   0.00   9.51     1.49
  La       9     2.04   6.16   1.19   0.00   9.40     1.60
  La      10     2.04   6.16   1.19   0.00   9.39     1.61
  La      11     2.09   6.19   1.19   0.00   9.47     1.53
  La      12     2.06   6.18   1.19   0.00   9.43     1.57
  La      13     2.06   6.17   1.19   0.00   9.42     1.58
  La      14     2.13   6.20   1.19   0.00   9.52     1.48
  La      15     2.10   6.18   1.19   0.00   9.48     1.52
  La      16     2.03   6.15   1.20   0.00   9.38     1.62

            Bond              Population      Length (A)
         O 29 -- Sn 7              0.35        2.09788
         O 30 -- Sn 6              0.35        2.09979
         O 28 -- Sn 4              0.34        2.10092
         O 33 -- Sn 5              0.34        2.10136
         O 16 -- Sn 8              0.34        2.10198
         O 36 -- Sn 8              0.35        2.10256
         O 10 -- Sn 2              0.34        2.10353
         O 43 -- Sn 7              0.35        2.10404
         O 18 -- Sn 6              0.35        2.10417
         O 15 -- Sn 5              0.35        2.10421
         O 16 -- Sn 2              0.34        2.10513
         O 21 -- Sn 5              0.35        2.10529
         O 42 -- Sn 6              0.34        2.10555
         O 49 -- Sn 1              0.35        2.10559
         O 10 -- Sn 3              0.33        2.10561
         O 17 -- Sn 3              0.34        2.10641
         O 47 -- Sn 1              0.34        2.10737
         O 23 -- Sn 2              0.34        2.10744
         O 22 -- Sn 4              0.34        2.10808
         O 50 -- Sn 6              0.34        2.10819
         O 19 -- Sn 4              0.34        2.10832
         O 56 -- Sn 4              0.34        2.10860
         O 52 -- Zr 7              0.41        2.10864
         O 47 -- Sn 2              0.34        2.10905
         O 48 -- Sn 5              0.34        2.10915
         O 24 -- Sn 3              0.34        2.10960
         O 29 -- Zr 4              0.44        2.11005
         O 53 -- Zr 5              0.42        2.11025
         O 17 -- Sn 8              0.33        2.11113
         O 22 -- Sn 7              0.33        2.11140
         O 54 -- Sn 3              0.34        2.11159
         O 12 -- Sn 7              0.34        2.11214
         O 41 -- Sn 8              0.34        2.11237
         O 39 -- Sn 1              0.34        2.11251
         O 28 -- Zr 4              0.44        2.11263
         O 51 -- Sn 2              0.34        2.11293
         O 39 -- Sn 3              0.34        2.11301
         O 33 -- Zr 3              0.45        2.11355
         O 41 -- Sn 1              0.33        2.11376
         O 26 -- Sn 8              0.34        2.11402
         O 52 -- Zr 1              0.41        2.11468
         O 45 -- Zr 8              0.41        2.11497
         O 27 -- Zr 8              0.42        2.11507
         O 55 -- Zr 5              0.42        2.11513
         O 53 -- Zr 3              0.41        2.11535
         O 11 -- Sn 5              0.33        2.11575
         O 38 -- Zr 2              0.42        2.11592
         O 30 -- Zr 7              0.44        2.11592
         O 37 -- Sn 1              0.33        2.11624
         O 38 -- Zr 6              0.42        2.11641
         O 31 -- Sn 2              0.34        2.11647
         O 45 -- Zr 1              0.41        2.11659
         O 55 -- Zr 2              0.41        2.11675
         O 27 -- Zr 6              0.42        2.11692
         O 36 -- Zr 3              0.45        2.11697
         O 13 -- Sn 6              0.33        2.11719
         O 34 -- Sn 7              0.34        2.11739
         O 11 -- Sn 4              0.34        2.11776
         O 37 -- Sn 4              0.33        2.11787
         O 50 -- Zr 1              0.45        2.11787
[...]
         O 20 -- O 23             -0.03        2.82730
         O 9  -- O 23             -0.03        2.82803
         O 14 -- O 29             -0.03        2.82817
         O 20 -- O 49             -0.03        2.82907
         O 51 -- O 55             -0.03        2.82967
         O 46 -- O 49             -0.03        2.82989
         O 45 -- O 54             -0.03        2.83008
         O 9  -- O 24             -0.03        2.83105
         O 36 -- O 44             -0.03        2.83205
         O 15 -- O 31             -0.03        2.83339
         O 35 -- O 43             -0.03        2.83370
         O 43 -- O 51             -0.03        2.83393
         O 54 -- O 56             -0.03        2.83420
         O 18 -- O 26             -0.03        2.83581
         O 12 -- O 21             -0.03        2.83718

Writing analysis data to 066.castep_bin

Writing model to 066.check

 A BibTeX formatted list of references used in this run has been written to
 066.bib

Initialisation time =     53.89 s
Calculation time    =  33732.96 s
Finalisation time   =     57.04 s
Total time          =  33843.89 s

Overall parallel efficiency rating: Good (79%)

Data was distributed by:-
G-vector (4-way); efficiency rating: Very good (80%)
k-point (14-way); efficiency rating: Excellent (99%)