 Compiled for linux_x86_64_ifort16 on Sat, 23 Jul 2016 23:44:54 +0100
 from code version
 203e84763863+ Castep161_branch Fri, 04 Mar 2016 19:21:07 +0000
 Compiler: Intel Fortran 16.0.3.210; Optimisation: fast
 MATHLIBS: Intel MKL(11.3.3) (LAPACK version 3.6.0)
 FFT Lib : mkl
 Fundamental constants values: CODATA 2010

 Run started: Fri, 27 Apr 2018 02:34:43 +0100
 |           N   N    M   M    RRRR                |
 |           NN  N    MM MM    R   R               |
 |           N N N    M M M    RRRR                |
 |           N  NN    M   M    R  R                |
 |           N   N    M   M    R   R               |
 | Welcome to Materials Studio CASTEP-NMR          |
 | Authors:                                        |
 | J.R. Yates, C.J. Pickard, F. Mauri              |
 | Contributors:                                   |
 | T.F.G. Green, S.A. Joyce                        |
 | Copyright (c) 2004 - 2015                       |
 | Please cite the appropriate publications in all |
 | work arising from your use of CASTEP NMR.       |
 | For NMR Shielding Tensors cite:                 |
 |    "All-electron magnetic response with         |
 |    pseudopotentials: NMR chemical shifts",      |
 |    C. J. Pickard, F. Mauri;                     |
 |    Physical Review B63 245101 (2001), and       |
 |    "Calculation of NMR Chemical Shifts          |
 |    for extended systems using                   |
 |    Ultrasoft Pseudopotentials",                 |
 |    J. R. Yates, C. J. Pickard and F. Mauri      |
 |    Physical Review B76 024401 (2007)            |
 | For Electric Field Gradients cite:              |
 |   "Accurate First Principles Prediction of 17O  |
 |    NMR Parameters in SiO2: Assignment of the    |
 |    Zeolite Ferrierite Spectrum"                 |
 |    M. Profeta, F. Mauri and C. J. Pickard       |
 |    J. Amer. Chem. Soc. 125 541 (2003)           |
 | For Spin-Spin (J) Couplings cite:               |
 |   "A first principles theory of NMR J-coupling  |
 |   in solid-state systems"                       |
 |   S.A. Joyce, J.R. Yates, C.J. Pickard, F. Mauri|
 |   J. Chem. Phys. 127 204107 (2007)              |
 |   "Relativistic NMR J-coupling with ultrasoft   |
 |   pseudopotentials and the zeroth-order regular |
 |   approximation"                                |
 |   T.F.G. Green and J.R. Yates                   |
 |   J. Chem. Phys. 140 234106 (2014)              |

 Atomic calculation performed for O: 1s2 2s2 2p4

 Converged in 44 iterations to an ae energy of -2040.855 eV

 Atomic calculation performed for O: 1s2 2s2 2p4

 Exceeded max iterations: converged to 0.000000062 eV

   | Pseudopotential Report - Date of generation 27-04-2018   |
   | Element: O Ionic charge:  6.00 Level of theory: PBE      |
   | Atomic Solver: ZORA (scalar)                             |
   |               Reference Electronic Structure             |
   |         Orbital         Occupation         Energy        |
   |            2s              2.000           -0.881        |
   |            2p              4.000           -0.332        |
   |                 Pseudopotential Definition               |
   |        Beta     l      e      Rc     scheme   norm       |
   |          1      0   -0.881   1.100     qc      0         |
   |          2      0    0.250   1.100     qc      0         |
   |          3      1   -0.332   1.100     qc      0         |
   |          4      1    0.250   1.100     qc      0         |
   |         loc     2    0.000   1.100     pn      0         |
   | Augmentation charge Rinner = 0.769                       |
   | Partial core correction Rc = 0.769                       |
   | "2|1.1|15|18|20|20:21(qc=7)"                             |
   |      Author: Chris J. Pickard, Cambridge University      |

 Atomic calculation performed for Zr: 1s2 2s2 2p6 3s2 3p6 3d10 4s2 4p6 4d2 5s2

[...]

 Atomic calculation performed for Zr: 1s2 2s2 2p6 3s2 3p6 3d10 4s2 4p6 4d2 5s2

[...]

 Warning: ion_atom_descreen_psp: negative charge density encountered
   | Pseudopotential Report - Date of generation 27-04-2018   |
   | Element: Zr Ionic charge: 12.00 Level of theory: PBE     |
   | Atomic Solver: ZORA (scalar)                             |
   |               Reference Electronic Structure             |
   |         Orbital         Occupation         Energy        |
   |            4s              2.000           -2.003        |
   |            4p              6.000           -1.193        |
   |            5s              2.000           -0.163        |
   |            4d              2.000           -0.132        |
   |                 Pseudopotential Definition               |
   |        Beta     l      e      Rc     scheme   norm       |
   |          1      0   -2.003   2.105     qc      0         |
   |          2      0   -0.163   2.105     qc      0         |
   |          3      0    0.250   2.105     qc      0         |
   |          4      1   -1.193   2.105     qc      0         |
   |          5      1    0.250   2.105     qc      0         |
   |          6      2   -0.132   2.105     qc      0         |
   |          7      2    0.250   2.105     qc      0         |
   |         loc     3    0.000   2.105     pn      0         |
   | Augmentation charge Rinner = 1.471                       |
   | Partial core correction Rc = 1.471                       |
   | "3|2.1|7|8|9|40U:50:41:42"                               |
   |      Author: Chris J. Pickard, Cambridge University      |

 Atomic calculation performed for Sn:

[...]

 Atomic calculation performed for Sn:

[...]

   | Pseudopotential Report - Date of generation 27-04-2018   |
   | Element: Sn Ionic charge: 14.00 Level of theory: PBE     |
   | Atomic Solver: ZORA (scalar)                             |
   |               Reference Electronic Structure             |
   |         Orbital         Occupation         Energy        |
   |            4d             10.000           -0.950        |
   |            5s              2.000           -0.388        |
   |            5p              2.000           -0.136        |
   |                 Pseudopotential Definition               |
   |        Beta     l      e      Rc     scheme   norm       |
   |          1      0   -0.388   2.199     qc      0         |
   |          2      0    0.250   2.199     qc      0         |
   |          3      1   -0.136   2.199     qc      0         |
   |          4      1    0.250   2.199     qc      0         |
   |          5      2   -0.950   2.199     qc      0         |
   |          6      2    0.250   2.199     qc      0         |
   |         loc     3    0.000   2.199     pn      0         |
   | Augmentation charge Rinner = 1.537                       |
   | Partial core correction Rc = 1.537                       |
   | "3|2.2|7|8|9|50:51:42"                                   |
   |      Author: Chris J. Pickard, Cambridge University      |

 Atomic calculation performed for La:

 Converged in 56 iterations to an ae energy of -230121.495 eV

 Atomic calculation performed for La:

 Exceeded max iterations: converged to 0.000000907 eV

 Warning: ion_atom_descreen_psp: negative charge density encountered
   | Pseudopotential Report - Date of generation 27-04-2018   |
   | Element: La Ionic charge: 11.00 Level of theory: PBE     |
   | Atomic Solver: ZORA (scalar)                             |
   |               Reference Electronic Structure             |
   |         Orbital         Occupation         Energy        |
   |            5s              2.000           -1.430        |
   |            5p              6.000           -0.823        |
   |            6s              2.000           -0.135        |
   |            5d              1.000           -0.114        |
   |                 Pseudopotential Definition               |
   |        Beta     l      e      Rc     scheme   norm       |
   |          1      0   -1.430   2.298     qc      0         |
   |          2      0   -0.135   2.298     qc      0         |
   |          3      0    0.250   2.298     qc      0         |
   |          4      1   -0.823   2.298     qc      0         |
   |          5      1    0.250   2.298     qc      0         |
   |          6      2   -0.114   2.298     qc      0         |
   |          7      2    0.250   2.298     qc      0         |
   |         loc     2    0.000   2.298     pn      0         |
   | Augmentation charge Rinner = 1.606                       |
   | Partial core correction Rc = 1.606                       |
   | "2|2.3|5|6|7|50U:60:51:52(qc=4.5)"                       |
   |      Author: Chris J. Pickard, Cambridge University      |

 Pseudo atomic calculation performed for O 2s2 2p4

 Converged in 39 iterations to a total energy of -432.6554 eV

 Pseudo atomic calculation performed for Zr 4s2 4p6 4d2 5s2

[...]

 Calculation parallelised over 56 processes.
 Data is distributed by G-vector(4-way) and k-point(14-way)

 ************************************ Title ************************************
 nmr testing

 ***************************** General Parameters ******************************

 output verbosity                               : normal  (1)
 write checkpoint data to                       : 067.check
 type of calculation                            : Magnetic Resonance
 stress calculation                             : on
 density difference calculation                 : off
 electron localisation func (ELF) calculation   : off
 Hirshfeld analysis                             : off
 unlimited duration calculation
 timing information                             : on
 write final potential to formatted file        : off
 write final density to formatted file          : off
 write structure in CIF formatted file          : on
 write structure in CELL formatted file         : on
 write BibTeX reference list                    : on
 write OTFG pseudopotential files               : on
 checkpoint writing                             : both castep_bin and check files

 output         length unit                     : A
 output           mass unit                     : amu
 output           time unit                     : ps
 output         charge unit                     : e
 output           spin unit                     : hbar/2
 output         energy unit                     : eV
 output          force unit                     : eV/A
 output       velocity unit                     : A/ps
 output       pressure unit                     : GPa
 output     inv_length unit                     : 1/A
 output      frequency unit                     : cm-1
 output force constant unit                     : eV/A**2
 output         volume unit                     : A**3
 output   IR intensity unit                     : (D/A)**2/amu
 output         dipole unit                     : D
 output         efield unit                     : eV/A/e
 output        entropy unit                     : J/mol/K

 wavefunctions paging                           : none
 random number generator seed                   : randomised (23445174)
 data distribution                              : optimal for this architecture
[...]
  |    O          42      -91.30      93.60      0.20  -3.183E+00   0.10 |
  |    O          43      -85.24      82.60      0.15  -3.171E+00   0.06 |
  |    O          44     -160.57     155.84      0.75   1.076E+00   0.75 |
  |    O          45      -88.21      84.94      0.18  -3.162E+00   0.07 |
  |    O          46     -163.70     151.32      0.72   1.037E+00   0.79 |
  |    O          47      -14.52      61.07      0.44   3.903E+00   0.85 |
  |    O          48      -90.69      91.93      0.17  -3.226E+00   0.10 |
  |    O          49      -92.10      84.40      0.09  -3.229E+00   0.11 |
  |    O          50      -91.93      94.86      0.31  -3.121E+00   0.08 |
  |    O          51      -88.62      85.87      0.18  -3.201E+00   0.09 |
  |    O          52     -164.90     153.95      0.85   1.053E+00   0.78 |
  |    O          53     -162.89     157.73      0.80   1.058E+00   0.86 |
  |    O          54      -88.35      85.69      0.13  -3.171E+00   0.04 |
  |    O          55     -165.07     156.52      0.84   1.018E+00   0.88 |
  |    O          56      -90.51      84.95      0.22  -3.190E+00   0.09 |
  |    Zr          1     1609.21    -118.66      0.13  -3.560E+01   0.09 |
  |    Zr          2     1623.52    -125.46      0.16  -3.654E+01   0.04 |
  |    Zr          3     1628.48    -121.49      0.11  -3.975E+01   0.08 |
  |    Zr          4     1609.03    -114.43      0.09  -3.766E+01   0.06 |
[...]
  |    La          2     4704.05     753.45      0.02  -8.419E+01   0.04 |
  |    La          3     4618.67     511.15      0.06  -7.989E+01   0.10 |
  |    La          4     4701.38     771.34      0.04  -8.403E+01   0.05 |
  |    La          5     4658.04     652.52      0.08  -8.150E+01   0.11 |
  |    La          6     4705.35     768.39      0.04  -8.598E+01   0.10 |
  |    La          7     4657.52     650.60      0.09  -8.201E+01   0.15 |
  |    La          8     4555.77     384.93      0.06  -7.236E+01   0.11 |
  |    La          9     4653.64     627.10      0.02  -7.916E+01   0.03 |
  |    La         10     4750.11     868.18      0.05  -8.750E+01   0.09 |
  |    La         11     4605.35     509.89      0.09  -7.599E+01   0.07 |
  |    La         12     4659.54     654.33      0.09  -8.239E+01   0.15 |
  |    La         13     4599.00     521.69      0.08  -7.490E+01   0.07 |
  |    La         14     4610.41     516.01      0.07  -7.870E+01   0.10 |
  |    La         15     4650.99     625.15      0.01  -7.951E+01   0.01 |
  |    La         16     4652.32     655.85      0.10  -7.998E+01   0.14 |

 *********************** Forces ***********************
 *            Cartesian components (eV/A)             *
 *                   x            y            z      *
 * O         1     -0.01038     -0.00963     -0.00279 *
 * O         2     -0.00566     -0.00085     -0.01408 *
 * O         3     -0.00490     -0.00108     -0.01004 *
 * O         4     -0.00695     -0.00313     -0.00206 *
 * O         5     -0.00533     -0.00930     -0.00041 *
 * O         6      0.00541     -0.00066      0.01343 *
 * O         7      0.00301     -0.00036      0.00628 *
 * O         8     -0.00089     -0.00285     -0.00281 *
 * O         9      0.00623      0.00496      0.02327 *
 * O        10     -0.00970     -0.01033     -0.00003 *
 * O        11     -0.01438     -0.01225      0.01060 *
 * O        12     -0.00166     -0.02948     -0.01027 *
 * O        13     -0.00558      0.00374      0.00592 *
 * O        14      0.01053     -0.00477      0.00648 *
 * O        15     -0.00889     -0.00855     -0.00010 *
 * O        16      0.02095      0.01180      0.02222 *
 * O        17      0.02081      0.01426      0.00551 *
 * O        18      0.02200     -0.02158     -0.01074 *
 * O        19      0.00819     -0.00533     -0.00651 *
 * O        20      0.02090      0.01949      0.01100 *
 * O        21     -0.02322     -0.00547     -0.00049 *
 * O        22     -0.01588     -0.01115     -0.00578 *
 * O        23     -0.02617     -0.00815     -0.02928 *
 * O        24     -0.02280      0.00350      0.01179 *
 * O        25      0.00606     -0.00558     -0.00816 *
 * O        26     -0.01141     -0.00376     -0.01641 *
 * O        27     -0.00307     -0.02548     -0.02192 *
 * O        28      0.01725      0.02564     -0.02016 *
 * O        29      0.02693      0.02992     -0.00246 *
 * O        30     -0.01588      0.02211      0.01507 *
 * O        31     -0.00001      0.00548      0.00147 *
 * O        32     -0.01850     -0.01473     -0.00025 *
 * O        33     -0.00217     -0.01798      0.01041 *
 * O        34     -0.01610     -0.01208     -0.00328 *
 * O        35      0.01170      0.00253     -0.01241 *
 * O        36     -0.00223     -0.00852      0.00177 *
 * O        37     -0.00735      0.00138      0.00334 *
 * O        38     -0.01144     -0.01020     -0.01523 *
 * O        39     -0.00559     -0.01565     -0.00019 *
 * O        40      0.00760      0.00748      0.01730 *
 * O        41      0.00595      0.01799      0.01416 *
 * O        42     -0.01579     -0.01243      0.01160 *
 * O        43     -0.01434     -0.01234      0.00460 *
 * O        44      0.00419      0.00754     -0.00248 *
 * O        45      0.01103      0.01983      0.01284 *
 * O        46     -0.00879      0.00268      0.00264 *
 * O        47     -0.00233     -0.00392     -0.00130 *
 * O        48      0.00634      0.01252      0.01080 *
 * O        49      0.02991      0.01329     -0.01365 *
 * O        50     -0.01037     -0.01011     -0.01794 *
 * O        51      0.00007      0.01302     -0.01485 *
 * O        52     -0.01100      0.00916      0.01030 *
 * O        53      0.00573     -0.00144      0.02378 *
 * O        54     -0.01188     -0.01666     -0.00656 *
 * O        55     -0.00020     -0.02322     -0.00346 *
 * O        56      0.01605      0.00630      0.01560 *
 * Zr        1     -0.02888      0.00113      0.03520 *
 * Zr        2      0.01663      0.00226     -0.03231 *
 * Zr        3     -0.00273     -0.01281     -0.00727 *
 * Zr        4     -0.01917     -0.00724     -0.00431 *
[...]
 * La        2      0.01696      0.00520      0.02938 *
 * La        3     -0.00373      0.00201     -0.00024 *
 * La        4      0.00632      0.00138      0.00223 *
 * La        5      0.00235     -0.00341      0.01292 *
 * La        6      0.01856      0.01543     -0.00102 *
 * La        7     -0.00594     -0.01125      0.00419 *
 * La        8     -0.00147      0.00227     -0.00079 *
 * La        9     -0.01456      0.00280     -0.01654 *
 * La       10      0.00903      0.02305      0.00675 *
 * La       11      0.00229     -0.00362     -0.00045 *
 * La       12     -0.01203     -0.00956     -0.00005 *
 * La       13     -0.00504     -0.01200      0.01469 *
 * La       14     -0.00112     -0.00337     -0.00570 *
 * La       15      0.01932      0.01429     -0.00059 *
 * La       16     -0.00808      0.00037     -0.00507 *

 ***************** Stress Tensor *****************
 *          Cartesian components (GPa)           *
 *             x             y             z     *
 *  x      0.051483      0.037126      0.000830  *
 *  y      0.037126      0.062623      0.032939  *
 *  z      0.000830      0.032939      0.063182  *
 *  Pressure:   -0.0591                          *

[...]

 Pseudo atomic calculation performed for Sn 4d10 5s2 5p2

[...]

 Pseudo atomic calculation performed for La 5s2 5p6 5d1 6s2

 Converged in 34 iterations to a total energy of -968.0372 eV

Charge spilling parameter for spin component 1 = 0.24%

     Atomic Populations (Mulliken)
Species   Ion     s      p      d      f     Total  Charge (e)
  O        1     1.87   5.00   0.00   0.00   6.87    -0.87
  O        2     1.87   5.00   0.00   0.00   6.87    -0.87
  O        3     1.87   5.00   0.00   0.00   6.87    -0.87
  O        4     1.87   5.00   0.00   0.00   6.87    -0.87
  O        5     1.87   5.00   0.00   0.00   6.87    -0.87
  O        6     1.87   5.00   0.00   0.00   6.87    -0.87
  O        7     1.87   5.00   0.00   0.00   6.87    -0.87
  O        8     1.87   5.00   0.00   0.00   6.87    -0.87
  O        9     1.86   4.95   0.00   0.00   6.80    -0.80
  O       10     1.88   5.02   0.00   0.00   6.91    -0.91
  O       11     1.88   5.02   0.00   0.00   6.91    -0.91
  O       12     1.87   4.99   0.00   0.00   6.86    -0.86
  O       13     1.88   5.02   0.00   0.00   6.91    -0.91
  O       14     1.86   4.95   0.00   0.00   6.80    -0.80
  O       15     1.88   5.02   0.00   0.00   6.91    -0.91
  O       16     1.87   4.99   0.00   0.00   6.86    -0.86
  O       17     1.87   4.99   0.00   0.00   6.86    -0.86
  O       18     1.87   4.99   0.00   0.00   6.86    -0.86
  O       19     1.88   5.02   0.00   0.00   6.91    -0.91
  O       20     1.86   4.95   0.00   0.00   6.80    -0.80
  O       21     1.87   4.99   0.00   0.00   6.86    -0.86
  O       22     1.88   5.02   0.00   0.00   6.91    -0.91
  O       23     1.87   4.99   0.00   0.00   6.86    -0.86
  O       24     1.87   4.99   0.00   0.00   6.86    -0.86
  O       25     1.88   5.02   0.00   0.00   6.91    -0.91
  O       26     1.86   4.95   0.00   0.00   6.80    -0.80
  O       27     1.87   4.99   0.00   0.00   6.86    -0.86
  O       28     1.87   4.99   0.00   0.00   6.86    -0.86
  O       29     1.87   4.99   0.00   0.00   6.86    -0.86
  O       30     1.87   4.99   0.00   0.00   6.86    -0.86
  O       31     1.88   5.02   0.00   0.00   6.91    -0.91
  O       32     1.87   4.99   0.00   0.00   6.85    -0.85
  O       33     1.87   4.99   0.00   0.00   6.86    -0.86
  O       34     1.88   5.02   0.00   0.00   6.91    -0.91
  O       35     1.87   4.99   0.00   0.00   6.86    -0.86
  O       36     1.86   4.95   0.00   0.00   6.80    -0.80
  O       37     1.88   5.02   0.00   0.00   6.91    -0.91
  O       38     1.86   4.95   0.00   0.00   6.80    -0.80
  O       39     1.88   5.02   0.00   0.00   6.91    -0.91
  O       40     1.86   4.95   0.00   0.00   6.80    -0.80
  O       41     1.87   4.99   0.00   0.00   6.86    -0.86
  O       42     1.87   4.99   0.00   0.00   6.86    -0.86
  O       43     1.87   4.99   0.00   0.00   6.86    -0.86
  O       44     1.86   4.95   0.00   0.00   6.80    -0.80
  O       45     1.87   4.99   0.00   0.00   6.86    -0.86
  O       46     1.86   4.95   0.00   0.00   6.80    -0.80
  O       47     1.88   5.02   0.00   0.00   6.91    -0.91
  O       48     1.87   4.99   0.00   0.00   6.86    -0.86
  O       49     1.87   4.99   0.00   0.00   6.86    -0.86
  O       50     1.87   4.99   0.00   0.00   6.86    -0.86
  O       51     1.87   4.99   0.00   0.00   6.86    -0.86
  O       52     1.86   4.95   0.00   0.00   6.80    -0.80
  O       53     1.86   4.95   0.00   0.00   6.80    -0.80
  O       54     1.87   4.99   0.00   0.00   6.86    -0.86
  O       55     1.86   4.95   0.00   0.00   6.80    -0.80
  O       56     1.87   4.99   0.00   0.00   6.86    -0.86
  Zr       1     2.37   6.50   1.92   0.00  10.79     1.21
  Zr       2     2.37   6.49   1.92   0.00  10.78     1.22
  Zr       3     2.37   6.46   1.93   0.00  10.76     1.24
  Zr       4     2.37   6.49   1.92   0.00  10.78     1.22
[...]
  La       2     2.05   6.16   1.19   0.00   9.41     1.59
  La       3     2.08   6.20   1.19   0.00   9.47     1.53
  La       4     2.03   6.16   1.20   0.00   9.39     1.61
  La       5     2.07   6.18   1.19   0.00   9.44     1.56
  La       6     2.03   6.16   1.19   0.00   9.38     1.62
  La       7     2.07   6.17   1.19   0.00   9.43     1.57
  La       8     2.12   6.20   1.19   0.00   9.51     1.49
  La       9     2.06   6.17   1.19   0.00   9.43     1.57
  La      10     2.01   6.15   1.20   0.00   9.35     1.65
  La      11     2.08   6.19   1.19   0.00   9.46     1.54
  La      12     2.05   6.17   1.19   0.00   9.42     1.58
  La      13     2.09   6.18   1.19   0.00   9.47     1.53
  La      14     2.09   6.19   1.19   0.00   9.47     1.53
  La      15     2.06   6.17   1.19   0.00   9.43     1.57
  La      16     2.08   6.17   1.19   0.00   9.44     1.56

            Bond              Population      Length (A)
         O 30 -- Sn 6              0.35        2.09730
         O 18 -- Sn 6              0.35        2.09945
         O 29 -- Sn 7              0.35        2.09959
         O 28 -- Sn 4              0.34        2.10141
         O 17 -- Sn 3              0.35        2.10216
         O 16 -- Sn 2              0.35        2.10257
         O 49 -- Sn 1              0.34        2.10300
         O 23 -- Sn 2              0.35        2.10331
         O 48 -- Sn 5              0.35        2.10385
         O 24 -- Sn 3              0.34        2.10424
         O 27 -- Sn 8              0.35        2.10456
         O 33 -- Sn 5              0.34        2.10470
         O 45 -- Sn 8              0.35        2.10530
         O 15 -- Sn 5              0.34        2.10746
         O 15 -- Sn 8              0.34        2.10751
         O 43 -- Sn 7              0.35        2.10760
         O 35 -- Sn 8              0.34        2.10813
         O 41 -- Sn 1              0.34        2.10838
         O 12 -- Sn 7              0.34        2.10842
         O 11 -- Sn 5              0.34        2.10855
         O 42 -- Sn 6              0.34        2.10858
         O 51 -- Sn 2              0.34        2.10869
         O 10 -- Sn 2              0.34        2.10887
         O 56 -- Sn 4              0.34        2.11001
         O 11 -- Sn 4              0.34        2.11029
         O 29 -- Zr 4              0.44        2.11050
         O 21 -- Sn 5              0.34        2.11131
         O 47 -- Sn 1              0.34        2.11134
         O 10 -- Sn 3              0.33        2.11193
         O 50 -- Sn 6              0.34        2.11206
         O 54 -- Sn 3              0.35        2.11209
         O 36 -- Zr 8              0.43        2.11277
         O 52 -- Zr 7              0.41        2.11312
         O 38 -- Zr 2              0.42        2.11316
         O 53 -- Zr 5              0.43        2.11321
         O 39 -- Sn 3              0.34        2.11371
         O 19 -- Sn 4              0.33        2.11392
         O 34 -- Sn 7              0.34        2.11404
         O 55 -- Zr 2              0.42        2.11414
         O 22 -- Sn 4              0.34        2.11438
         O 39 -- Sn 1              0.34        2.11446
         O 52 -- Zr 1              0.42        2.11461
         O 22 -- Sn 7              0.33        2.11473
         O 44 -- Zr 3              0.43        2.11484
         O 32 -- Sn 5              0.34        2.11496
         O 37 -- Sn 1              0.33        2.11526
         O 19 -- Sn 8              0.33        2.11536
         O 44 -- Zr 7              0.43        2.11548
         O 36 -- Zr 3              0.42        2.11562
         O 47 -- Sn 2              0.33        2.11618
         O 46 -- Zr 4              0.44        2.11620
         O 38 -- Zr 6              0.41        2.11623
         O 49 -- Zr 4              0.44        2.11630
         O 40 -- Zr 6              0.43        2.11643
         O 53 -- Zr 3              0.42        2.11645
         O 30 -- Zr 7              0.44        2.11655
         O 18 -- Zr 5              0.44        2.11656
         O 24 -- Zr 7              0.45        2.11667
         O 34 -- Sn 1              0.34        2.11671
         O 33 -- Zr 3              0.45        2.11705
[...]
         O 20 -- O 27             -0.03        2.82758
         O 20 -- O 49             -0.03        2.82774
         O 14 -- O 29             -0.03        2.82818
         O 20 -- O 28             -0.03        2.82830
         O 18 -- O 26             -0.03        2.82850
         O 20 -- O 23             -0.03        2.82886
         O 33 -- O 40             -0.03        2.83100
         O 16 -- O 32             -0.03        2.83346
         O 9  -- O 24             -0.03        2.83411
         O 54 -- O 56             -0.03        2.83429
         O 32 -- O 41             -0.03        2.83539
         O 45 -- O 54             -0.03        2.83588
         O 43 -- O 51             -0.03        2.83627
         O 35 -- O 43             -0.03        2.84005
         O 12 -- O 21             -0.03        2.84268

Writing analysis data to 067.castep_bin

Writing model to 067.check

 A BibTeX formatted list of references used in this run has been written to
 067.bib

Initialisation time =     54.77 s
Calculation time    =  33677.18 s
Finalisation time   =     62.22 s
Total time          =  33794.18 s

Overall parallel efficiency rating: Good (77%)

Data was distributed by:-
G-vector (4-way); efficiency rating: Good (79%)
k-point (14-way); efficiency rating: Excellent (98%)