 Compiled for linux_x86_64_ifort16 on Sat, 23 Jul 2016 23:44:54 +0100
 from code version
 203e84763863+ Castep161_branch Fri, 04 Mar 2016 19:21:07 +0000
 Compiler: Intel Fortran 16.0.3.210; Optimisation: fast
 MATHLIBS: Intel MKL(11.3.3) (LAPACK version 3.6.0)
 FFT Lib : mkl
 Fundamental constants values: CODATA 2010

 Run started: Fri, 27 Apr 2018 21:22:47 +0100
 |           N   N    M   M    RRRR                |
 |           NN  N    MM MM    R   R               |
 |           N N N    M M M    RRRR                |
 |           N  NN    M   M    R  R                |
 |           N   N    M   M    R   R               |
 | Welcome to Materials Studio CASTEP-NMR          |
 | Authors:                                        |
 | J.R. Yates, C.J. Pickard, F. Mauri              |
 | Contributors:                                   |
 | T.F.G. Green, S.A. Joyce                        |
 | Copyright (c) 2004 - 2015                       |
 | Please cite the appropriate publications in all |
 | work arising from your use of CASTEP NMR.       |
 | For NMR Shielding Tensors cite:                 |
 |    "All-electron magnetic response with         |
 |    pseudopotentials: NMR chemical shifts",      |
 |    C. J. Pickard, F. Mauri;                     |
 |    Physical Review B63 245101 (2001), and       |
 |    "Calculation of NMR Chemical Shifts          |
 |    for extended systems using                   |
 |    Ultrasoft Pseudopotentials",                 |
 |    J. R. Yates, C. J. Pickard and F. Mauri      |
 |    Physical Review B76 024401 (2007)            |
 | For Electric Field Gradients cite:              |
 |   "Accurate First Principles Prediction of 17O  |
 |    NMR Parameters in SiO2: Assignment of the    |
 |    Zeolite Ferrierite Spectrum"                 |
 |    M. Profeta, F. Mauri and C. J. Pickard       |
 |    J. Amer. Chem. Soc. 125 541 (2003)           |
 | For Spin-Spin (J) Couplings cite:               |
 |   "A first principles theory of NMR J-coupling  |
 |   in solid-state systems"                       |
 |   S.A. Joyce, J.R. Yates, C.J. Pickard, F. Mauri|
 |   J. Chem. Phys. 127 204107 (2007)              |
 |   "Relativistic NMR J-coupling with ultrasoft   |
 |   pseudopotentials and the zeroth-order regular |
 |   approximation"                                |
 |   T.F.G. Green and J.R. Yates                   |
 |   J. Chem. Phys. 140 234106 (2014)              |

 Atomic calculation performed for O: 1s2 2s2 2p4

 Converged in 44 iterations to an ae energy of -2040.855 eV

 Atomic calculation performed for O: 1s2 2s2 2p4

 Exceeded max iterations: converged to 0.000000062 eV

   | Pseudopotential Report - Date of generation 27-04-2018   |
   | Element: O Ionic charge:  6.00 Level of theory: PBE      |
   | Atomic Solver: ZORA (scalar)                             |
   |               Reference Electronic Structure             |
   |         Orbital         Occupation         Energy        |
   |            2s              2.000           -0.881        |
   |            2p              4.000           -0.332        |
   |                 Pseudopotential Definition               |
   |        Beta     l      e      Rc     scheme   norm       |
   |          1      0   -0.881   1.100     qc      0         |
   |          2      0    0.250   1.100     qc      0         |
   |          3      1   -0.332   1.100     qc      0         |
   |          4      1    0.250   1.100     qc      0         |
   |         loc     2    0.000   1.100     pn      0         |
   | Augmentation charge Rinner = 0.769                       |
   | Partial core correction Rc = 0.769                       |
   | "2|1.1|15|18|20|20:21(qc=7)"                             |
   |      Author: Chris J. Pickard, Cambridge University      |

 Atomic calculation performed for Zr: 1s2 2s2 2p6 3s2 3p6 3d10 4s2 4p6 4d2 5s2

[...]

 Atomic calculation performed for Zr: 1s2 2s2 2p6 3s2 3p6 3d10 4s2 4p6 4d2 5s2

[...]

 Warning: ion_atom_descreen_psp: negative charge density encountered
   | Pseudopotential Report - Date of generation 27-04-2018   |
   | Element: Zr Ionic charge: 12.00 Level of theory: PBE     |
   | Atomic Solver: ZORA (scalar)                             |
   |               Reference Electronic Structure             |
   |         Orbital         Occupation         Energy        |
   |            4s              2.000           -2.003        |
   |            4p              6.000           -1.193        |
   |            5s              2.000           -0.163        |
   |            4d              2.000           -0.132        |
   |                 Pseudopotential Definition               |
   |        Beta     l      e      Rc     scheme   norm       |
   |          1      0   -2.003   2.105     qc      0         |
   |          2      0   -0.163   2.105     qc      0         |
   |          3      0    0.250   2.105     qc      0         |
   |          4      1   -1.193   2.105     qc      0         |
   |          5      1    0.250   2.105     qc      0         |
   |          6      2   -0.132   2.105     qc      0         |
   |          7      2    0.250   2.105     qc      0         |
   |         loc     3    0.000   2.105     pn      0         |
   | Augmentation charge Rinner = 1.471                       |
   | Partial core correction Rc = 1.471                       |
   | "3|2.1|7|8|9|40U:50:41:42"                               |
   |      Author: Chris J. Pickard, Cambridge University      |

 Atomic calculation performed for Sn:

[...]

 Atomic calculation performed for Sn:

[...]

   | Pseudopotential Report - Date of generation 27-04-2018   |
   | Element: Sn Ionic charge: 14.00 Level of theory: PBE     |
   | Atomic Solver: ZORA (scalar)                             |
   |               Reference Electronic Structure             |
   |         Orbital         Occupation         Energy        |
   |            4d             10.000           -0.950        |
   |            5s              2.000           -0.388        |
   |            5p              2.000           -0.136        |
   |                 Pseudopotential Definition               |
   |        Beta     l      e      Rc     scheme   norm       |
   |          1      0   -0.388   2.199     qc      0         |
   |          2      0    0.250   2.199     qc      0         |
   |          3      1   -0.136   2.199     qc      0         |
   |          4      1    0.250   2.199     qc      0         |
   |          5      2   -0.950   2.199     qc      0         |
   |          6      2    0.250   2.199     qc      0         |
   |         loc     3    0.000   2.199     pn      0         |
   | Augmentation charge Rinner = 1.537                       |
   | Partial core correction Rc = 1.537                       |
   | "3|2.2|7|8|9|50:51:42"                                   |
   |      Author: Chris J. Pickard, Cambridge University      |

 Atomic calculation performed for La:

 Converged in 56 iterations to an ae energy of -230121.495 eV

 Atomic calculation performed for La:

 Exceeded max iterations: converged to 0.000000907 eV

 Warning: ion_atom_descreen_psp: negative charge density encountered
   | Pseudopotential Report - Date of generation 27-04-2018   |
   | Element: La Ionic charge: 11.00 Level of theory: PBE     |
   | Atomic Solver: ZORA (scalar)                             |
   |               Reference Electronic Structure             |
   |         Orbital         Occupation         Energy        |
   |            5s              2.000           -1.430        |
   |            5p              6.000           -0.823        |
   |            6s              2.000           -0.135        |
   |            5d              1.000           -0.114        |
   |                 Pseudopotential Definition               |
   |        Beta     l      e      Rc     scheme   norm       |
   |          1      0   -1.430   2.298     qc      0         |
   |          2      0   -0.135   2.298     qc      0         |
   |          3      0    0.250   2.298     qc      0         |
   |          4      1   -0.823   2.298     qc      0         |
   |          5      1    0.250   2.298     qc      0         |
   |          6      2   -0.114   2.298     qc      0         |
   |          7      2    0.250   2.298     qc      0         |
   |         loc     2    0.000   2.298     pn      0         |
   | Augmentation charge Rinner = 1.606                       |
   | Partial core correction Rc = 1.606                       |
   | "2|2.3|5|6|7|50U:60:51:52(qc=4.5)"                       |
   |      Author: Chris J. Pickard, Cambridge University      |

 Pseudo atomic calculation performed for O 2s2 2p4

 Converged in 39 iterations to a total energy of -432.6554 eV

 Pseudo atomic calculation performed for Zr 4s2 4p6 4d2 5s2

[...]

 Calculation parallelised over 56 processes.
 Data is distributed by G-vector(4-way) and k-point(14-way)

 ************************************ Title ************************************
 nmr testing

 ***************************** General Parameters ******************************

 output verbosity                               : normal  (1)
 write checkpoint data to                       : 069.check
 type of calculation                            : Magnetic Resonance
 stress calculation                             : on
 density difference calculation                 : off
 electron localisation func (ELF) calculation   : off
 Hirshfeld analysis                             : off
 unlimited duration calculation
 timing information                             : on
 write final potential to formatted file        : off
 write final density to formatted file          : off
 write structure in CIF formatted file          : on
 write structure in CELL formatted file         : on
 write BibTeX reference list                    : on
 write OTFG pseudopotential files               : on
 checkpoint writing                             : both castep_bin and check files

 output         length unit                     : A
 output           mass unit                     : amu
 output           time unit                     : ps
 output         charge unit                     : e
 output           spin unit                     : hbar/2
 output         energy unit                     : eV
 output          force unit                     : eV/A
 output       velocity unit                     : A/ps
 output       pressure unit                     : GPa
 output     inv_length unit                     : 1/A
 output      frequency unit                     : cm-1
 output force constant unit                     : eV/A**2
 output         volume unit                     : A**3
 output   IR intensity unit                     : (D/A)**2/amu
 output         dipole unit                     : D
 output         efield unit                     : eV/A/e
 output        entropy unit                     : J/mol/K

 wavefunctions paging                           : none
 random number generator seed                   : randomised (212249500)
 data distribution                              : optimal for this architecture
[...]
  |    O          42     -161.81     147.68      0.82   1.050E+00   0.74 |
  |    O          43      -85.18      83.67      0.21  -3.135E+00   0.07 |
  |    O          44      -85.15      93.32      0.34  -3.169E+00   0.08 |
  |    O          45      -87.49      77.88      0.15  -3.267E+00   0.12 |
  |    O          46     -162.07     147.67      0.86   1.055E+00   0.72 |
  |    O          47      -10.28      57.35      0.83   3.866E+00   0.87 |
  |    O          48      -91.06      94.40      0.22  -3.179E+00   0.12 |
  |    O          49      -86.36      88.41      0.12  -3.202E+00   0.07 |
  |    O          50     -161.79     149.39      0.80   1.066E+00   0.78 |
  |    O          51      -89.55      87.79      0.04  -3.212E+00   0.07 |
  |    O          52      -88.26      94.15      0.28  -3.163E+00   0.10 |
  |    O          53     -161.59     152.63      0.86   1.073E+00   0.76 |
  |    O          54     -161.76     146.58      0.81   1.049E+00   0.71 |
  |    O          55     -161.63     146.89      0.81   1.051E+00   0.70 |
  |    O          56     -161.48     153.78      0.86   1.078E+00   0.75 |
  |    Zr          1     1629.10    -123.59      0.10  -3.763E+01   0.11 |
  |    Zr          2     1614.94    -118.53      0.12  -3.660E+01   0.07 |
  |    Zr          3     1621.79    -122.84      0.11  -3.647E+01   0.11 |
  |    Zr          4     1624.32    -125.71      0.21  -3.668E+01   0.09 |
[...]
  |    La          2     4653.14     662.29      0.09  -8.041E+01   0.11 |
  |    La          3     4650.57     655.27      0.09  -8.045E+01   0.12 |
  |    La          4     4705.64     760.58      0.04  -8.463E+01   0.08 |
  |    La          5     4652.04     629.66      0.03  -7.883E+01   0.02 |
  |    La          6     4647.88     658.60      0.01  -8.025E+01   0.01 |
  |    La          7     4707.60     743.04      0.03  -8.523E+01   0.08 |
  |    La          8     4705.64     760.13      0.04  -8.457E+01   0.08 |
  |    La          9     4653.13     660.95      0.08  -8.033E+01   0.11 |
  |    La         10     4651.04     659.95      0.09  -8.067E+01   0.13 |
  |    La         11     4547.84     395.13      0.09  -7.217E+01   0.11 |
  |    La         12     4551.94     377.59      0.07  -7.313E+01   0.09 |
  |    La         13     4613.20     517.79      0.06  -7.845E+01   0.08 |
  |    La         14     4613.01     516.86      0.06  -7.849E+01   0.08 |
  |    La         15     4707.05     782.41      0.10  -8.512E+01   0.11 |
  |    La         16     4706.77     781.34      0.10  -8.505E+01   0.11 |

 *********************** Forces ***********************
 *            Cartesian components (eV/A)             *
 *                   x            y            z      *
 * O         1     -0.00711     -0.00627      0.00683 *
 * O         2      0.00091      0.01000     -0.00278 *
 * O         3      0.00321     -0.00190     -0.01318 *
 * O         4     -0.00472     -0.00213     -0.00071 *
 * O         5      0.00213     -0.00081     -0.00194 *
 * O         6     -0.00162      0.00097      0.00936 *
 * O         7      0.00790      0.00417     -0.00380 *
 * O         8     -0.00596     -0.00738     -0.00488 *
 * O         9      0.00128     -0.01024     -0.00511 *
 * O        10      0.00073     -0.03166      0.03021 *
 * O        11      0.00641      0.01272     -0.02684 *
 * O        12      0.00380     -0.01116      0.00468 *
 * O        13     -0.03017     -0.00922     -0.02074 *
 * O        14     -0.01274     -0.00384      0.01795 *
 * O        15     -0.00783     -0.00482      0.00999 *
 * O        16     -0.00200      0.00487     -0.01086 *
 * O        17     -0.03173     -0.03533      0.00122 *
 * O        18     -0.00728      0.01057     -0.00440 *
 * O        19     -0.02229      0.02444      0.00100 *
 * O        20     -0.02705     -0.02172     -0.00165 *
 * O        21     -0.00819      0.00183      0.01090 *
 * O        22      0.00683     -0.00588      0.01756 *
 * O        23      0.00367     -0.00267      0.00378 *
 * O        24      0.01318     -0.00920     -0.01850 *
 * O        25     -0.00609     -0.00864      0.00289 *
 * O        26     -0.00048      0.02105      0.02192 *
 * O        27     -0.00376     -0.00563      0.00004 *
 * O        28      0.00012      0.00002      0.00515 *
 * O        29      0.01236      0.01271     -0.00097 *
 * O        30      0.02968     -0.01729     -0.00974 *
 * O        31      0.00057     -0.00518      0.00050 *
 * O        32      0.00842      0.00943     -0.00935 *
 * O        33     -0.00459     -0.02089      0.00923 *
 * O        34     -0.00182     -0.00723     -0.00795 *
 * O        35      0.02580      0.00902     -0.01938 *
 * O        36      0.02652      0.00357      0.02536 *
 * O        37      0.02961     -0.01383     -0.00608 *
 * O        38      0.03366      0.02762     -0.00087 *
 * O        39     -0.03001     -0.01105      0.01941 *
 * O        40     -0.03259     -0.00098     -0.01377 *
 * O        41      0.00362     -0.00175     -0.00998 *
 * O        42      0.01257      0.01109     -0.00680 *
 * O        43     -0.00808     -0.01168     -0.00013 *
 * O        44     -0.01061      0.02331     -0.00589 *
 * O        45      0.00248      0.01702      0.01580 *
 * O        46      0.00209      0.00472      0.00353 *
 * O        47     -0.00173      0.00211     -0.00295 *
 * O        48      0.00928      0.00538      0.00260 *
 * O        49      0.02610     -0.00339     -0.01933 *
 * O        50      0.00570     -0.00486      0.00360 *
 * O        51      0.00120      0.03134     -0.02368 *
 * O        52     -0.00108     -0.00635     -0.01504 *
 * O        53      0.00436     -0.00316      0.01331 *
 * O        54     -0.00267     -0.00583     -0.00415 *
 * O        55      0.00030     -0.00050      0.01230 *
 * O        56     -0.00215      0.00419     -0.00552 *
 * Zr        1     -0.01287     -0.01139     -0.00752 *
 * Zr        2     -0.02576     -0.00998     -0.01863 *
 * Zr        3     -0.00358     -0.01245     -0.00144 *
 * Zr        4     -0.00108      0.00549     -0.01991 *
[...]
 * La        2     -0.00553     -0.01438     -0.00133 *
 * La        3     -0.01160      0.00442      0.01516 *
 * La        4      0.02359      0.01377      0.02005 *
 * La        5      0.00707      0.00984      0.01962 *
 * La        6     -0.00092      0.00703      0.00329 *
 * La        7     -0.01308     -0.01955      0.00445 *
 * La        8     -0.00831      0.00331      0.02005 *
 * La        9      0.01082     -0.00423     -0.01431 *
 * La       10      0.01190      0.01372     -0.00193 *
 * La       11     -0.00100      0.01121      0.00707 *
 * La       12     -0.00017     -0.00435     -0.00339 *
 * La       13      0.00984      0.00179     -0.00093 *
 * La       14     -0.00257     -0.00614      0.01212 *
 * La       15      0.01367      0.01378     -0.01233 *
 * La       16     -0.00687     -0.01105     -0.00245 *

 ***************** Stress Tensor *****************
 *          Cartesian components (GPa)           *
 *             x             y             z     *
 *  x     -0.000317      0.001181     -0.001152  *
 *  y      0.001181     -0.000930     -0.011312  *
 *  z     -0.001152     -0.011312     -0.000872  *
 *  Pressure:    0.0007                          *

[...]

 Pseudo atomic calculation performed for Sn 4d10 5s2 5p2

[...]

 Pseudo atomic calculation performed for La 5s2 5p6 5d1 6s2

 Converged in 34 iterations to a total energy of -968.0372 eV

Charge spilling parameter for spin component 1 = 0.24%

     Atomic Populations (Mulliken)
Species   Ion     s      p      d      f     Total  Charge (e)
  O        1     1.87   5.00   0.00   0.00   6.87    -0.87
  O        2     1.87   5.00   0.00   0.00   6.87    -0.87
  O        3     1.87   5.00   0.00   0.00   6.87    -0.87
  O        4     1.87   5.00   0.00   0.00   6.87    -0.87
  O        5     1.87   5.00   0.00   0.00   6.87    -0.87
  O        6     1.87   5.00   0.00   0.00   6.87    -0.87
  O        7     1.87   5.00   0.00   0.00   6.87    -0.87
  O        8     1.87   5.00   0.00   0.00   6.87    -0.87
  O        9     1.88   5.02   0.00   0.00   6.91    -0.91
  O       10     1.87   4.99   0.00   0.00   6.86    -0.86
  O       11     1.87   4.99   0.00   0.00   6.86    -0.86
  O       12     1.87   4.99   0.00   0.00   6.85    -0.85
  O       13     1.87   4.99   0.00   0.00   6.85    -0.85
  O       14     1.87   4.99   0.00   0.00   6.86    -0.86
  O       15     1.88   5.02   0.00   0.00   6.91    -0.91
  O       16     1.88   5.02   0.00   0.00   6.91    -0.91
  O       17     1.87   4.99   0.00   0.00   6.86    -0.86
  O       18     1.86   4.95   0.00   0.00   6.80    -0.80
  O       19     1.87   4.99   0.00   0.00   6.86    -0.86
  O       20     1.87   4.99   0.00   0.00   6.86    -0.86
  O       21     1.87   4.99   0.00   0.00   6.86    -0.86
  O       22     1.87   4.99   0.00   0.00   6.86    -0.86
  O       23     1.88   5.02   0.00   0.00   6.91    -0.91
  O       24     1.87   4.99   0.00   0.00   6.85    -0.85
  O       25     1.86   4.95   0.00   0.00   6.80    -0.80
  O       26     1.87   4.99   0.00   0.00   6.86    -0.86
  O       27     1.88   5.02   0.00   0.00   6.91    -0.91
  O       28     1.86   4.95   0.00   0.00   6.80    -0.80
  O       29     1.87   4.99   0.00   0.00   6.86    -0.86
  O       30     1.87   4.99   0.00   0.00   6.86    -0.86
  O       31     1.88   5.02   0.00   0.00   6.91    -0.91
  O       32     1.88   5.02   0.00   0.00   6.91    -0.91
  O       33     1.87   4.99   0.00   0.00   6.86    -0.86
  O       34     1.88   5.02   0.00   0.00   6.91    -0.91
  O       35     1.87   4.99   0.00   0.00   6.86    -0.86
  O       36     1.87   4.99   0.00   0.00   6.86    -0.86
  O       37     1.87   4.99   0.00   0.00   6.86    -0.86
  O       38     1.87   4.99   0.00   0.00   6.86    -0.86
  O       39     1.87   4.99   0.00   0.00   6.86    -0.86
  O       40     1.87   4.99   0.00   0.00   6.86    -0.86
  O       41     1.88   5.02   0.00   0.00   6.91    -0.91
  O       42     1.86   4.95   0.00   0.00   6.80    -0.80
  O       43     1.87   4.99   0.00   0.00   6.85    -0.85
  O       44     1.87   4.99   0.00   0.00   6.86    -0.86
  O       45     1.87   4.99   0.00   0.00   6.86    -0.86
  O       46     1.86   4.95   0.00   0.00   6.80    -0.80
  O       47     1.88   5.02   0.00   0.00   6.91    -0.91
  O       48     1.87   4.99   0.00   0.00   6.86    -0.86
  O       49     1.87   4.99   0.00   0.00   6.86    -0.86
  O       50     1.86   4.95   0.00   0.00   6.80    -0.80
  O       51     1.87   4.99   0.00   0.00   6.86    -0.86
  O       52     1.87   4.99   0.00   0.00   6.85    -0.85
  O       53     1.86   4.95   0.00   0.00   6.80    -0.80
  O       54     1.86   4.95   0.00   0.00   6.80    -0.80
  O       55     1.86   4.95   0.00   0.00   6.80    -0.80
  O       56     1.86   4.95   0.00   0.00   6.80    -0.80
  Zr       1     2.37   6.48   1.92   0.00  10.78     1.22
  Zr       2     2.37   6.49   1.92   0.00  10.78     1.22
  Zr       3     2.37   6.49   1.92   0.00  10.78     1.22
  Zr       4     2.37   6.49   1.92   0.00  10.78     1.22
[...]
  La       2     2.08   6.17   1.19   0.00   9.44     1.56
  La       3     2.08   6.17   1.19   0.00   9.44     1.56
  La       4     2.02   6.16   1.19   0.00   9.38     1.62
  La       5     2.08   6.17   1.19   0.00   9.45     1.55
  La       6     2.05   6.17   1.19   0.00   9.41     1.59
  La       7     2.04   6.17   1.19   0.00   9.41     1.59
  La       8     2.02   6.16   1.19   0.00   9.38     1.62
  La       9     2.08   6.17   1.19   0.00   9.44     1.56
  La      10     2.07   6.17   1.19   0.00   9.44     1.56
  La      11     2.11   6.20   1.19   0.00   9.50     1.50
  La      12     2.12   6.20   1.19   0.00   9.51     1.49
  La      13     2.07   6.19   1.19   0.00   9.45     1.55
  La      14     2.07   6.19   1.19   0.00   9.45     1.55
  La      15     2.03   6.16   1.20   0.00   9.38     1.62
  La      16     2.03   6.16   1.20   0.00   9.38     1.62

            Bond              Population      Length (A)
         O 39 -- Sn 1              0.35        2.10105
         O 38 -- Sn 3              0.35        2.10110
         O 22 -- Sn 5              0.35        2.10143
         O 44 -- Sn 6              0.35        2.10147
         O 45 -- Sn 7              0.35        2.10226
         O 26 -- Sn 8              0.34        2.10232
         O 14 -- Sn 6              0.34        2.10296
         O 29 -- Sn 5              0.34        2.10313
         O 30 -- Sn 6              0.35        2.10437
         O 13 -- Sn 5              0.35        2.10448
         O 48 -- Sn 4              0.34        2.10510
         O 21 -- Sn 4              0.34        2.10523
         O 35 -- Sn 7              0.34        2.10541
         O 17 -- Sn 8              0.34        2.10544
         O 11 -- Sn 4              0.35        2.10547
         O 33 -- Sn 4              0.35        2.10547
         O 51 -- Sn 2              0.35        2.10605
         O 10 -- Sn 2              0.35        2.10616
         O 41 -- Sn 8              0.34        2.10661
         O 27 -- Sn 7              0.34        2.10672
         O 20 -- Sn 3              0.35        2.10843
         O 49 -- Sn 1              0.35        2.10859
         O 52 -- Sn 6              0.34        2.10863
         O 12 -- Sn 5              0.34        2.10875
         O 27 -- Sn 3              0.33        2.11017
         O 43 -- Sn 5              0.34        2.11023
         O 41 -- Sn 1              0.33        2.11026
         O 24 -- Sn 6              0.34        2.11029
         O 36 -- Sn 8              0.34        2.11055
         O 19 -- Sn 7              0.34        2.11056
         O 17 -- Zr 6              0.44        2.11060
         O 40 -- Sn 3              0.34        2.11106
         O 37 -- Sn 1              0.34        2.11111
         O 9  -- Sn 6              0.33        2.11189
         O 34 -- Sn 5              0.33        2.11195
         O 56 -- Zr 7              0.42        2.11245
         O 34 -- Sn 1              0.33        2.11290
         O 9  -- Sn 3              0.33        2.11303
         O 53 -- Zr 3              0.42        2.11330
         O 18 -- Zr 5              0.42        2.11339
         O 23 -- Sn 2              0.33        2.11375
         O 47 -- Sn 2              0.33        2.11381
         O 23 -- Sn 3              0.34        2.11383
         O 47 -- Sn 1              0.34        2.11388
         O 16 -- Sn 2              0.33        2.11391
         O 16 -- Sn 8              0.34        2.11394
         O 31 -- Sn 2              0.33        2.11395
         O 31 -- Sn 7              0.34        2.11409
         O 35 -- Zr 2              0.44        2.11483
         O 50 -- Zr 1              0.42        2.11527
         O 21 -- Zr 5              0.44        2.11532
         O 38 -- Zr 2              0.44        2.11605
         O 56 -- Zr 1              0.41        2.11630
         O 13 -- Zr 8              0.45        2.11673
         O 15 -- Sn 4              0.33        2.11705
         O 46 -- Zr 3              0.42        2.11708
         O 32 -- Sn 4              0.33        2.11709
         O 14 -- Zr 4              0.45        2.11725
         O 44 -- Zr 3              0.44        2.11734
         O 30 -- Zr 8              0.45        2.11747
[...]
         O 12 -- O 21             -0.03        2.82501
         O 48 -- O 52             -0.03        2.82513
         O 36 -- O 46             -0.03        2.82549
         O 19 -- O 28             -0.03        2.82556
         O 13 -- O 25             -0.03        2.82903
         O 30 -- O 42             -0.03        2.82911
         O 10 -- O 54             -0.03        2.82982
         O 51 -- O 55             -0.03        2.82994
         O 20 -- O 49             -0.03        2.83058
         O 20 -- O 28             -0.03        2.83061
         O 46 -- O 49             -0.03        2.83066
         O 43 -- O 51             -0.03        2.83344
         O 10 -- O 24             -0.03        2.83356
         O 33 -- O 40             -0.03        2.83641
         O 11 -- O 37             -0.03        2.83649

Writing analysis data to 069.castep_bin

Writing model to 069.check

 A BibTeX formatted list of references used in this run has been written to
 069.bib

Initialisation time =     54.16 s
Calculation time    =  33711.84 s
Finalisation time   =     69.79 s
Total time          =  33835.79 s

Overall parallel efficiency rating: Good (79%)

Data was distributed by:-
G-vector (4-way); efficiency rating: Very good (80%)
k-point (14-way); efficiency rating: Excellent (99%)