 Compiled for linux_x86_64_ifort16 on Sat, 23 Jul 2016 23:44:54 +0100
 from code version
 203e84763863+ Castep161_branch Fri, 04 Mar 2016 19:21:07 +0000
 Compiler: Intel Fortran 16.0.3.210; Optimisation: fast
 MATHLIBS: Intel MKL(11.3.3) (LAPACK version 3.6.0)
 FFT Lib : mkl
 Fundamental constants values: CODATA 2010

 Run started: Sat, 28 Apr 2018 16:12:19 +0100
 |           N   N    M   M    RRRR                |
 |           NN  N    MM MM    R   R               |
 |           N N N    M M M    RRRR                |
 |           N  NN    M   M    R  R                |
 |           N   N    M   M    R   R               |
 | Welcome to Materials Studio CASTEP-NMR          |
 | Authors:                                        |
 | J.R. Yates, C.J. Pickard, F. Mauri              |
 | Contributors:                                   |
 | T.F.G. Green, S.A. Joyce                        |
 | Copyright (c) 2004 - 2015                       |
 | Please cite the appropriate publications in all |
 | work arising from your use of CASTEP NMR.       |
 | For NMR Shielding Tensors cite:                 |
 |    "All-electron magnetic response with         |
 |    pseudopotentials: NMR chemical shifts",      |
 |    C. J. Pickard, F. Mauri;                     |
 |    Physical Review B63 245101 (2001), and       |
 |    "Calculation of NMR Chemical Shifts          |
 |    for extended systems using                   |
 |    Ultrasoft Pseudopotentials",                 |
 |    J. R. Yates, C. J. Pickard and F. Mauri      |
 |    Physical Review B76 024401 (2007)            |
 | For Electric Field Gradients cite:              |
 |   "Accurate First Principles Prediction of 17O  |
 |    NMR Parameters in SiO2: Assignment of the    |
 |    Zeolite Ferrierite Spectrum"                 |
 |    M. Profeta, F. Mauri and C. J. Pickard       |
 |    J. Amer. Chem. Soc. 125 541 (2003)           |
 | For Spin-Spin (J) Couplings cite:               |
 |   "A first principles theory of NMR J-coupling  |
 |   in solid-state systems"                       |
 |   S.A. Joyce, J.R. Yates, C.J. Pickard, F. Mauri|
 |   J. Chem. Phys. 127 204107 (2007)              |
 |   "Relativistic NMR J-coupling with ultrasoft   |
 |   pseudopotentials and the zeroth-order regular |
 |   approximation"                                |
 |   T.F.G. Green and J.R. Yates                   |
 |   J. Chem. Phys. 140 234106 (2014)              |

 Atomic calculation performed for O: 1s2 2s2 2p4

 Converged in 44 iterations to an ae energy of -2040.855 eV

 Atomic calculation performed for O: 1s2 2s2 2p4

 Exceeded max iterations: converged to 0.000000062 eV

   | Pseudopotential Report - Date of generation 28-04-2018   |
   | Element: O Ionic charge:  6.00 Level of theory: PBE      |
   | Atomic Solver: ZORA (scalar)                             |
   |               Reference Electronic Structure             |
   |         Orbital         Occupation         Energy        |
   |            2s              2.000           -0.881        |
   |            2p              4.000           -0.332        |
   |                 Pseudopotential Definition               |
   |        Beta     l      e      Rc     scheme   norm       |
   |          1      0   -0.881   1.100     qc      0         |
   |          2      0    0.250   1.100     qc      0         |
   |          3      1   -0.332   1.100     qc      0         |
   |          4      1    0.250   1.100     qc      0         |
   |         loc     2    0.000   1.100     pn      0         |
   | Augmentation charge Rinner = 0.769                       |
   | Partial core correction Rc = 0.769                       |
   | "2|1.1|15|18|20|20:21(qc=7)"                             |
   |      Author: Chris J. Pickard, Cambridge University      |

 Atomic calculation performed for Zr: 1s2 2s2 2p6 3s2 3p6 3d10 4s2 4p6 4d2 5s2

[...]

 Atomic calculation performed for Zr: 1s2 2s2 2p6 3s2 3p6 3d10 4s2 4p6 4d2 5s2

[...]

 Warning: ion_atom_descreen_psp: negative charge density encountered
   | Pseudopotential Report - Date of generation 28-04-2018   |
   | Element: Zr Ionic charge: 12.00 Level of theory: PBE     |
   | Atomic Solver: ZORA (scalar)                             |
   |               Reference Electronic Structure             |
   |         Orbital         Occupation         Energy        |
   |            4s              2.000           -2.003        |
   |            4p              6.000           -1.193        |
   |            5s              2.000           -0.163        |
   |            4d              2.000           -0.132        |
   |                 Pseudopotential Definition               |
   |        Beta     l      e      Rc     scheme   norm       |
   |          1      0   -2.003   2.105     qc      0         |
   |          2      0   -0.163   2.105     qc      0         |
   |          3      0    0.250   2.105     qc      0         |
   |          4      1   -1.193   2.105     qc      0         |
   |          5      1    0.250   2.105     qc      0         |
   |          6      2   -0.132   2.105     qc      0         |
   |          7      2    0.250   2.105     qc      0         |
   |         loc     3    0.000   2.105     pn      0         |
   | Augmentation charge Rinner = 1.471                       |
   | Partial core correction Rc = 1.471                       |
   | "3|2.1|7|8|9|40U:50:41:42"                               |
   |      Author: Chris J. Pickard, Cambridge University      |

 Atomic calculation performed for Sn:

[...]

 Atomic calculation performed for Sn:

[...]

   | Pseudopotential Report - Date of generation 28-04-2018   |
   | Element: Sn Ionic charge: 14.00 Level of theory: PBE     |
   | Atomic Solver: ZORA (scalar)                             |
   |               Reference Electronic Structure             |
   |         Orbital         Occupation         Energy        |
   |            4d             10.000           -0.950        |
   |            5s              2.000           -0.388        |
   |            5p              2.000           -0.136        |
   |                 Pseudopotential Definition               |
   |        Beta     l      e      Rc     scheme   norm       |
   |          1      0   -0.388   2.199     qc      0         |
   |          2      0    0.250   2.199     qc      0         |
   |          3      1   -0.136   2.199     qc      0         |
   |          4      1    0.250   2.199     qc      0         |
   |          5      2   -0.950   2.199     qc      0         |
   |          6      2    0.250   2.199     qc      0         |
   |         loc     3    0.000   2.199     pn      0         |
   | Augmentation charge Rinner = 1.537                       |
   | Partial core correction Rc = 1.537                       |
   | "3|2.2|7|8|9|50:51:42"                                   |
   |      Author: Chris J. Pickard, Cambridge University      |

 Atomic calculation performed for La:

 Converged in 56 iterations to an ae energy of -230121.495 eV

 Atomic calculation performed for La:

 Exceeded max iterations: converged to 0.000000907 eV

 Warning: ion_atom_descreen_psp: negative charge density encountered
   | Pseudopotential Report - Date of generation 28-04-2018   |
   | Element: La Ionic charge: 11.00 Level of theory: PBE     |
   | Atomic Solver: ZORA (scalar)                             |
   |               Reference Electronic Structure             |
   |         Orbital         Occupation         Energy        |
   |            5s              2.000           -1.430        |
   |            5p              6.000           -0.823        |
   |            6s              2.000           -0.135        |
   |            5d              1.000           -0.114        |
   |                 Pseudopotential Definition               |
   |        Beta     l      e      Rc     scheme   norm       |
   |          1      0   -1.430   2.298     qc      0         |
   |          2      0   -0.135   2.298     qc      0         |
   |          3      0    0.250   2.298     qc      0         |
   |          4      1   -0.823   2.298     qc      0         |
   |          5      1    0.250   2.298     qc      0         |
   |          6      2   -0.114   2.298     qc      0         |
   |          7      2    0.250   2.298     qc      0         |
   |         loc     2    0.000   2.298     pn      0         |
   | Augmentation charge Rinner = 1.606                       |
   | Partial core correction Rc = 1.606                       |
   | "2|2.3|5|6|7|50U:60:51:52(qc=4.5)"                       |
   |      Author: Chris J. Pickard, Cambridge University      |

 Pseudo atomic calculation performed for O 2s2 2p4

 Converged in 39 iterations to a total energy of -432.6554 eV

 Pseudo atomic calculation performed for Zr 4s2 4p6 4d2 5s2

[...]

 Calculation parallelised over 56 processes.
 Data is distributed by G-vector(4-way) and k-point(14-way)

 ************************************ Title ************************************
 nmr testing

 ***************************** General Parameters ******************************

 output verbosity                               : normal  (1)
 write checkpoint data to                       : 071.check
 type of calculation                            : Magnetic Resonance
 stress calculation                             : on
 density difference calculation                 : off
 electron localisation func (ELF) calculation   : off
 Hirshfeld analysis                             : off
 unlimited duration calculation
 timing information                             : on
 write final potential to formatted file        : off
 write final density to formatted file          : off
 write structure in CIF formatted file          : on
 write structure in CELL formatted file         : on
 write BibTeX reference list                    : on
 write OTFG pseudopotential files               : on
 checkpoint writing                             : both castep_bin and check files

 output         length unit                     : A
 output           mass unit                     : amu
 output           time unit                     : ps
 output         charge unit                     : e
 output           spin unit                     : hbar/2
 output         energy unit                     : eV
 output          force unit                     : eV/A
 output       velocity unit                     : A/ps
 output       pressure unit                     : GPa
 output     inv_length unit                     : 1/A
 output      frequency unit                     : cm-1
 output force constant unit                     : eV/A**2
 output         volume unit                     : A**3
 output   IR intensity unit                     : (D/A)**2/amu
 output         dipole unit                     : D
 output         efield unit                     : eV/A/e
 output        entropy unit                     : J/mol/K

 wavefunctions paging                           : none
 random number generator seed                   : randomised (161221858)
 data distribution                              : optimal for this architecture
[...]
  |    O          41      -87.38      79.67      0.04  -3.230E+00   0.11 |
  |    O          42      -88.16      86.27      0.28  -3.164E+00   0.07 |
  |    O          43      -89.68      86.93      0.12  -3.163E+00   0.05 |
  |    O          44      -90.20      94.04      0.16  -3.238E+00   0.12 |
  |    O          45      -88.05      86.35      0.10  -3.193E+00   0.08 |
  |    O          46     -165.71     155.94      0.83   1.048E+00   0.80 |
  |    O          47       -4.29      67.50      0.85   3.851E+00   0.91 |
  |    O          48     -164.41     150.26      0.87   1.073E+00   0.78 |
  |    O          49      -89.86      86.70      0.20  -3.206E+00   0.09 |
  |    O          50      -90.38      93.61      0.26  -3.189E+00   0.10 |
  |    O          51      -89.86      86.70      0.20  -3.206E+00   0.09 |
  |    O          52      -90.38      93.60      0.26  -3.189E+00   0.10 |
  |    O          53     -161.21     152.33      0.75   1.056E+00   0.76 |
  |    O          54     -160.04     139.62      0.87   1.086E+00   0.64 |
  |    O          55     -165.71     155.94      0.84   1.048E+00   0.80 |
  |    O          56      -88.05      86.34      0.10  -3.193E+00   0.08 |
  |    Zr          1     1622.23    -127.85      0.22  -3.660E+01   0.09 |
  |    Zr          2     1608.79    -118.27      0.09  -3.561E+01   0.11 |
  |    Zr          3     1623.06    -120.36      0.20  -3.875E+01   0.04 |
  |    Zr          4     1608.79    -118.27      0.09  -3.561E+01   0.11 |
[...]
  |    La          2     4647.30     661.90      0.10  -7.870E+01   0.13 |
  |    La          3     4664.92     648.73      0.08  -8.305E+01   0.12 |
  |    La          4     4706.48     766.09      0.05  -8.527E+01   0.06 |
  |    La          5     4647.30     661.90      0.10  -7.870E+01   0.13 |
  |    La          6     4706.48     766.09      0.05  -8.527E+01   0.06 |
  |    La          7     4664.92     648.73      0.08  -8.305E+01   0.12 |
  |    La          8     4654.32     657.97      0.11  -8.047E+01   0.14 |
  |    La          9     4596.69     517.51      0.06  -7.476E+01   0.06 |
  |    La         10     4704.84     749.12      0.02  -8.392E+01   0.05 |
  |    La         11     4491.65     223.94      0.03  -6.697E+01   0.00 |
  |    La         12     4660.68     652.73      0.09  -8.180E+01   0.14 |
  |    La         13     4654.32     657.97      0.11  -8.047E+01   0.14 |
  |    La         14     4660.67     652.73      0.09  -8.180E+01   0.14 |
  |    La         15     4704.84     749.12      0.02  -8.392E+01   0.05 |
  |    La         16     4611.31     537.10      0.06  -7.805E+01   0.16 |

 *********************** Forces ***********************
 *            Cartesian components (eV/A)             *
 *                   x            y            z      *
 * O         1     -0.00229     -0.00229      0.00425 *
 * O         2      0.00194      0.00484     -0.00440 *
 * O         3      0.00484      0.00194     -0.00440 *
 * O         4      0.00513      0.00513      0.00703 *
 * O         5     -0.00072      0.00093      0.00119 *
 * O         6      0.00082      0.00082      0.01295 *
 * O         7      0.00112      0.00112      0.00205 *
 * O         8      0.00093     -0.00072      0.00119 *
 * O         9      0.01312     -0.00375      0.00318 *
 * O        10      0.00135     -0.02429      0.02061 *
 * O        11     -0.00668     -0.03260      0.03054 *
 * O        12      0.00548     -0.02989     -0.01875 *
 * O        13     -0.00375      0.01312      0.00318 *
 * O        14     -0.00770     -0.00276      0.02770 *
 * O        15     -0.03260     -0.00668      0.03054 *
 * O        16      0.02269      0.01103      0.01950 *
 * O        17      0.00262      0.00262      0.01377 *
 * O        18      0.01501     -0.01653     -0.01976 *
 * O        19      0.00762      0.00762     -0.00815 *
 * O        20     -0.01803     -0.01677      0.00657 *
 * O        21      0.00337     -0.00165     -0.01433 *
 * O        22     -0.00403     -0.00721      0.00445 *
 * O        23     -0.00199     -0.01414     -0.00100 *
 * O        24      0.02424      0.00455     -0.01824 *
 * O        25      0.00455      0.02424     -0.01824 *
 * O        26     -0.01323     -0.01384     -0.01764 *
 * O        27     -0.00721     -0.00403      0.00445 *
 * O        28      0.01332      0.02008     -0.02366 *
 * O        29      0.01834      0.03202     -0.00418 *
 * O        30     -0.00021     -0.00021      0.01600 *
 * O        31      0.00466     -0.00014      0.00787 *
 * O        32     -0.00558     -0.00558     -0.00763 *
 * O        33     -0.00165      0.00337     -0.01433 *
 * O        34     -0.01414     -0.00199     -0.00100 *
 * O        35      0.02008      0.01332     -0.02366 *
 * O        36     -0.01383     -0.01323     -0.01764 *
 * O        37     -0.00014      0.00467      0.00787 *
 * O        38      0.03202      0.01834     -0.00418 *
 * O        39     -0.02429      0.00135      0.02061 *
 * O        40     -0.02989      0.00548     -0.01876 *
 * O        41      0.01103      0.02269      0.01950 *
 * O        42     -0.00276     -0.00770      0.02770 *
 * O        43     -0.01677     -0.01803      0.00657 *
 * O        44     -0.01653      0.01501     -0.01976 *
 * O        45      0.01356      0.01952      0.01117 *
 * O        46     -0.01902      0.00128     -0.00243 *
 * O        47      0.00084      0.00084     -0.00519 *
 * O        48     -0.01823     -0.01823      0.01145 *
 * O        49      0.02291      0.01271     -0.01772 *
 * O        50     -0.00792     -0.00991     -0.00884 *
 * O        51      0.01271      0.02291     -0.01772 *
 * O        52     -0.00991     -0.00792     -0.00884 *
 * O        53     -0.00016     -0.00016      0.01312 *
 * O        54      0.00647      0.00647     -0.01566 *
 * O        55      0.00128     -0.01902     -0.00243 *
 * O        56      0.01952      0.01356      0.01117 *
 * Zr        1     -0.02720     -0.02720      0.01762 *
 * Zr        2     -0.00124     -0.00216     -0.01300 *
 * Zr        3      0.00347     -0.00903      0.01108 *
 * Zr        4     -0.00217     -0.00124     -0.01300 *
[...]
 * La        2      0.01133     -0.00163      0.00704 *
 * La        3      0.00476      0.00012      0.01299 *
 * La        4     -0.01541     -0.00188     -0.00866 *
 * La        5     -0.00163      0.01133      0.00704 *
 * La        6     -0.00189     -0.01541     -0.00866 *
 * La        7      0.00012      0.00476      0.01299 *
 * La        8      0.00007     -0.00300      0.01113 *
 * La        9     -0.00307     -0.00307     -0.01727 *
 * La       10      0.00326      0.01565      0.00362 *
 * La       11      0.00299      0.00298      0.00027 *
 * La       12      0.00941     -0.00929     -0.01062 *
 * La       13     -0.00300      0.00007      0.01113 *
 * La       14     -0.00929      0.00941     -0.01062 *
 * La       15      0.01565      0.00325      0.00362 *
 * La       16     -0.00192     -0.00192     -0.00677 *

 ***************** Stress Tensor *****************
 *          Cartesian components (GPa)           *
 *             x             y             z     *
 *  x      0.053245      0.023669     -0.015234  *
 *  y      0.023669      0.053245     -0.015234  *
 *  z     -0.015234     -0.015234      0.043196  *
 *  Pressure:   -0.0499                          *

[...]

 Pseudo atomic calculation performed for Sn 4d10 5s2 5p2

[...]

 Pseudo atomic calculation performed for La 5s2 5p6 5d1 6s2

 Converged in 34 iterations to a total energy of -968.0372 eV

Charge spilling parameter for spin component 1 = 0.24%

     Atomic Populations (Mulliken)
Species   Ion     s      p      d      f     Total  Charge (e)
  O        1     1.87   5.00   0.00   0.00   6.87    -0.87
  O        2     1.87   5.00   0.00   0.00   6.87    -0.87
  O        3     1.87   5.00   0.00   0.00   6.87    -0.87
  O        4     1.87   5.00   0.00   0.00   6.87    -0.87
  O        5     1.87   5.00   0.00   0.00   6.87    -0.87
  O        6     1.87   5.00   0.00   0.00   6.87    -0.87
  O        7     1.87   5.00   0.00   0.00   6.87    -0.87
  O        8     1.87   5.00   0.00   0.00   6.87    -0.87
  O        9     1.88   5.02   0.00   0.00   6.91    -0.91
  O       10     1.87   4.99   0.00   0.00   6.86    -0.86
  O       11     1.87   4.99   0.00   0.00   6.86    -0.86
  O       12     1.87   4.99   0.00   0.00   6.86    -0.86
  O       13     1.88   5.02   0.00   0.00   6.91    -0.91
  O       14     1.87   4.99   0.00   0.00   6.86    -0.86
  O       15     1.87   4.99   0.00   0.00   6.86    -0.86
  O       16     1.87   4.99   0.00   0.00   6.86    -0.86
  O       17     1.86   4.95   0.00   0.00   6.80    -0.80
  O       18     1.87   4.99   0.00   0.00   6.86    -0.86
  O       19     1.88   5.02   0.00   0.00   6.91    -0.91
  O       20     1.87   4.99   0.00   0.00   6.86    -0.86
  O       21     1.86   4.95   0.00   0.00   6.80    -0.80
  O       22     1.88   5.02   0.00   0.00   6.91    -0.91
  O       23     1.88   5.02   0.00   0.00   6.91    -0.91
  O       24     1.87   4.99   0.00   0.00   6.86    -0.86
  O       25     1.87   4.99   0.00   0.00   6.86    -0.86
  O       26     1.86   4.95   0.00   0.00   6.80    -0.80
  O       27     1.88   5.02   0.00   0.00   6.91    -0.91
  O       28     1.87   4.99   0.00   0.00   6.86    -0.86
  O       29     1.87   4.99   0.00   0.00   6.86    -0.86
  O       30     1.88   5.02   0.00   0.00   6.91    -0.91
  O       31     1.88   5.02   0.00   0.00   6.91    -0.91
  O       32     1.86   4.95   0.00   0.00   6.80    -0.80
  O       33     1.86   4.95   0.00   0.00   6.80    -0.80
  O       34     1.88   5.02   0.00   0.00   6.91    -0.91
  O       35     1.87   4.99   0.00   0.00   6.86    -0.86
  O       36     1.86   4.95   0.00   0.00   6.80    -0.80
  O       37     1.88   5.02   0.00   0.00   6.91    -0.91
  O       38     1.87   4.99   0.00   0.00   6.86    -0.86
  O       39     1.87   4.99   0.00   0.00   6.86    -0.86
  O       40     1.87   4.99   0.00   0.00   6.86    -0.86
  O       41     1.87   4.99   0.00   0.00   6.86    -0.86
  O       42     1.87   4.99   0.00   0.00   6.86    -0.86
  O       43     1.87   4.99   0.00   0.00   6.86    -0.86
  O       44     1.87   4.99   0.00   0.00   6.86    -0.86
  O       45     1.87   4.99   0.00   0.00   6.86    -0.86
  O       46     1.86   4.95   0.00   0.00   6.80    -0.80
  O       47     1.88   5.02   0.00   0.00   6.91    -0.91
  O       48     1.86   4.95   0.00   0.00   6.80    -0.80
  O       49     1.87   4.99   0.00   0.00   6.86    -0.86
  O       50     1.87   4.99   0.00   0.00   6.86    -0.86
  O       51     1.87   4.99   0.00   0.00   6.86    -0.86
  O       52     1.87   4.99   0.00   0.00   6.86    -0.86
  O       53     1.86   4.95   0.00   0.00   6.80    -0.80
  O       54     1.86   4.95   0.00   0.00   6.80    -0.80
  O       55     1.86   4.95   0.00   0.00   6.80    -0.80
  O       56     1.87   4.99   0.00   0.00   6.86    -0.86
  Zr       1     2.37   6.49   1.92   0.00  10.78     1.22
  Zr       2     2.37   6.50   1.92   0.00  10.79     1.21
  Zr       3     2.37   6.47   1.92   0.00  10.77     1.23
  Zr       4     2.37   6.50   1.92   0.00  10.79     1.21
[...]
  La       2     2.09   6.16   1.19   0.00   9.45     1.55
  La       3     2.06   6.18   1.19   0.00   9.44     1.56
  La       4     2.02   6.16   1.19   0.00   9.38     1.62
  La       5     2.09   6.16   1.19   0.00   9.45     1.55
  La       6     2.02   6.16   1.19   0.00   9.38     1.62
  La       7     2.06   6.18   1.19   0.00   9.44     1.56
  La       8     2.05   6.17   1.19   0.00   9.42     1.58
  La       9     2.11   6.18   1.19   0.00   9.49     1.51
  La      10     2.03   6.16   1.19   0.00   9.39     1.61
  La      11     2.15   6.21   1.19   0.00   9.56     1.44
  La      12     2.05   6.17   1.19   0.00   9.42     1.58
  La      13     2.05   6.17   1.19   0.00   9.42     1.58
  La      14     2.05   6.17   1.19   0.00   9.42     1.58
  La      15     2.03   6.16   1.19   0.00   9.39     1.61
  La      16     2.09   6.19   1.19   0.00   9.47     1.53

            Bond              Population      Length (A)
         O 44 -- Sn 7              0.34        2.09991
         O 18 -- Sn 5              0.34        2.09991
         O 12 -- Sn 6              0.34        2.10213
         O 40 -- Sn 3              0.34        2.10213
         O 41 -- Sn 1              0.34        2.10303
         O 16 -- Sn 2              0.34        2.10303
         O 35 -- Sn 8              0.35        2.10590
         O 28 -- Sn 4              0.35        2.10590
         O 15 -- Sn 8              0.35        2.10615
         O 11 -- Sn 4              0.35        2.10615
         O 29 -- Sn 6              0.35        2.10672
         O 38 -- Sn 3              0.35        2.10672
         O 49 -- Sn 1              0.35        2.10718
         O 51 -- Sn 2              0.35        2.10718
         O 24 -- Sn 7              0.35        2.10745
         O 25 -- Sn 5              0.35        2.10745
         O 52 -- Sn 7              0.34        2.10833
         O 50 -- Sn 5              0.34        2.10833
         O 56 -- Sn 4              0.34        2.10848
         O 45 -- Sn 8              0.34        2.10848
         O 23 -- Sn 3              0.34        2.10864
         O 34 -- Sn 6              0.34        2.10864
         O 48 -- Zr 7              0.41        2.10897
         O 22 -- Sn 4              0.34        2.10910
         O 27 -- Sn 8              0.34        2.10910
         O 42 -- Sn 5              0.34        2.10932
         O 14 -- Sn 7              0.34        2.10932
         O 31 -- Sn 2              0.33        2.11011
         O 37 -- Sn 1              0.33        2.11011
         O 23 -- Sn 2              0.34        2.11036
         O 34 -- Sn 1              0.34        2.11036
         O 39 -- Sn 1              0.35        2.11059
         O 10 -- Sn 2              0.35        2.11059
         O 37 -- Sn 4              0.33        2.11098
         O 31 -- Sn 8              0.33        2.11098
         O 30 -- Sn 7              0.34        2.11137
         O 30 -- Sn 5              0.34        2.11137
         O 17 -- Zr 6              0.41        2.11157
         O 27 -- Sn 3              0.33        2.11219
         O 22 -- Sn 6              0.33        2.11219
         O 55 -- Zr 2              0.42        2.11264
         O 46 -- Zr 4              0.42        2.11264
         O 18 -- Zr 5              0.45        2.11293
         O 44 -- Zr 3              0.45        2.11293
         O 12 -- Zr 5              0.45        2.11304
         O 40 -- Zr 3              0.45        2.11304
         O 43 -- Sn 6              0.35        2.11310
         O 20 -- Sn 3              0.35        2.11310
         O 13 -- Sn 5              0.33        2.11605
         O 9  -- Sn 7              0.33        2.11605
         O 17 -- Zr 8              0.41        2.11660
         O 48 -- Zr 1              0.40        2.11665
         O 46 -- Zr 3              0.41        2.11749
         O 55 -- Zr 5              0.41        2.11749
         O 9  -- Sn 3              0.33        2.11799
         O 13 -- Sn 6              0.33        2.11799
         O 36 -- Zr 8              0.44        2.11821
         O 26 -- Zr 8              0.44        2.11821
         O 11 -- Zr 7              0.45        2.11876
         O 15 -- Zr 7              0.45        2.11876
[...]
         O 39 -- O 54             -0.03        2.82766
         O 10 -- O 24             -0.03        2.82882
         O 25 -- O 39             -0.03        2.82882
         O 43 -- O 51             -0.03        2.82972
         O 20 -- O 49             -0.03        2.82972
         O 16 -- O 32             -0.03        2.83102
         O 32 -- O 41             -0.03        2.83102
         O 45 -- O 54             -0.03        2.83114
         O 54 -- O 56             -0.03        2.83114
         O 38 -- O 42             -0.03        2.83162
         O 14 -- O 29             -0.03        2.83162
         O 12 -- O 21             -0.03        2.83308
         O 33 -- O 40             -0.03        2.83308
         O 35 -- O 43             -0.03        2.83546
         O 20 -- O 28             -0.03        2.83546

Writing analysis data to 071.castep_bin

Writing model to 071.check

 A BibTeX formatted list of references used in this run has been written to
 071.bib

Initialisation time =     54.96 s
Calculation time    =  33885.24 s
Finalisation time   =     36.29 s
Total time          =  33976.49 s

Overall parallel efficiency rating: Good (76%)

Data was distributed by:-
G-vector (4-way); efficiency rating: Good (77%)
k-point (14-way); efficiency rating: Ideal (100%)