 Compiled for linux_x86_64_ifort16 on Sat, 23 Jul 2016 23:44:54 +0100
 from code version
 203e84763863+ Castep161_branch Fri, 04 Mar 2016 19:21:07 +0000
 Compiler: Intel Fortran 16.0.3.210; Optimisation: fast
 MATHLIBS: Intel MKL(11.3.3) (LAPACK version 3.6.0)
 FFT Lib : mkl
 Fundamental constants values: CODATA 2010

 Run started: Mon, 30 Apr 2018 06:01:57 +0100
 |           N   N    M   M    RRRR                |
 |           NN  N    MM MM    R   R               |
 |           N N N    M M M    RRRR                |
 |           N  NN    M   M    R  R                |
 |           N   N    M   M    R   R               |
 | Welcome to Materials Studio CASTEP-NMR          |
 | Authors:                                        |
 | J.R. Yates, C.J. Pickard, F. Mauri              |
 | Contributors:                                   |
 | T.F.G. Green, S.A. Joyce                        |
 | Copyright (c) 2004 - 2015                       |
 | Please cite the appropriate publications in all |
 | work arising from your use of CASTEP NMR.       |
 | For NMR Shielding Tensors cite:                 |
 |    "All-electron magnetic response with         |
 |    pseudopotentials: NMR chemical shifts",      |
 |    C. J. Pickard, F. Mauri;                     |
 |    Physical Review B63 245101 (2001), and       |
 |    "Calculation of NMR Chemical Shifts          |
 |    for extended systems using                   |
 |    Ultrasoft Pseudopotentials",                 |
 |    J. R. Yates, C. J. Pickard and F. Mauri      |
 |    Physical Review B76 024401 (2007)            |
 | For Electric Field Gradients cite:              |
 |   "Accurate First Principles Prediction of 17O  |
 |    NMR Parameters in SiO2: Assignment of the    |
 |    Zeolite Ferrierite Spectrum"                 |
 |    M. Profeta, F. Mauri and C. J. Pickard       |
 |    J. Amer. Chem. Soc. 125 541 (2003)           |
 | For Spin-Spin (J) Couplings cite:               |
 |   "A first principles theory of NMR J-coupling  |
 |   in solid-state systems"                       |
 |   S.A. Joyce, J.R. Yates, C.J. Pickard, F. Mauri|
 |   J. Chem. Phys. 127 204107 (2007)              |
 |   "Relativistic NMR J-coupling with ultrasoft   |
 |   pseudopotentials and the zeroth-order regular |
 |   approximation"                                |
 |   T.F.G. Green and J.R. Yates                   |
 |   J. Chem. Phys. 140 234106 (2014)              |

 Atomic calculation performed for O: 1s2 2s2 2p4

 Converged in 44 iterations to an ae energy of -2040.855 eV

 Atomic calculation performed for O: 1s2 2s2 2p4

 Exceeded max iterations: converged to 0.000000062 eV

   | Pseudopotential Report - Date of generation 30-04-2018   |
   | Element: O Ionic charge:  6.00 Level of theory: PBE      |
   | Atomic Solver: ZORA (scalar)                             |
   |               Reference Electronic Structure             |
   |         Orbital         Occupation         Energy        |
   |            2s              2.000           -0.881        |
   |            2p              4.000           -0.332        |
   |                 Pseudopotential Definition               |
   |        Beta     l      e      Rc     scheme   norm       |
   |          1      0   -0.881   1.100     qc      0         |
   |          2      0    0.250   1.100     qc      0         |
   |          3      1   -0.332   1.100     qc      0         |
   |          4      1    0.250   1.100     qc      0         |
   |         loc     2    0.000   1.100     pn      0         |
   | Augmentation charge Rinner = 0.769                       |
   | Partial core correction Rc = 0.769                       |
   | "2|1.1|15|18|20|20:21(qc=7)"                             |
   |      Author: Chris J. Pickard, Cambridge University      |

 Atomic calculation performed for Zr: 1s2 2s2 2p6 3s2 3p6 3d10 4s2 4p6 4d2 5s2

[...]

 Atomic calculation performed for Zr: 1s2 2s2 2p6 3s2 3p6 3d10 4s2 4p6 4d2 5s2

[...]

 Warning: ion_atom_descreen_psp: negative charge density encountered
   | Pseudopotential Report - Date of generation 30-04-2018   |
   | Element: Zr Ionic charge: 12.00 Level of theory: PBE     |
   | Atomic Solver: ZORA (scalar)                             |
   |               Reference Electronic Structure             |
   |         Orbital         Occupation         Energy        |
   |            4s              2.000           -2.003        |
   |            4p              6.000           -1.193        |
   |            5s              2.000           -0.163        |
   |            4d              2.000           -0.132        |
   |                 Pseudopotential Definition               |
   |        Beta     l      e      Rc     scheme   norm       |
   |          1      0   -2.003   2.105     qc      0         |
   |          2      0   -0.163   2.105     qc      0         |
   |          3      0    0.250   2.105     qc      0         |
   |          4      1   -1.193   2.105     qc      0         |
   |          5      1    0.250   2.105     qc      0         |
   |          6      2   -0.132   2.105     qc      0         |
   |          7      2    0.250   2.105     qc      0         |
   |         loc     3    0.000   2.105     pn      0         |
   | Augmentation charge Rinner = 1.471                       |
   | Partial core correction Rc = 1.471                       |
   | "3|2.1|7|8|9|40U:50:41:42"                               |
   |      Author: Chris J. Pickard, Cambridge University      |

 Atomic calculation performed for Sn:

[...]

 Atomic calculation performed for Sn:

[...]

   | Pseudopotential Report - Date of generation 30-04-2018   |
   | Element: Sn Ionic charge: 14.00 Level of theory: PBE     |
   | Atomic Solver: ZORA (scalar)                             |
   |               Reference Electronic Structure             |
   |         Orbital         Occupation         Energy        |
   |            4d             10.000           -0.950        |
   |            5s              2.000           -0.388        |
   |            5p              2.000           -0.136        |
   |                 Pseudopotential Definition               |
   |        Beta     l      e      Rc     scheme   norm       |
   |          1      0   -0.388   2.199     qc      0         |
   |          2      0    0.250   2.199     qc      0         |
   |          3      1   -0.136   2.199     qc      0         |
   |          4      1    0.250   2.199     qc      0         |
   |          5      2   -0.950   2.199     qc      0         |
   |          6      2    0.250   2.199     qc      0         |
   |         loc     3    0.000   2.199     pn      0         |
   | Augmentation charge Rinner = 1.537                       |
   | Partial core correction Rc = 1.537                       |
   | "3|2.2|7|8|9|50:51:42"                                   |
   |      Author: Chris J. Pickard, Cambridge University      |

 Atomic calculation performed for La:

 Converged in 56 iterations to an ae energy of -230121.495 eV

 Atomic calculation performed for La:

 Exceeded max iterations: converged to 0.000000907 eV

 Warning: ion_atom_descreen_psp: negative charge density encountered
   | Pseudopotential Report - Date of generation 30-04-2018   |
   | Element: La Ionic charge: 11.00 Level of theory: PBE     |
   | Atomic Solver: ZORA (scalar)                             |
   |               Reference Electronic Structure             |
   |         Orbital         Occupation         Energy        |
   |            5s              2.000           -1.430        |
   |            5p              6.000           -0.823        |
   |            6s              2.000           -0.135        |
   |            5d              1.000           -0.114        |
   |                 Pseudopotential Definition               |
   |        Beta     l      e      Rc     scheme   norm       |
   |          1      0   -1.430   2.298     qc      0         |
   |          2      0   -0.135   2.298     qc      0         |
   |          3      0    0.250   2.298     qc      0         |
   |          4      1   -0.823   2.298     qc      0         |
   |          5      1    0.250   2.298     qc      0         |
   |          6      2   -0.114   2.298     qc      0         |
   |          7      2    0.250   2.298     qc      0         |
   |         loc     2    0.000   2.298     pn      0         |
   | Augmentation charge Rinner = 1.606                       |
   | Partial core correction Rc = 1.606                       |
   | "2|2.3|5|6|7|50U:60:51:52(qc=4.5)"                       |
   |      Author: Chris J. Pickard, Cambridge University      |

 Pseudo atomic calculation performed for O 2s2 2p4

 Converged in 39 iterations to a total energy of -432.6554 eV

 Pseudo atomic calculation performed for Zr 4s2 4p6 4d2 5s2

[...]

 Calculation parallelised over 56 processes.
 Data is distributed by G-vector(4-way) and k-point(14-way)

 ************************************ Title ************************************
 nmr testing

 ***************************** General Parameters ******************************

 output verbosity                               : normal  (1)
 write checkpoint data to                       : 075.check
 type of calculation                            : Magnetic Resonance
 stress calculation                             : on
 density difference calculation                 : off
 electron localisation func (ELF) calculation   : off
 Hirshfeld analysis                             : off
 unlimited duration calculation
 timing information                             : on
 write final potential to formatted file        : off
 write final density to formatted file          : off
 write structure in CIF formatted file          : on
 write structure in CELL formatted file         : on
 write BibTeX reference list                    : on
 write OTFG pseudopotential files               : on
 checkpoint writing                             : both castep_bin and check files

 output         length unit                     : A
 output           mass unit                     : amu
 output           time unit                     : ps
 output         charge unit                     : e
 output           spin unit                     : hbar/2
 output         energy unit                     : eV
 output          force unit                     : eV/A
 output       velocity unit                     : A/ps
 output       pressure unit                     : GPa
 output     inv_length unit                     : 1/A
 output      frequency unit                     : cm-1
 output force constant unit                     : eV/A**2
 output         volume unit                     : A**3
 output   IR intensity unit                     : (D/A)**2/amu
 output         dipole unit                     : D
 output         efield unit                     : eV/A/e
 output        entropy unit                     : J/mol/K

 wavefunctions paging                           : none
 random number generator seed                   : randomised (60159208)
 data distribution                              : optimal for this architecture
[...]
  |    O          42     -164.84     152.33      0.78   1.010E+00   0.84 |
  |    O          43      -84.85      84.06      0.19  -3.138E+00   0.04 |
  |    O          44     -160.28     156.69      0.80   1.103E+00   0.75 |
  |    O          45      -86.43      84.93      0.15  -3.198E+00   0.10 |
  |    O          46     -161.63     146.25      0.82   1.056E+00   0.71 |
  |    O          47      -21.56     -39.95      0.83   3.865E+00   0.87 |
  |    O          48     -167.02     160.54      0.82   9.974E-01   1.00 |
  |    O          49      -90.02      85.52      0.06  -3.172E+00   0.08 |
  |    O          50     -163.78     155.56      0.80   1.023E+00   0.89 |
  |    O          51      -90.02      85.53      0.06  -3.172E+00   0.08 |
  |    O          52     -163.78     155.56      0.80   1.023E+00   0.89 |
  |    O          53     -161.04     154.78      0.80   1.100E+00   0.75 |
  |    O          54      -83.92      82.97      0.19  -3.111E+00   0.06 |
  |    O          55     -161.63     146.25      0.82   1.056E+00   0.71 |
  |    O          56      -86.43      84.93      0.15  -3.198E+00   0.10 |
  |    Zr          1     1629.21    -129.68      0.24  -3.767E+01   0.05 |
  |    Zr          2     1615.23    -119.14      0.08  -3.657E+01   0.03 |
  |    Zr          3     1634.11    -129.02      0.17  -3.856E+01   0.13 |
  |    Zr          4     1615.23    -119.14      0.08  -3.657E+01   0.03 |
[...]
  |    La          2     4652.19     629.66      0.01  -7.907E+01   0.04 |
  |    La          3     4611.01     521.99      0.07  -7.924E+01   0.13 |
  |    La          4     4747.52     874.71      0.05  -8.576E+01   0.07 |
  |    La          5     4652.19     629.66      0.01  -7.907E+01   0.04 |
  |    La          6     4747.52     874.72      0.05  -8.576E+01   0.07 |
  |    La          7     4611.01     521.99      0.07  -7.924E+01   0.13 |
  |    La          8     4660.23     626.76      0.00  -8.090E+01   0.04 |
  |    La          9     4598.45     520.49      0.08  -7.467E+01   0.06 |
  |    La         10     4653.84     666.08      0.10  -8.133E+01   0.17 |
  |    La         11     4606.66     519.97      0.07  -7.623E+01   0.04 |
  |    La         12     4611.15     542.13      0.07  -7.930E+01   0.20 |
  |    La         13     4660.23     626.76      0.00  -8.090E+01   0.04 |
  |    La         14     4611.15     542.13      0.07  -7.930E+01   0.20 |
  |    La         15     4653.84     666.08      0.10  -8.133E+01   0.17 |
  |    La         16     4704.39     747.03      0.02  -8.355E+01   0.06 |

 *********************** Forces ***********************
 *            Cartesian components (eV/A)             *
 *                   x            y            z      *
 * O         1     -0.00011     -0.00011     -0.00326 *
 * O         2      0.00247      0.00431     -0.00862 *
 * O         3      0.00431      0.00247     -0.00862 *
 * O         4     -0.00138     -0.00138      0.00442 *
 * O         5     -0.01059      0.00048     -0.00159 *
 * O         6     -0.00386     -0.00386      0.00853 *
 * O         7     -0.00272     -0.00272      0.00784 *
 * O         8      0.00048     -0.01059     -0.00159 *
 * O         9      0.00103     -0.02342     -0.00941 *
 * O        10     -0.00772     -0.01326      0.00841 *
 * O        11     -0.00458     -0.01831      0.02010 *
 * O        12      0.00145     -0.02149     -0.00613 *
 * O        13     -0.02342      0.00103     -0.00941 *
 * O        14      0.00739     -0.00999      0.00455 *
 * O        15     -0.01831     -0.00458      0.02010 *
 * O        16      0.01047      0.00758     -0.00131 *
 * O        17     -0.00617     -0.00617      0.00421 *
 * O        18      0.00209      0.00276     -0.01174 *
 * O        19      0.00294      0.00294     -0.00209 *
 * O        20     -0.01230     -0.00915     -0.00058 *
 * O        21     -0.00802      0.00523     -0.00741 *
 * O        22     -0.00604     -0.00759      0.00148 *
 * O        23     -0.00608     -0.00798     -0.00440 *
 * O        24     -0.01642     -0.00700      0.00882 *
 * O        25     -0.00700     -0.01642      0.00882 *
 * O        26      0.00131      0.01457      0.01598 *
 * O        27     -0.00759     -0.00604      0.00148 *
 * O        28      0.00927      0.02076     -0.01657 *
 * O        29      0.01108      0.02340     -0.01613 *
 * O        30      0.00423      0.00423      0.01950 *
 * O        31     -0.00275      0.00529      0.00299 *
 * O        32      0.01515      0.01515     -0.00034 *
 * O        33      0.00523     -0.00802     -0.00741 *
 * O        34     -0.00798     -0.00608     -0.00440 *
 * O        35      0.02076      0.00927     -0.01657 *
 * O        36      0.01457      0.00131      0.01598 *
 * O        37      0.00529     -0.00275      0.00299 *
 * O        38      0.02340      0.01108     -0.01613 *
 * O        39     -0.01325     -0.00772      0.00841 *
 * O        40     -0.02149      0.00145     -0.00613 *
 * O        41      0.00758      0.01047     -0.00131 *
 * O        42     -0.00999      0.00739      0.00455 *
 * O        43     -0.00915     -0.01230     -0.00058 *
 * O        44      0.00276      0.00209     -0.01174 *
 * O        45      0.00750      0.00921      0.00998 *
 * O        46     -0.01138      0.00479     -0.00165 *
 * O        47      0.00320      0.00320     -0.00574 *
 * O        48     -0.00991     -0.00991      0.01925 *
 * O        49      0.02034      0.00521     -0.01719 *
 * O        50      0.00729     -0.01720     -0.00239 *
 * O        51      0.00521      0.02034     -0.01719 *
 * O        52     -0.01720      0.00729     -0.00239 *
 * O        53      0.00017      0.00017      0.01887 *
 * O        54     -0.01173     -0.01173      0.00182 *
 * O        55      0.00479     -0.01138     -0.00165 *
 * O        56      0.00921      0.00750      0.00998 *
 * Zr        1     -0.02183     -0.02183      0.02510 *
 * Zr        2     -0.01042     -0.00240     -0.01773 *
 * Zr        3      0.00771      0.00320     -0.00306 *
 * Zr        4     -0.00240     -0.01042     -0.01773 *
[...]
 * La        2      0.01732     -0.00334      0.01168 *
 * La        3     -0.00268      0.00200      0.00111 *
 * La        4      0.00387      0.01789     -0.01672 *
 * La        5     -0.00334      0.01732      0.01168 *
 * La        6      0.01789      0.00387     -0.01672 *
 * La        7      0.00199     -0.00268      0.00111 *
 * La        8      0.00166     -0.01477      0.01294 *
 * La        9     -0.00556     -0.00556     -0.00592 *
 * La       10      0.00216      0.01416      0.01502 *
 * La       11      0.00046      0.00046      0.00049 *
 * La       12     -0.00136     -0.00335     -0.00347 *
 * La       13     -0.01477      0.00166      0.01294 *
 * La       14     -0.00335     -0.00136     -0.00347 *
 * La       15      0.01416      0.00216      0.01502 *
 * La       16      0.00881      0.00881     -0.01598 *

 ***************** Stress Tensor *****************
 *          Cartesian components (GPa)           *
 *             x             y             z     *
 *  x      0.033865      0.011042     -0.026775  *
 *  y      0.011042      0.033865     -0.026775  *
 *  z     -0.026775     -0.026775      0.062191  *
 *  Pressure:   -0.0433                          *

[...]

 Pseudo atomic calculation performed for Sn 4d10 5s2 5p2

[...]

 Pseudo atomic calculation performed for La 5s2 5p6 5d1 6s2

 Converged in 34 iterations to a total energy of -968.0372 eV

Charge spilling parameter for spin component 1 = 0.24%

     Atomic Populations (Mulliken)
Species   Ion     s      p      d      f     Total  Charge (e)
  O        1     1.87   5.00   0.00   0.00   6.87    -0.87
  O        2     1.87   5.00   0.00   0.00   6.87    -0.87
  O        3     1.87   5.00   0.00   0.00   6.87    -0.87
  O        4     1.87   5.00   0.00   0.00   6.87    -0.87
  O        5     1.87   5.00   0.00   0.00   6.87    -0.87
  O        6     1.87   5.00   0.00   0.00   6.87    -0.87
  O        7     1.87   5.00   0.00   0.00   6.87    -0.87
  O        8     1.87   5.00   0.00   0.00   6.87    -0.87
  O        9     1.87   4.99   0.00   0.00   6.86    -0.86
  O       10     1.88   5.02   0.00   0.00   6.91    -0.91
  O       11     1.87   4.99   0.00   0.00   6.86    -0.86
  O       12     1.87   4.99   0.00   0.00   6.85    -0.85
  O       13     1.87   4.99   0.00   0.00   6.86    -0.86
  O       14     1.86   4.95   0.00   0.00   6.80    -0.80
  O       15     1.87   4.99   0.00   0.00   6.86    -0.86
  O       16     1.88   5.03   0.00   0.00   6.91    -0.91
  O       17     1.88   5.03   0.00   0.00   6.91    -0.91
  O       18     1.86   4.95   0.00   0.00   6.80    -0.80
  O       19     1.88   5.02   0.00   0.00   6.91    -0.91
  O       20     1.87   4.99   0.00   0.00   6.85    -0.85
  O       21     1.86   4.95   0.00   0.00   6.80    -0.80
  O       22     1.88   5.03   0.00   0.00   6.91    -0.91
  O       23     1.88   5.02   0.00   0.00   6.91    -0.91
  O       24     1.87   4.99   0.00   0.00   6.86    -0.86
  O       25     1.87   4.99   0.00   0.00   6.86    -0.86
  O       26     1.87   4.99   0.00   0.00   6.86    -0.86
  O       27     1.88   5.03   0.00   0.00   6.91    -0.91
  O       28     1.87   4.99   0.00   0.00   6.86    -0.86
  O       29     1.87   4.99   0.00   0.00   6.86    -0.86
  O       30     1.86   4.95   0.00   0.00   6.80    -0.80
  O       31     1.88   5.02   0.00   0.00   6.91    -0.91
  O       32     1.87   4.99   0.00   0.00   6.86    -0.86
  O       33     1.86   4.95   0.00   0.00   6.80    -0.80
  O       34     1.88   5.02   0.00   0.00   6.91    -0.91
  O       35     1.87   4.99   0.00   0.00   6.86    -0.86
  O       36     1.87   4.99   0.00   0.00   6.86    -0.86
  O       37     1.88   5.02   0.00   0.00   6.91    -0.91
  O       38     1.87   4.99   0.00   0.00   6.86    -0.86
  O       39     1.88   5.02   0.00   0.00   6.91    -0.91
  O       40     1.87   4.99   0.00   0.00   6.85    -0.85
  O       41     1.88   5.03   0.00   0.00   6.91    -0.91
  O       42     1.86   4.95   0.00   0.00   6.80    -0.80
  O       43     1.87   4.99   0.00   0.00   6.85    -0.85
  O       44     1.86   4.95   0.00   0.00   6.80    -0.80
  O       45     1.87   4.99   0.00   0.00   6.86    -0.86
  O       46     1.86   4.95   0.00   0.00   6.80    -0.80
  O       47     1.88   5.02   0.00   0.00   6.91    -0.91
  O       48     1.86   4.95   0.00   0.00   6.80    -0.80
  O       49     1.87   4.99   0.00   0.00   6.86    -0.86
  O       50     1.86   4.95   0.00   0.00   6.80    -0.80
  O       51     1.87   4.99   0.00   0.00   6.86    -0.86
  O       52     1.86   4.95   0.00   0.00   6.80    -0.80
  O       53     1.86   4.95   0.00   0.00   6.80    -0.80
  O       54     1.87   4.99   0.00   0.00   6.86    -0.86
  O       55     1.86   4.95   0.00   0.00   6.80    -0.80
  O       56     1.87   4.99   0.00   0.00   6.86    -0.86
  Zr       1     2.37   6.48   1.92   0.00  10.78     1.22
  Zr       2     2.37   6.49   1.92   0.00  10.78     1.22
  Zr       3     2.37   6.47   1.93   0.00  10.76     1.24
  Zr       4     2.37   6.49   1.92   0.00  10.78     1.22
[...]
  La       2     2.09   6.17   1.19   0.00   9.45     1.55
  La       3     2.09   6.19   1.19   0.00   9.47     1.53
  La       4     2.01   6.14   1.20   0.00   9.35     1.65
  La       5     2.09   6.17   1.19   0.00   9.45     1.55
  La       6     2.01   6.14   1.20   0.00   9.35     1.65
  La       7     2.09   6.19   1.19   0.00   9.47     1.53
  La       8     2.06   6.18   1.19   0.00   9.43     1.57
  La       9     2.10   6.18   1.19   0.00   9.47     1.53
  La      10     2.06   6.17   1.19   0.00   9.42     1.58
  La      11     2.10   6.18   1.19   0.00   9.48     1.52
  La      12     2.09   6.19   1.19   0.00   9.47     1.53
  La      13     2.06   6.18   1.19   0.00   9.43     1.57
  La      14     2.09   6.19   1.19   0.00   9.47     1.53
  La      15     2.06   6.17   1.19   0.00   9.42     1.58
  La      16     2.03   6.17   1.19   0.00   9.39     1.61

            Bond              Population      Length (A)
         O 29 -- Sn 6              0.35        2.09974
         O 38 -- Sn 3              0.35        2.09974
         O 17 -- Sn 4              0.34        2.10083
         O 35 -- Sn 7              0.35        2.10355
         O 28 -- Sn 5              0.35        2.10355
         O 17 -- Sn 8              0.34        2.10413
         O 56 -- Sn 5              0.34        2.10424
         O 45 -- Sn 7              0.34        2.10424
         O 22 -- Sn 5              0.34        2.10520
         O 27 -- Sn 7              0.34        2.10520
         O 16 -- Sn 8              0.34        2.10719
         O 41 -- Sn 8              0.34        2.10719
         O 22 -- Sn 6              0.34        2.10724
         O 27 -- Sn 3              0.34        2.10724
         O 16 -- Sn 2              0.34        2.10728
         O 41 -- Sn 1              0.34        2.10728
         O 15 -- Sn 7              0.35        2.10746
         O 11 -- Sn 5              0.35        2.10746
         O 40 -- Sn 3              0.34        2.10793
         O 12 -- Sn 6              0.34        2.10793
         O 13 -- Sn 6              0.34        2.10858
         O 9  -- Sn 3              0.34        2.10858
         O 10 -- Sn 4              0.34        2.10880
         O 39 -- Sn 4              0.34        2.10880
         O 49 -- Sn 1              0.34        2.10956
         O 51 -- Sn 2              0.34        2.10956
         O 36 -- Sn 8              0.34        2.11026
         O 26 -- Sn 8              0.34        2.11026
         O 10 -- Sn 2              0.34        2.11098
         O 39 -- Sn 1              0.34        2.11098
         O 48 -- Zr 6              0.42        2.11106
         O 54 -- Sn 4              0.34        2.11211
         O 23 -- Sn 3              0.34        2.11225
         O 34 -- Sn 6              0.34        2.11225
         O 34 -- Sn 1              0.33        2.11253
         O 23 -- Sn 2              0.34        2.11253
         O 25 -- Sn 4              0.34        2.11288
         O 24 -- Sn 4              0.34        2.11288
         O 44 -- Zr 8              0.42        2.11299
         O 18 -- Zr 7              0.42        2.11299
         O 43 -- Sn 6              0.35        2.11309
         O 20 -- Sn 3              0.35        2.11309
         O 18 -- Zr 5              0.42        2.11351
         O 44 -- Zr 3              0.42        2.11351
         O 53 -- Zr 5              0.42        2.11417
         O 53 -- Zr 3              0.42        2.11417
         O 38 -- Zr 2              0.44        2.11441
         O 29 -- Zr 4              0.44        2.11441
         O 47 -- Sn 1              0.33        2.11480
         O 47 -- Sn 2              0.33        2.11480
         O 50 -- Zr 1              0.43        2.11485
         O 52 -- Zr 1              0.43        2.11485
         O 32 -- Sn 8              0.34        2.11507
         O 30 -- Zr 8              0.42        2.11536
         O 30 -- Zr 7              0.42        2.11536
         O 48 -- Zr 1              0.42        2.11557
         O 42 -- Zr 2              0.43        2.11585
         O 14 -- Zr 4              0.43        2.11585
         O 37 -- Sn 1              0.34        2.11653
         O 31 -- Sn 2              0.34        2.11653
[...]
         O 33 -- O 40             -0.03        2.82911
         O 24 -- O 44             -0.03        2.82920
         O 18 -- O 25             -0.03        2.82920
         O 51 -- O 55             -0.03        2.83130
         O 46 -- O 49             -0.03        2.83130
         O 43 -- O 51             -0.03        2.83413
         O 20 -- O 49             -0.03        2.83413
         O 20 -- O 28             -0.03        2.83425
         O 35 -- O 43             -0.03        2.83425
         O 11 -- O 32             -0.03        2.83636
         O 15 -- O 32             -0.03        2.83636
         O 45 -- O 54             -0.03        2.83829
         O 54 -- O 56             -0.03        2.83829
         O 9  -- O 24             -0.03        2.83889
         O 13 -- O 25             -0.03        2.83889

Writing analysis data to 075.castep_bin

Writing model to 075.check

 A BibTeX formatted list of references used in this run has been written to
 075.bib

Initialisation time =     54.63 s
Calculation time    =  33701.57 s
Finalisation time   =     32.93 s
Total time          =  33789.12 s

Overall parallel efficiency rating: Good (76%)

Data was distributed by:-
G-vector (4-way); efficiency rating: Good (77%)
k-point (14-way); efficiency rating: Excellent (99%)