 Compiled for linux_x86_64_ifort16 on Sat, 23 Jul 2016 23:44:54 +0100
 from code version
 203e84763863+ Castep161_branch Fri, 04 Mar 2016 19:21:07 +0000
 Compiler: Intel Fortran 16.0.3.210; Optimisation: fast
 MATHLIBS: Intel MKL(11.3.3) (LAPACK version 3.6.0)
 FFT Lib : mkl
 Fundamental constants values: CODATA 2010

 Run started: Wed, 02 May 2018 10:01:08 +0100
 |           N   N    M   M    RRRR                |
 |           NN  N    MM MM    R   R               |
 |           N N N    M M M    RRRR                |
 |           N  NN    M   M    R  R                |
 |           N   N    M   M    R   R               |
 | Welcome to Materials Studio CASTEP-NMR          |
 | Authors:                                        |
 | J.R. Yates, C.J. Pickard, F. Mauri              |
 | Contributors:                                   |
 | T.F.G. Green, S.A. Joyce                        |
 | Copyright (c) 2004 - 2015                       |
 | Please cite the appropriate publications in all |
 | work arising from your use of CASTEP NMR.       |
 | For NMR Shielding Tensors cite:                 |
 |    "All-electron magnetic response with         |
 |    pseudopotentials: NMR chemical shifts",      |
 |    C. J. Pickard, F. Mauri;                     |
 |    Physical Review B63 245101 (2001), and       |
 |    "Calculation of NMR Chemical Shifts          |
 |    for extended systems using                   |
 |    Ultrasoft Pseudopotentials",                 |
 |    J. R. Yates, C. J. Pickard and F. Mauri      |
 |    Physical Review B76 024401 (2007)            |
 | For Electric Field Gradients cite:              |
 |   "Accurate First Principles Prediction of 17O  |
 |    NMR Parameters in SiO2: Assignment of the    |
 |    Zeolite Ferrierite Spectrum"                 |
 |    M. Profeta, F. Mauri and C. J. Pickard       |
 |    J. Amer. Chem. Soc. 125 541 (2003)           |
 | For Spin-Spin (J) Couplings cite:               |
 |   "A first principles theory of NMR J-coupling  |
 |   in solid-state systems"                       |
 |   S.A. Joyce, J.R. Yates, C.J. Pickard, F. Mauri|
 |   J. Chem. Phys. 127 204107 (2007)              |
 |   "Relativistic NMR J-coupling with ultrasoft   |
 |   pseudopotentials and the zeroth-order regular |
 |   approximation"                                |
 |   T.F.G. Green and J.R. Yates                   |
 |   J. Chem. Phys. 140 234106 (2014)              |

 Atomic calculation performed for O: 1s2 2s2 2p4

 Converged in 44 iterations to an ae energy of -2040.855 eV

 Atomic calculation performed for O: 1s2 2s2 2p4

 Exceeded max iterations: converged to 0.000000062 eV

   | Pseudopotential Report - Date of generation  2-05-2018   |
   | Element: O Ionic charge:  6.00 Level of theory: PBE      |
   | Atomic Solver: ZORA (scalar)                             |
   |               Reference Electronic Structure             |
   |         Orbital         Occupation         Energy        |
   |            2s              2.000           -0.881        |
   |            2p              4.000           -0.332        |
   |                 Pseudopotential Definition               |
   |        Beta     l      e      Rc     scheme   norm       |
   |          1      0   -0.881   1.100     qc      0         |
   |          2      0    0.250   1.100     qc      0         |
   |          3      1   -0.332   1.100     qc      0         |
   |          4      1    0.250   1.100     qc      0         |
   |         loc     2    0.000   1.100     pn      0         |
   | Augmentation charge Rinner = 0.769                       |
   | Partial core correction Rc = 0.769                       |
   | "2|1.1|15|18|20|20:21(qc=7)"                             |
   |      Author: Chris J. Pickard, Cambridge University      |

 Atomic calculation performed for Zr: 1s2 2s2 2p6 3s2 3p6 3d10 4s2 4p6 4d2 5s2

[...]

 Atomic calculation performed for Zr: 1s2 2s2 2p6 3s2 3p6 3d10 4s2 4p6 4d2 5s2

[...]

 Warning: ion_atom_descreen_psp: negative charge density encountered
   | Pseudopotential Report - Date of generation  2-05-2018   |
   | Element: Zr Ionic charge: 12.00 Level of theory: PBE     |
   | Atomic Solver: ZORA (scalar)                             |
   |               Reference Electronic Structure             |
   |         Orbital         Occupation         Energy        |
   |            4s              2.000           -2.003        |
   |            4p              6.000           -1.193        |
   |            5s              2.000           -0.163        |
   |            4d              2.000           -0.132        |
   |                 Pseudopotential Definition               |
   |        Beta     l      e      Rc     scheme   norm       |
   |          1      0   -2.003   2.105     qc      0         |
   |          2      0   -0.163   2.105     qc      0         |
   |          3      0    0.250   2.105     qc      0         |
   |          4      1   -1.193   2.105     qc      0         |
   |          5      1    0.250   2.105     qc      0         |
   |          6      2   -0.132   2.105     qc      0         |
   |          7      2    0.250   2.105     qc      0         |
   |         loc     3    0.000   2.105     pn      0         |
   | Augmentation charge Rinner = 1.471                       |
   | Partial core correction Rc = 1.471                       |
   | "3|2.1|7|8|9|40U:50:41:42"                               |
   |      Author: Chris J. Pickard, Cambridge University      |

 Atomic calculation performed for Sn:

[...]

 Atomic calculation performed for Sn:

[...]

   | Pseudopotential Report - Date of generation  2-05-2018   |
   | Element: Sn Ionic charge: 14.00 Level of theory: PBE     |
   | Atomic Solver: ZORA (scalar)                             |
   |               Reference Electronic Structure             |
   |         Orbital         Occupation         Energy        |
   |            4d             10.000           -0.950        |
   |            5s              2.000           -0.388        |
   |            5p              2.000           -0.136        |
   |                 Pseudopotential Definition               |
   |        Beta     l      e      Rc     scheme   norm       |
   |          1      0   -0.388   2.199     qc      0         |
   |          2      0    0.250   2.199     qc      0         |
   |          3      1   -0.136   2.199     qc      0         |
   |          4      1    0.250   2.199     qc      0         |
   |          5      2   -0.950   2.199     qc      0         |
   |          6      2    0.250   2.199     qc      0         |
   |         loc     3    0.000   2.199     pn      0         |
   | Augmentation charge Rinner = 1.537                       |
   | Partial core correction Rc = 1.537                       |
   | "3|2.2|7|8|9|50:51:42"                                   |
   |      Author: Chris J. Pickard, Cambridge University      |

 Atomic calculation performed for La:

 Converged in 56 iterations to an ae energy of -230121.495 eV

 Atomic calculation performed for La:

 Exceeded max iterations: converged to 0.000000907 eV

 Warning: ion_atom_descreen_psp: negative charge density encountered
   | Pseudopotential Report - Date of generation  2-05-2018   |
   | Element: La Ionic charge: 11.00 Level of theory: PBE     |
   | Atomic Solver: ZORA (scalar)                             |
   |               Reference Electronic Structure             |
   |         Orbital         Occupation         Energy        |
   |            5s              2.000           -1.430        |
   |            5p              6.000           -0.823        |
   |            6s              2.000           -0.135        |
   |            5d              1.000           -0.114        |
   |                 Pseudopotential Definition               |
   |        Beta     l      e      Rc     scheme   norm       |
   |          1      0   -1.430   2.298     qc      0         |
   |          2      0   -0.135   2.298     qc      0         |
   |          3      0    0.250   2.298     qc      0         |
   |          4      1   -0.823   2.298     qc      0         |
   |          5      1    0.250   2.298     qc      0         |
   |          6      2   -0.114   2.298     qc      0         |
   |          7      2    0.250   2.298     qc      0         |
   |         loc     2    0.000   2.298     pn      0         |
   | Augmentation charge Rinner = 1.606                       |
   | Partial core correction Rc = 1.606                       |
   | "2|2.3|5|6|7|50U:60:51:52(qc=4.5)"                       |
   |      Author: Chris J. Pickard, Cambridge University      |

 Pseudo atomic calculation performed for O 2s2 2p4

 Converged in 39 iterations to a total energy of -432.6554 eV

 Pseudo atomic calculation performed for Zr 4s2 4p6 4d2 5s2

[...]

 Calculation parallelised over 56 processes.
 Data is distributed by G-vector(4-way) and k-point(14-way)

 ************************************ Title ************************************
 nmr testing

 ***************************** General Parameters ******************************

 output verbosity                               : normal  (1)
 write checkpoint data to                       : 080.check
 type of calculation                            : Magnetic Resonance
 stress calculation                             : on
 density difference calculation                 : off
 electron localisation func (ELF) calculation   : off
 Hirshfeld analysis                             : off
 unlimited duration calculation
 timing information                             : on
 write final potential to formatted file        : off
 write final density to formatted file          : off
 write structure in CIF formatted file          : on
 write structure in CELL formatted file         : on
 write BibTeX reference list                    : on
 write OTFG pseudopotential files               : on
 checkpoint writing                             : both castep_bin and check files

 output         length unit                     : A
 output           mass unit                     : amu
 output           time unit                     : ps
 output         charge unit                     : e
 output           spin unit                     : hbar/2
 output         energy unit                     : eV
 output          force unit                     : eV/A
 output       velocity unit                     : A/ps
 output       pressure unit                     : GPa
 output     inv_length unit                     : 1/A
 output      frequency unit                     : cm-1
 output force constant unit                     : eV/A**2
 output         volume unit                     : A**3
 output   IR intensity unit                     : (D/A)**2/amu
 output         dipole unit                     : D
 output         efield unit                     : eV/A/e
 output        entropy unit                     : J/mol/K

 wavefunctions paging                           : none
 random number generator seed                   : randomised (100110225)
 data distribution                              : optimal for this architecture
[...]
  |    O          41      -15.09      58.02      0.50   3.895E+00   0.84 |
  |    O          42      -90.07      91.87      0.20  -3.209E+00   0.10 |
  |    O          43      -88.58      85.36      0.13  -3.146E+00   0.05 |
  |    O          44     -163.22     156.60      0.73   1.032E+00   0.87 |
  |    O          45      -83.09      88.54      0.11  -3.225E+00   0.08 |
  |    O          46     -160.43     136.82      0.77   1.056E+00   0.63 |
  |    O          47      -13.79      58.07      0.50   3.911E+00   0.85 |
  |    O          48     -163.54     153.17      0.87   1.031E+00   0.82 |
  |    O          49      -90.45      84.38      0.04  -3.226E+00   0.08 |
  |    O          50      -85.57      86.41      0.12  -3.151E+00   0.09 |
  |    O          51      -88.57      87.75      0.17  -3.149E+00   0.03 |
  |    O          52     -163.18     160.69      0.79   1.072E+00   0.83 |
  |    O          53      -85.86      81.26      0.07  -3.259E+00   0.11 |
  |    O          54     -161.30     140.39      0.83   1.051E+00   0.66 |
  |    O          55      -89.22      86.06      0.22  -3.198E+00   0.09 |
  |    O          56      -88.32      77.72      0.06  -3.227E+00   0.11 |
  |    Zr          1     1629.26    -126.52      0.16  -3.760E+01   0.10 |
  |    Zr          2     1608.86    -118.21      0.13  -3.561E+01   0.07 |
  |    Zr          3     1623.13    -122.05      0.19  -3.874E+01   0.03 |
  |    Zr          4     1610.00    -112.67      0.05  -3.745E+01   0.03 |
[...]
  |    La          2     4646.84     634.77      0.01  -7.777E+01   0.02 |
  |    La          3     4665.01     647.35      0.08  -8.302E+01   0.12 |
  |    La          4     4750.60     872.13      0.04  -8.774E+01   0.06 |
  |    La          5     4545.20     389.04      0.08  -7.144E+01   0.11 |
  |    La          6     4705.36     750.42      0.04  -8.415E+01   0.08 |
  |    La          7     4705.90     774.17      0.11  -8.487E+01   0.15 |
  |    La          8     4611.52     539.12      0.07  -7.873E+01   0.18 |
  |    La          9     4595.59     511.85      0.09  -7.447E+01   0.07 |
  |    La         10     4704.86     749.82      0.02  -8.402E+01   0.04 |
  |    La         11     4598.23     522.01      0.09  -7.492E+01   0.07 |
  |    La         12     4660.34     652.72      0.09  -8.181E+01   0.14 |
  |    La         13     4699.66     753.31      0.04  -8.261E+01   0.06 |
  |    La         14     4619.30     533.46      0.04  -7.973E+01   0.18 |
  |    La         15     4661.03     659.44      0.09  -8.239E+01   0.14 |
  |    La         16     4653.63     660.50      0.10  -8.080E+01   0.12 |

 *********************** Forces ***********************
 *            Cartesian components (eV/A)             *
 *                   x            y            z      *
 * O         1      0.00378     -0.00164     -0.00312 *
 * O         2     -0.00224     -0.00053     -0.00833 *
 * O         3      0.00327      0.00079     -0.00308 *
 * O         4     -0.00208      0.00154     -0.00153 *
 * O         5     -0.01017     -0.00471     -0.00130 *
 * O         6     -0.00353     -0.00276      0.00075 *
 * O         7     -0.00114     -0.00233     -0.00222 *
 * O         8      0.00272      0.00102     -0.00309 *
 * O         9      0.01323     -0.00011      0.00347 *
 * O        10     -0.01599     -0.02146      0.01226 *
 * O        11     -0.00259     -0.01565      0.01550 *
 * O        12      0.00355     -0.00501     -0.00144 *
 * O        13     -0.00292      0.00449     -0.00452 *
 * O        14      0.00676      0.00222      0.00144 *
 * O        15     -0.01178     -0.00438      0.01466 *
 * O        16      0.00949      0.00862     -0.00012 *
 * O        17     -0.02382     -0.01892      0.00290 *
 * O        18     -0.00126      0.00237     -0.01214 *
 * O        19     -0.00051     -0.00070     -0.00673 *
 * O        20      0.00558      0.01036      0.00262 *
 * O        21      0.01390      0.00066     -0.01271 *
 * O        22     -0.00626     -0.00989      0.00351 *
 * O        23     -0.00455     -0.00990     -0.01253 *
 * O        24     -0.00407      0.01171      0.00474 *
 * O        25     -0.00719      0.00553     -0.01469 *
 * O        26     -0.00523     -0.00081     -0.00161 *
 * O        27     -0.01145     -0.00861     -0.01236 *
 * O        28      0.01396      0.02013     -0.02050 *
 * O        29      0.02597      0.03112     -0.00316 *
 * O        30     -0.00912      0.01482      0.00551 *
 * O        31      0.00196      0.00187     -0.00006 *
 * O        32      0.01160      0.01352     -0.00306 *
 * O        33      0.01735      0.00083      0.00564 *
 * O        34     -0.00852     -0.00638      0.00137 *
 * O        35      0.00625      0.00210     -0.01596 *
 * O        36      0.01652     -0.00622      0.02167 *
 * O        37     -0.00425     -0.00814      0.00447 *
 * O        38      0.00112     -0.00446     -0.01291 *
 * O        39     -0.02338     -0.00804      0.01553 *
 * O        40      0.00120      0.01401      0.01338 *
 * O        41      0.00455      0.00534     -0.00153 *
 * O        42     -0.01503     -0.00991      0.00891 *
 * O        43     -0.01082     -0.01665     -0.00152 *
 * O        44      0.00248      0.00206     -0.01546 *
 * O        45      0.01171      0.01134      0.01306 *
 * O        46     -0.00033      0.00455      0.00585 *
 * O        47     -0.00100      0.00183     -0.00946 *
 * O        48     -0.00547     -0.00268      0.01023 *
 * O        49      0.02365      0.01065     -0.01909 *
 * O        50     -0.00488     -0.00242     -0.01501 *
 * O        51     -0.00404      0.01198     -0.01317 *
 * O        52     -0.01758      0.00413      0.00802 *
 * O        53      0.01270     -0.00765      0.01527 *
 * O        54     -0.00271     -0.00821     -0.01067 *
 * O        55     -0.01673     -0.01007      0.00755 *
 * O        56      0.00670      0.00880      0.00758 *
 * Zr        1     -0.01632      0.00051      0.00879 *
 * Zr        2      0.00752      0.00907     -0.01297 *
 * Zr        3      0.01341      0.00954     -0.00427 *
 * Zr        4      0.00405     -0.00284      0.00489 *
[...]
 * La        2      0.01464      0.00375      0.01618 *
 * La        3     -0.00805      0.00221      0.00554 *
 * La        4     -0.01099     -0.00753     -0.00630 *
 * La        5     -0.00041      0.00113     -0.00312 *
 * La        6      0.01850      0.01027     -0.00833 *
 * La        7      0.00574     -0.00779      0.00859 *
 * La        8     -0.00214     -0.00269     -0.00314 *
 * La        9     -0.00463     -0.00394     -0.00252 *
 * La       10     -0.01107     -0.00688      0.00442 *
 * La       11     -0.00303     -0.00322     -0.00240 *
 * La       12     -0.00197      0.00016      0.00000 *
 * La       13     -0.01509     -0.00631      0.01409 *
 * La       14     -0.00226     -0.00248     -0.00400 *
 * La       15      0.00952      0.00891      0.00164 *
 * La       16      0.00406      0.00374     -0.00724 *

 ***************** Stress Tensor *****************
 *          Cartesian components (GPa)           *
 *             x             y             z     *
 *  x      0.061494      0.012207     -0.011706  *
 *  y      0.012207      0.037773     -0.012977  *
 *  z     -0.011706     -0.012977      0.001509  *
 *  Pressure:   -0.0336                          *

[...]

 Pseudo atomic calculation performed for Sn 4d10 5s2 5p2

[...]

 Pseudo atomic calculation performed for La 5s2 5p6 5d1 6s2

 Converged in 34 iterations to a total energy of -968.0372 eV

Charge spilling parameter for spin component 1 = 0.24%

     Atomic Populations (Mulliken)
Species   Ion     s      p      d      f     Total  Charge (e)
  O        1     1.87   5.00   0.00   0.00   6.87    -0.87
  O        2     1.87   5.00   0.00   0.00   6.87    -0.87
  O        3     1.87   5.00   0.00   0.00   6.87    -0.87
  O        4     1.87   5.00   0.00   0.00   6.87    -0.87
  O        5     1.87   5.00   0.00   0.00   6.87    -0.87
  O        6     1.87   5.00   0.00   0.00   6.87    -0.87
  O        7     1.87   5.00   0.00   0.00   6.87    -0.87
  O        8     1.87   5.00   0.00   0.00   6.87    -0.87
  O        9     1.86   4.95   0.00   0.00   6.80    -0.80
  O       10     1.87   4.99   0.00   0.00   6.86    -0.86
  O       11     1.87   4.99   0.00   0.00   6.86    -0.86
  O       12     1.88   5.02   0.00   0.00   6.91    -0.91
  O       13     1.88   5.02   0.00   0.00   6.91    -0.91
  O       14     1.86   4.95   0.00   0.00   6.80    -0.80
  O       15     1.87   4.99   0.00   0.00   6.86    -0.86
  O       16     1.88   5.02   0.00   0.00   6.91    -0.91
  O       17     1.87   4.99   0.00   0.00   6.86    -0.86
  O       18     1.88   5.03   0.00   0.00   6.91    -0.91
  O       19     1.88   5.02   0.00   0.00   6.91    -0.91
  O       20     1.86   4.95   0.00   0.00   6.80    -0.80
  O       21     1.87   4.99   0.00   0.00   6.86    -0.86
  O       22     1.88   5.02   0.00   0.00   6.91    -0.91
  O       23     1.87   4.99   0.00   0.00   6.86    -0.86
  O       24     1.86   4.95   0.00   0.00   6.80    -0.80
  O       25     1.87   4.99   0.00   0.00   6.85    -0.85
  O       26     1.88   5.02   0.00   0.00   6.91    -0.91
  O       27     1.87   4.99   0.00   0.00   6.86    -0.86
  O       28     1.87   4.99   0.00   0.00   6.86    -0.86
  O       29     1.87   4.99   0.00   0.00   6.86    -0.86
  O       30     1.87   4.99   0.00   0.00   6.86    -0.86
  O       31     1.88   5.02   0.00   0.00   6.91    -0.91
  O       32     1.87   4.99   0.00   0.00   6.86    -0.86
  O       33     1.86   4.95   0.00   0.00   6.80    -0.80
  O       34     1.88   5.02   0.00   0.00   6.91    -0.91
  O       35     1.87   4.99   0.00   0.00   6.86    -0.86
  O       36     1.87   4.99   0.00   0.00   6.86    -0.86
  O       37     1.88   5.02   0.00   0.00   6.91    -0.91
  O       38     1.86   4.95   0.00   0.00   6.80    -0.80
  O       39     1.87   4.99   0.00   0.00   6.86    -0.86
  O       40     1.86   4.95   0.00   0.00   6.80    -0.80
  O       41     1.88   5.02   0.00   0.00   6.91    -0.91
  O       42     1.87   4.99   0.00   0.00   6.86    -0.86
  O       43     1.87   4.99   0.00   0.00   6.86    -0.86
  O       44     1.86   4.95   0.00   0.00   6.80    -0.80
  O       45     1.87   4.99   0.00   0.00   6.86    -0.86
  O       46     1.86   4.95   0.00   0.00   6.80    -0.80
  O       47     1.88   5.02   0.00   0.00   6.91    -0.91
  O       48     1.86   4.95   0.00   0.00   6.80    -0.80
  O       49     1.87   4.99   0.00   0.00   6.86    -0.86
  O       50     1.87   4.99   0.00   0.00   6.85    -0.85
  O       51     1.87   4.99   0.00   0.00   6.86    -0.86
  O       52     1.86   4.95   0.00   0.00   6.80    -0.80
  O       53     1.87   4.99   0.00   0.00   6.86    -0.86
  O       54     1.86   4.95   0.00   0.00   6.80    -0.80
  O       55     1.87   4.99   0.00   0.00   6.86    -0.86
  O       56     1.87   4.99   0.00   0.00   6.86    -0.86
  Zr       1     2.37   6.48   1.92   0.00  10.77     1.23
  Zr       2     2.37   6.50   1.92   0.00  10.79     1.21
  Zr       3     2.37   6.47   1.92   0.00  10.77     1.23
  Zr       4     2.36   6.49   1.92   0.00  10.77     1.23
[...]
  La       2     2.10   6.17   1.19   0.00   9.45     1.55
  La       3     2.06   6.18   1.19   0.00   9.43     1.57
  La       4     2.01   6.15   1.20   0.00   9.35     1.65
  La       5     2.14   6.20   1.19   0.00   9.52     1.48
  La       6     2.03   6.16   1.19   0.00   9.39     1.61
  La       7     2.03   6.16   1.19   0.00   9.38     1.62
  La       8     2.09   6.19   1.19   0.00   9.47     1.53
  La       9     2.12   6.18   1.19   0.00   9.49     1.51
  La      10     2.03   6.16   1.19   0.00   9.39     1.61
  La      11     2.12   6.18   1.19   0.00   9.49     1.51
  La      12     2.05   6.18   1.19   0.00   9.42     1.58
  La      13     2.04   6.16   1.19   0.00   9.39     1.61
  La      14     2.08   6.19   1.19   0.00   9.47     1.53
  La      15     2.05   6.17   1.19   0.00   9.42     1.58
  La      16     2.06   6.17   1.19   0.00   9.42     1.58

            Bond              Population      Length (A)
         O 27 -- Sn 7              0.35        2.09693
         O 53 -- Sn 3              0.34        2.09930
         O 45 -- Sn 7              0.35        2.10000
         O 28 -- Sn 4              0.35        2.10138
         O 36 -- Sn 8              0.34        2.10212
         O 23 -- Sn 2              0.34        2.10244
         O 30 -- Sn 5              0.34        2.10286
         O 10 -- Sn 2              0.35        2.10316
         O 42 -- Sn 5              0.35        2.10348
         O 49 -- Sn 1              0.35        2.10410
         O 18 -- Sn 3              0.34        2.10427
         O 17 -- Sn 8              0.35        2.10487
         O 29 -- Sn 6              0.35        2.10535
         O 18 -- Sn 5              0.34        2.10563
         O 56 -- Sn 4              0.34        2.10593
         O 55 -- Sn 3              0.35        2.10637
         O 39 -- Sn 1              0.35        2.10682
         O 15 -- Sn 7              0.34        2.10777
         O 16 -- Sn 8              0.34        2.10783
         O 43 -- Sn 6              0.35        2.10813
         O 35 -- Sn 7              0.34        2.10947
         O 13 -- Sn 5              0.34        2.10987
         O 11 -- Sn 4              0.35        2.10989
         O 32 -- Sn 8              0.35        2.10991
         O 21 -- Sn 3              0.35        2.11031
         O 13 -- Sn 6              0.33        2.11051
         O 50 -- Sn 5              0.34        2.11053
         O 16 -- Sn 2              0.34        2.11075
         O 52 -- Zr 8              0.42        2.11143
         O 47 -- Sn 1              0.33        2.11164
         O 37 -- Sn 1              0.33        2.11171
         O 33 -- Zr 7              0.42        2.11191
         O 51 -- Sn 2              0.35        2.11223
         O 52 -- Zr 1              0.42        2.11231
         O 22 -- Sn 4              0.34        2.11242
         O 12 -- Sn 6              0.33        2.11258
         O 33 -- Zr 3              0.41        2.11268
         O 22 -- Sn 6              0.33        2.11309
         O 29 -- Zr 4              0.44        2.11320
         O 36 -- Zr 3              0.45        2.11348
         O 38 -- Zr 2              0.42        2.11354
         O 37 -- Sn 4              0.33        2.11408
         O 41 -- Sn 1              0.33        2.11410
         O 44 -- Zr 3              0.44        2.11443
         O 41 -- Sn 8              0.33        2.11448
         O 47 -- Sn 2              0.33        2.11448
         O 25 -- Sn 5              0.34        2.11478
         O 24 -- Zr 6              0.43        2.11527
         O 9  -- Zr 5              0.43        2.11539
         O 28 -- Zr 4              0.44        2.11557
         O 19 -- Sn 4              0.33        2.11560
         O 31 -- Sn 2              0.33        2.11572
         O 48 -- Zr 7              0.42        2.11593
         O 34 -- Sn 6              0.33        2.11602
         O 12 -- Sn 3              0.33        2.11617
         O 17 -- Zr 6              0.44        2.11627
         O 30 -- Zr 8              0.45        2.11714
         O 34 -- Sn 1              0.33        2.11720
         O 42 -- Zr 2              0.44        2.11746
         O 45 -- Zr 1              0.44        2.11781
[...]
         O 39 -- O 54             -0.03        2.82864
         O 36 -- O 46             -0.03        2.82955
         O 14 -- O 30             -0.03        2.83030
         O 46 -- O 53             -0.03        2.83043
         O 45 -- O 54             -0.03        2.83164
         O 20 -- O 23             -0.03        2.83172
         O 48 -- O 50             -0.03        2.83213
         O 51 -- O 55             -0.03        2.83230
         O 15 -- O 32             -0.03        2.83319
         O 11 -- O 21             -0.03        2.83322
         O 25 -- O 39             -0.03        2.83323
         O 17 -- O 25             -0.03        2.83357
         O 43 -- O 51             -0.03        2.83437
         O 35 -- O 43             -0.03        2.83658
         O 11 -- O 32             -0.03        2.83753

Writing analysis data to 080.castep_bin

Writing model to 080.check

 A BibTeX formatted list of references used in this run has been written to
 080.bib

Initialisation time =     54.18 s
Calculation time    =  33737.75 s
Finalisation time   =     36.67 s
Total time          =  33828.60 s

Overall parallel efficiency rating: Good (79%)

Data was distributed by:-
G-vector (4-way); efficiency rating: Good (79%)
k-point (14-way); efficiency rating: Ideal (100%)