 Compiled for linux_x86_64_ifort16 on Sat, 23 Jul 2016 23:44:54 +0100
 from code version
 203e84763863+ Castep161_branch Fri, 04 Mar 2016 19:21:07 +0000
 Compiler: Intel Fortran 16.0.3.210; Optimisation: fast
 MATHLIBS: Intel MKL(11.3.3) (LAPACK version 3.6.0)
 FFT Lib : mkl
 Fundamental constants values: CODATA 2010

 Run started: Thu, 03 May 2018 04:51:17 +0100
 |           N   N    M   M    RRRR                |
 |           NN  N    MM MM    R   R               |
 |           N N N    M M M    RRRR                |
 |           N  NN    M   M    R  R                |
 |           N   N    M   M    R   R               |
 | Welcome to Materials Studio CASTEP-NMR          |
 | Authors:                                        |
 | J.R. Yates, C.J. Pickard, F. Mauri              |
 | Contributors:                                   |
 | T.F.G. Green, S.A. Joyce                        |
 | Copyright (c) 2004 - 2015                       |
 | Please cite the appropriate publications in all |
 | work arising from your use of CASTEP NMR.       |
 | For NMR Shielding Tensors cite:                 |
 |    "All-electron magnetic response with         |
 |    pseudopotentials: NMR chemical shifts",      |
 |    C. J. Pickard, F. Mauri;                     |
 |    Physical Review B63 245101 (2001), and       |
 |    "Calculation of NMR Chemical Shifts          |
 |    for extended systems using                   |
 |    Ultrasoft Pseudopotentials",                 |
 |    J. R. Yates, C. J. Pickard and F. Mauri      |
 |    Physical Review B76 024401 (2007)            |
 | For Electric Field Gradients cite:              |
 |   "Accurate First Principles Prediction of 17O  |
 |    NMR Parameters in SiO2: Assignment of the    |
 |    Zeolite Ferrierite Spectrum"                 |
 |    M. Profeta, F. Mauri and C. J. Pickard       |
 |    J. Amer. Chem. Soc. 125 541 (2003)           |
 | For Spin-Spin (J) Couplings cite:               |
 |   "A first principles theory of NMR J-coupling  |
 |   in solid-state systems"                       |
 |   S.A. Joyce, J.R. Yates, C.J. Pickard, F. Mauri|
 |   J. Chem. Phys. 127 204107 (2007)              |
 |   "Relativistic NMR J-coupling with ultrasoft   |
 |   pseudopotentials and the zeroth-order regular |
 |   approximation"                                |
 |   T.F.G. Green and J.R. Yates                   |
 |   J. Chem. Phys. 140 234106 (2014)              |

 Atomic calculation performed for O: 1s2 2s2 2p4

 Converged in 44 iterations to an ae energy of -2040.855 eV

 Atomic calculation performed for O: 1s2 2s2 2p4

 Exceeded max iterations: converged to 0.000000062 eV

   | Pseudopotential Report - Date of generation  3-05-2018   |
   | Element: O Ionic charge:  6.00 Level of theory: PBE      |
   | Atomic Solver: ZORA (scalar)                             |
   |               Reference Electronic Structure             |
   |         Orbital         Occupation         Energy        |
   |            2s              2.000           -0.881        |
   |            2p              4.000           -0.332        |
   |                 Pseudopotential Definition               |
   |        Beta     l      e      Rc     scheme   norm       |
   |          1      0   -0.881   1.100     qc      0         |
   |          2      0    0.250   1.100     qc      0         |
   |          3      1   -0.332   1.100     qc      0         |
   |          4      1    0.250   1.100     qc      0         |
   |         loc     2    0.000   1.100     pn      0         |
   | Augmentation charge Rinner = 0.769                       |
   | Partial core correction Rc = 0.769                       |
   | "2|1.1|15|18|20|20:21(qc=7)"                             |
   |      Author: Chris J. Pickard, Cambridge University      |

 Atomic calculation performed for Zr: 1s2 2s2 2p6 3s2 3p6 3d10 4s2 4p6 4d2 5s2

[...]

 Atomic calculation performed for Zr: 1s2 2s2 2p6 3s2 3p6 3d10 4s2 4p6 4d2 5s2

[...]

 Warning: ion_atom_descreen_psp: negative charge density encountered
   | Pseudopotential Report - Date of generation  3-05-2018   |
   | Element: Zr Ionic charge: 12.00 Level of theory: PBE     |
   | Atomic Solver: ZORA (scalar)                             |
   |               Reference Electronic Structure             |
   |         Orbital         Occupation         Energy        |
   |            4s              2.000           -2.003        |
   |            4p              6.000           -1.193        |
   |            5s              2.000           -0.163        |
   |            4d              2.000           -0.132        |
   |                 Pseudopotential Definition               |
   |        Beta     l      e      Rc     scheme   norm       |
   |          1      0   -2.003   2.105     qc      0         |
   |          2      0   -0.163   2.105     qc      0         |
   |          3      0    0.250   2.105     qc      0         |
   |          4      1   -1.193   2.105     qc      0         |
   |          5      1    0.250   2.105     qc      0         |
   |          6      2   -0.132   2.105     qc      0         |
   |          7      2    0.250   2.105     qc      0         |
   |         loc     3    0.000   2.105     pn      0         |
   | Augmentation charge Rinner = 1.471                       |
   | Partial core correction Rc = 1.471                       |
   | "3|2.1|7|8|9|40U:50:41:42"                               |
   |      Author: Chris J. Pickard, Cambridge University      |

 Atomic calculation performed for Sn:

[...]

 Atomic calculation performed for Sn:

[...]

   | Pseudopotential Report - Date of generation  3-05-2018   |
   | Element: Sn Ionic charge: 14.00 Level of theory: PBE     |
   | Atomic Solver: ZORA (scalar)                             |
   |               Reference Electronic Structure             |
   |         Orbital         Occupation         Energy        |
   |            4d             10.000           -0.950        |
   |            5s              2.000           -0.388        |
   |            5p              2.000           -0.136        |
   |                 Pseudopotential Definition               |
   |        Beta     l      e      Rc     scheme   norm       |
   |          1      0   -0.388   2.199     qc      0         |
   |          2      0    0.250   2.199     qc      0         |
   |          3      1   -0.136   2.199     qc      0         |
   |          4      1    0.250   2.199     qc      0         |
   |          5      2   -0.950   2.199     qc      0         |
   |          6      2    0.250   2.199     qc      0         |
   |         loc     3    0.000   2.199     pn      0         |
   | Augmentation charge Rinner = 1.537                       |
   | Partial core correction Rc = 1.537                       |
   | "3|2.2|7|8|9|50:51:42"                                   |
   |      Author: Chris J. Pickard, Cambridge University      |

 Atomic calculation performed for La:

 Converged in 56 iterations to an ae energy of -230121.495 eV

 Atomic calculation performed for La:

 Exceeded max iterations: converged to 0.000000907 eV

 Warning: ion_atom_descreen_psp: negative charge density encountered
   | Pseudopotential Report - Date of generation  3-05-2018   |
   | Element: La Ionic charge: 11.00 Level of theory: PBE     |
   | Atomic Solver: ZORA (scalar)                             |
   |               Reference Electronic Structure             |
   |         Orbital         Occupation         Energy        |
   |            5s              2.000           -1.430        |
   |            5p              6.000           -0.823        |
   |            6s              2.000           -0.135        |
   |            5d              1.000           -0.114        |
   |                 Pseudopotential Definition               |
   |        Beta     l      e      Rc     scheme   norm       |
   |          1      0   -1.430   2.298     qc      0         |
   |          2      0   -0.135   2.298     qc      0         |
   |          3      0    0.250   2.298     qc      0         |
   |          4      1   -0.823   2.298     qc      0         |
   |          5      1    0.250   2.298     qc      0         |
   |          6      2   -0.114   2.298     qc      0         |
   |          7      2    0.250   2.298     qc      0         |
   |         loc     2    0.000   2.298     pn      0         |
   | Augmentation charge Rinner = 1.606                       |
   | Partial core correction Rc = 1.606                       |
   | "2|2.3|5|6|7|50U:60:51:52(qc=4.5)"                       |
   |      Author: Chris J. Pickard, Cambridge University      |

 Pseudo atomic calculation performed for O 2s2 2p4

 Converged in 39 iterations to a total energy of -432.6554 eV

 Pseudo atomic calculation performed for Zr 4s2 4p6 4d2 5s2

[...]

 Calculation parallelised over 56 processes.
 Data is distributed by G-vector(4-way) and k-point(14-way)

 ************************************ Title ************************************
 nmr testing

 ***************************** General Parameters ******************************

 output verbosity                               : normal  (1)
 write checkpoint data to                       : 082.check
 type of calculation                            : Magnetic Resonance
 stress calculation                             : on
 density difference calculation                 : off
 electron localisation func (ELF) calculation   : off
 Hirshfeld analysis                             : off
 unlimited duration calculation
 timing information                             : on
 write final potential to formatted file        : off
 write final density to formatted file          : off
 write structure in CIF formatted file          : on
 write structure in CELL formatted file         : on
 write BibTeX reference list                    : on
 write OTFG pseudopotential files               : on
 checkpoint writing                             : both castep_bin and check files

 output         length unit                     : A
 output           mass unit                     : amu
 output           time unit                     : ps
 output         charge unit                     : e
 output           spin unit                     : hbar/2
 output         energy unit                     : eV
 output          force unit                     : eV/A
 output       velocity unit                     : A/ps
 output       pressure unit                     : GPa
 output     inv_length unit                     : 1/A
 output      frequency unit                     : cm-1
 output force constant unit                     : eV/A**2
 output         volume unit                     : A**3
 output   IR intensity unit                     : (D/A)**2/amu
 output         dipole unit                     : D
 output         efield unit                     : eV/A/e
 output        entropy unit                     : J/mol/K

 wavefunctions paging                           : none
 random number generator seed                   : randomised (45118828)
 data distribution                              : optimal for this architecture
[...]
  |    O          42     -165.72     158.08      0.85   1.036E+00   0.87 |
  |    O          43      -84.68      85.31      0.21  -3.163E+00   0.05 |
  |    O          44     -163.17     154.12      0.74   1.070E+00   0.76 |
  |    O          45      -87.19      80.59      0.13  -3.296E+00   0.10 |
  |    O          46     -161.94     137.13      0.77   1.022E+00   0.64 |
  |    O          47      -15.07      57.62      0.53   3.893E+00   0.84 |
  |    O          48      -91.70      79.75      0.16  -3.236E+00   0.12 |
  |    O          49      -88.40      83.22      0.02  -3.261E+00   0.08 |
  |    O          50     -162.10     143.91      0.77   1.023E+00   0.71 |
  |    O          51      -85.38      86.05      0.21  -3.157E+00   0.05 |
  |    O          52     -163.18     153.00      0.74   1.073E+00   0.75 |
  |    O          53      -87.17      82.29      0.12  -3.297E+00   0.10 |
  |    O          54     -162.13     135.94      0.78   1.019E+00   0.64 |
  |    O          55      -89.14      84.48      0.17  -3.169E+00   0.09 |
  |    O          56      -90.02      78.85      0.08  -3.241E+00   0.12 |
  |    Zr          1     1609.93    -114.50      0.06  -3.743E+01   0.09 |
  |    Zr          2     1624.11    -125.35      0.14  -3.620E+01   0.08 |
  |    Zr          3     1609.08    -114.51      0.08  -3.760E+01   0.09 |
  |    Zr          4     1609.84    -113.21      0.03  -3.747E+01   0.05 |
[...]
  |    La          2     4652.75     633.15      0.01  -7.962E+01   0.02 |
  |    La          3     4656.99     649.62      0.09  -8.201E+01   0.15 |
  |    La          4     4749.36     868.58      0.05  -8.793E+01   0.09 |
  |    La          5     4602.23     506.00      0.09  -7.588E+01   0.08 |
  |    La          6     4652.73     631.14      0.01  -7.988E+01   0.02 |
  |    La          7     4705.35     776.24      0.11  -8.551E+01   0.15 |
  |    La          8     4611.07     504.29      0.09  -7.740E+01   0.08 |
  |    La          9     4602.20     505.98      0.09  -7.588E+01   0.08 |
  |    La         10     4701.23     761.35      0.03  -8.316E+01   0.06 |
  |    La         11     4648.59     638.99      0.00  -7.824E+01   0.01 |
  |    La         12     4610.98     504.51      0.09  -7.748E+01   0.08 |
  |    La         13     4652.68     630.54      0.01  -7.981E+01   0.02 |
  |    La         14     4571.56     368.38      0.04  -7.534E+01   0.10 |
  |    La         15     4707.03     786.23      0.10  -8.605E+01   0.14 |
  |    La         16     4701.04     760.81      0.03  -8.311E+01   0.06 |

 *********************** Forces ***********************
 *            Cartesian components (eV/A)             *
 *                   x            y            z      *
 * O         1      0.00611      0.00210     -0.00057 *
 * O         2      0.00250     -0.00064     -0.00623 *
 * O         3      0.00307      0.00085     -0.00458 *
 * O         4     -0.00230     -0.00157     -0.00495 *
 * O         5     -0.00546     -0.00278      0.00185 *
 * O         6     -0.00534     -0.00071      0.00294 *
 * O         7     -0.00172      0.00116      0.00770 *
 * O         8     -0.00267      0.00115      0.00029 *
 * O         9      0.01005     -0.00075     -0.00221 *
 * O        10     -0.01358     -0.02324      0.01471 *
 * O        11     -0.00657     -0.00181      0.00275 *
 * O        12      0.00541     -0.00406      0.00372 *
 * O        13     -0.02621      0.00032     -0.02263 *
 * O        14      0.00291     -0.00132     -0.00524 *
 * O        15     -0.00515     -0.00334      0.00355 *
 * O        16      0.00535      0.00960     -0.00260 *
 * O        17     -0.02964     -0.03098      0.00316 *
 * O        18     -0.02194      0.01567     -0.01165 *
 * O        19     -0.00267      0.00078      0.00054 *
 * O        20      0.00664      0.01728      0.00921 *
 * O        21      0.00176      0.00561     -0.00467 *
 * O        22     -0.01116     -0.00934     -0.00192 *
 * O        23     -0.00706     -0.00464     -0.00610 *
 * O        24     -0.00951      0.00397     -0.00433 *
 * O        25     -0.00435     -0.01317     -0.01247 *
 * O        26     -0.00333      0.00446     -0.00048 *
 * O        27     -0.00627     -0.01532     -0.01548 *
 * O        28      0.01222      0.02601     -0.01184 *
 * O        29      0.02917      0.02705     -0.00309 *
 * O        30     -0.00709      0.00126      0.00634 *
 * O        31      0.00388     -0.00052      0.00325 *
 * O        32     -0.00353      0.00008     -0.01058 *
 * O        33      0.01015     -0.01025      0.01459 *
 * O        34     -0.00620     -0.00876      0.00166 *
 * O        35      0.01174      0.00275     -0.01739 *
 * O        36      0.02535     -0.00372      0.02597 *
 * O        37      0.00040     -0.00390      0.00669 *
 * O        38      0.00099      0.00372     -0.01262 *
 * O        39     -0.02496     -0.01305      0.02222 *
 * O        40      0.00550      0.01000      0.02014 *
 * O        41      0.00736      0.00305     -0.00263 *
 * O        42     -0.01794     -0.00231     -0.00902 *
 * O        43     -0.00793     -0.01680      0.00222 *
 * O        44      0.00752     -0.00198     -0.00766 *
 * O        45      0.01149      0.01224      0.01587 *
 * O        46      0.00489      0.00860      0.01337 *
 * O        47     -0.00216      0.00854     -0.00478 *
 * O        48      0.00189      0.00681      0.00487 *
 * O        49      0.02569      0.01326     -0.01818 *
 * O        50     -0.00407     -0.00963     -0.01663 *
 * O        51     -0.00196      0.01774     -0.01303 *
 * O        52     -0.00913     -0.00019     -0.00124 *
 * O        53      0.01888     -0.01193      0.01909 *
 * O        54     -0.00808     -0.01282     -0.00467 *
 * O        55     -0.01543     -0.00618      0.01029 *
 * O        56      0.00945      0.00689      0.00739 *
 * Zr        1     -0.02605     -0.01012     -0.00366 *
 * Zr        2      0.00902      0.01669     -0.01974 *
 * Zr        3      0.01100      0.00556     -0.00229 *
 * Zr        4      0.00975     -0.00352      0.00310 *
[...]
 * La        2      0.00212      0.01604      0.01681 *
 * La        3     -0.00343      0.00047     -0.00267 *
 * La        4      0.01732     -0.00163      0.01909 *
 * La        5      0.00150     -0.00124      0.00114 *
 * La        6      0.00489      0.01876      0.01321 *
 * La        7     -0.00314     -0.00318     -0.00104 *
 * La        8     -0.00192      0.00285      0.00104 *
 * La        9     -0.00085      0.00028     -0.00044 *
 * La       10     -0.00856     -0.01006     -0.00065 *
 * La       11     -0.00535     -0.01499     -0.01795 *
 * La       12     -0.00324     -0.00128      0.00476 *
 * La       13     -0.00539     -0.00860      0.01154 *
 * La       14      0.00401     -0.00070      0.00453 *
 * La       15     -0.00130      0.00394     -0.00317 *
 * La       16      0.01335      0.00515     -0.01553 *

 ***************** Stress Tensor *****************
 *          Cartesian components (GPa)           *
 *             x             y             z     *
 *  x      0.063991      0.026273     -0.003416  *
 *  y      0.026273      0.046761     -0.025723  *
 *  z     -0.003416     -0.025723      0.046805  *
 *  Pressure:   -0.0525                          *

[...]

 Pseudo atomic calculation performed for Sn 4d10 5s2 5p2

[...]

 Pseudo atomic calculation performed for La 5s2 5p6 5d1 6s2

 Converged in 34 iterations to a total energy of -968.0372 eV

Charge spilling parameter for spin component 1 = 0.24%

     Atomic Populations (Mulliken)
Species   Ion     s      p      d      f     Total  Charge (e)
  O        1     1.87   5.00   0.00   0.00   6.87    -0.87
  O        2     1.87   5.00   0.00   0.00   6.87    -0.87
  O        3     1.87   5.00   0.00   0.00   6.87    -0.87
  O        4     1.87   5.00   0.00   0.00   6.87    -0.87
  O        5     1.87   5.00   0.00   0.00   6.87    -0.87
  O        6     1.87   5.00   0.00   0.00   6.87    -0.87
  O        7     1.87   5.00   0.00   0.00   6.87    -0.87
  O        8     1.87   5.00   0.00   0.00   6.87    -0.87
  O        9     1.86   4.94   0.00   0.00   6.80    -0.80
  O       10     1.87   4.99   0.00   0.00   6.86    -0.86
  O       11     1.88   5.02   0.00   0.00   6.91    -0.91
  O       12     1.88   5.02   0.00   0.00   6.91    -0.91
  O       13     1.87   4.99   0.00   0.00   6.86    -0.86
  O       14     1.86   4.95   0.00   0.00   6.80    -0.80
  O       15     1.88   5.02   0.00   0.00   6.91    -0.91
  O       16     1.88   5.02   0.00   0.00   6.91    -0.91
  O       17     1.87   4.99   0.00   0.00   6.86    -0.86
  O       18     1.87   4.99   0.00   0.00   6.86    -0.86
  O       19     1.88   5.02   0.00   0.00   6.91    -0.91
  O       20     1.86   4.95   0.00   0.00   6.80    -0.80
  O       21     1.88   5.02   0.00   0.00   6.91    -0.91
  O       22     1.88   5.02   0.00   0.00   6.91    -0.91
  O       23     1.87   4.99   0.00   0.00   6.86    -0.86
  O       24     1.86   4.94   0.00   0.00   6.80    -0.80
  O       25     1.86   4.95   0.00   0.00   6.80    -0.80
  O       26     1.88   5.02   0.00   0.00   6.91    -0.91
  O       27     1.87   4.99   0.00   0.00   6.86    -0.86
  O       28     1.87   4.99   0.00   0.00   6.86    -0.86
  O       29     1.87   4.99   0.00   0.00   6.86    -0.86
  O       30     1.86   4.94   0.00   0.00   6.80    -0.80
  O       31     1.88   5.02   0.00   0.00   6.91    -0.91
  O       32     1.88   5.02   0.00   0.00   6.91    -0.91
  O       33     1.87   4.99   0.00   0.00   6.86    -0.86
  O       34     1.88   5.02   0.00   0.00   6.91    -0.91
  O       35     1.87   4.99   0.00   0.00   6.86    -0.86
  O       36     1.87   4.99   0.00   0.00   6.86    -0.86
  O       37     1.88   5.02   0.00   0.00   6.91    -0.91
  O       38     1.86   4.95   0.00   0.00   6.80    -0.80
  O       39     1.87   4.99   0.00   0.00   6.86    -0.86
  O       40     1.86   4.95   0.00   0.00   6.80    -0.80
  O       41     1.88   5.02   0.00   0.00   6.91    -0.91
  O       42     1.86   4.95   0.00   0.00   6.80    -0.80
  O       43     1.87   4.99   0.00   0.00   6.86    -0.86
  O       44     1.86   4.95   0.00   0.00   6.80    -0.80
  O       45     1.87   4.99   0.00   0.00   6.86    -0.86
  O       46     1.86   4.95   0.00   0.00   6.80    -0.80
  O       47     1.88   5.02   0.00   0.00   6.91    -0.91
  O       48     1.87   4.99   0.00   0.00   6.86    -0.86
  O       49     1.87   4.99   0.00   0.00   6.86    -0.86
  O       50     1.86   4.95   0.00   0.00   6.80    -0.80
  O       51     1.87   4.99   0.00   0.00   6.86    -0.86
  O       52     1.86   4.95   0.00   0.00   6.80    -0.80
  O       53     1.87   4.99   0.00   0.00   6.86    -0.86
  O       54     1.86   4.95   0.00   0.00   6.80    -0.80
  O       55     1.87   4.99   0.00   0.00   6.86    -0.86
  O       56     1.87   4.99   0.00   0.00   6.86    -0.86
  Zr       1     2.37   6.49   1.92   0.00  10.77     1.23
  Zr       2     2.37   6.49   1.92   0.00  10.78     1.22
  Zr       3     2.37   6.49   1.92   0.00  10.78     1.22
  Zr       4     2.36   6.49   1.92   0.00  10.77     1.23
[...]
  La       2     2.08   6.17   1.19   0.00   9.44     1.56
  La       3     2.07   6.17   1.19   0.00   9.44     1.56
  La       4     2.01   6.14   1.20   0.00   9.35     1.65
  La       5     2.11   6.19   1.19   0.00   9.49     1.51
  La       6     2.06   6.17   1.19   0.00   9.43     1.57
  La       7     2.03   6.16   1.19   0.00   9.38     1.62
  La       8     2.10   6.19   1.19   0.00   9.48     1.52
  La       9     2.11   6.19   1.19   0.00   9.49     1.51
  La      10     2.04   6.16   1.19   0.00   9.39     1.61
  La      11     2.07   6.17   1.19   0.00   9.43     1.57
  La      12     2.10   6.19   1.19   0.00   9.48     1.52
  La      13     2.06   6.17   1.19   0.00   9.43     1.57
  La      14     2.11   6.21   1.19   0.00   9.51     1.49
  La      15     2.03   6.16   1.20   0.00   9.38     1.62
  La      16     2.04   6.16   1.19   0.00   9.39     1.61

            Bond              Population      Length (A)
         O 53 -- Sn 3              0.35        2.09574
         O 45 -- Sn 7              0.35        2.09585
         O 18 -- Sn 3              0.35        2.09926
         O 27 -- Sn 7              0.35        2.09938
         O 10 -- Sn 2              0.35        2.10011
         O 29 -- Sn 6              0.35        2.10037
         O 49 -- Sn 1              0.35        2.10129
         O 39 -- Sn 1              0.35        2.10134
         O 56 -- Sn 4              0.35        2.10201
         O 36 -- Sn 8              0.34        2.10276
         O 48 -- Sn 5              0.35        2.10302
         O 33 -- Sn 5              0.34        2.10366
         O 23 -- Sn 2              0.34        2.10428
         O 13 -- Sn 6              0.34        2.10499
         O 28 -- Sn 4              0.34        2.10570
         O 17 -- Sn 8              0.34        2.10581
         O 43 -- Sn 6              0.35        2.10720
         O 51 -- Sn 2              0.35        2.10822
         O 17 -- Zr 6              0.44        2.11105
         O 29 -- Zr 4              0.44        2.11116
         O 26 -- Sn 8              0.34        2.11154
         O 55 -- Sn 3              0.34        2.11167
         O 19 -- Sn 4              0.34        2.11174
         O 38 -- Zr 2              0.42        2.11177
         O 35 -- Sn 7              0.34        2.11197
         O 36 -- Zr 3              0.44        2.11238
         O 13 -- Zr 7              0.45        2.11246
         O 42 -- Zr 2              0.42        2.11272
         O 22 -- Sn 6              0.34        2.11275
         O 16 -- Sn 8              0.34        2.11294
         O 52 -- Zr 1              0.43        2.11305
         O 9  -- Zr 5              0.43        2.11319
         O 42 -- Zr 7              0.41        2.11326
         O 44 -- Zr 3              0.43        2.11328
         O 30 -- Zr 7              0.43        2.11395
         O 47 -- Sn 1              0.33        2.11398
         O 9  -- Zr 8              0.43        2.11418
         O 15 -- Sn 5              0.33        2.11423
         O 34 -- Sn 1              0.33        2.11423
         O 34 -- Sn 6              0.33        2.11437
         O 16 -- Sn 2              0.34        2.11438
         O 22 -- Sn 4              0.34        2.11455
         O 21 -- Sn 5              0.33        2.11467
         O 14 -- Zr 4              0.43        2.11487
         O 21 -- Sn 3              0.34        2.11494
         O 47 -- Sn 2              0.33        2.11500
         O 30 -- Zr 8              0.43        2.11513
         O 15 -- Sn 7              0.34        2.11524
         O 24 -- Zr 6              0.43        2.11540
         O 41 -- Sn 8              0.33        2.11575
         O 10 -- Zr 6              0.44        2.11608
         O 26 -- Sn 3              0.33        2.11624
         O 19 -- Sn 7              0.33        2.11625
         O 37 -- Sn 4              0.33        2.11640
         O 28 -- Zr 4              0.44        2.11644
         O 53 -- Zr 3              0.44        2.11683
         O 33 -- Zr 3              0.44        2.11690
         O 45 -- Zr 1              0.43        2.11753
         O 38 -- Zr 5              0.41        2.11755
         O 11 -- Sn 5              0.34        2.11773
[...]
         O 45 -- O 54             -0.03        2.82712
         O 25 -- O 39             -0.03        2.82760
         O 20 -- O 28             -0.03        2.82778
         O 36 -- O 46             -0.03        2.82793
         O 17 -- O 25             -0.03        2.82862
         O 54 -- O 56             -0.03        2.82881
         O 18 -- O 25             -0.03        2.82905
         O 20 -- O 27             -0.03        2.82965
         O 13 -- O 25             -0.03        2.83053
         O 33 -- O 40             -0.03        2.83068
         O 20 -- O 23             -0.03        2.83136
         O 48 -- O 50             -0.03        2.83227
         O 51 -- O 55             -0.03        2.83692
         O 35 -- O 43             -0.03        2.83707
         O 43 -- O 51             -0.03        2.83814

Writing analysis data to 082.castep_bin

Writing model to 082.check

 A BibTeX formatted list of references used in this run has been written to
 082.bib

Initialisation time =     53.49 s
Calculation time    =  33987.33 s
Finalisation time   =     51.85 s
Total time          =  34092.67 s

Overall parallel efficiency rating: Good (78%)

Data was distributed by:-
G-vector (4-way); efficiency rating: Very good (80%)
k-point (14-way); efficiency rating: Excellent (98%)