 Compiled for linux_x86_64_ifort16 on Sat, 23 Jul 2016 23:44:54 +0100
 from code version
 203e84763863+ Castep161_branch Fri, 04 Mar 2016 19:21:07 +0000
 Compiler: Intel Fortran 16.0.3.210; Optimisation: fast
 MATHLIBS: Intel MKL(11.3.3) (LAPACK version 3.6.0)
 FFT Lib : mkl
 Fundamental constants values: CODATA 2010

 Run started: Sat, 05 May 2018 22:46:14 +0100
 |           N   N    M   M    RRRR                |
 |           NN  N    MM MM    R   R               |
 |           N N N    M M M    RRRR                |
 |           N  NN    M   M    R  R                |
 |           N   N    M   M    R   R               |
 | Welcome to Materials Studio CASTEP-NMR          |
 | Authors:                                        |
 | J.R. Yates, C.J. Pickard, F. Mauri              |
 | Contributors:                                   |
 | T.F.G. Green, S.A. Joyce                        |
 | Copyright (c) 2004 - 2015                       |
 | Please cite the appropriate publications in all |
 | work arising from your use of CASTEP NMR.       |
 | For NMR Shielding Tensors cite:                 |
 |    "All-electron magnetic response with         |
 |    pseudopotentials: NMR chemical shifts",      |
 |    C. J. Pickard, F. Mauri;                     |
 |    Physical Review B63 245101 (2001), and       |
 |    "Calculation of NMR Chemical Shifts          |
 |    for extended systems using                   |
 |    Ultrasoft Pseudopotentials",                 |
 |    J. R. Yates, C. J. Pickard and F. Mauri      |
 |    Physical Review B76 024401 (2007)            |
 | For Electric Field Gradients cite:              |
 |   "Accurate First Principles Prediction of 17O  |
 |    NMR Parameters in SiO2: Assignment of the    |
 |    Zeolite Ferrierite Spectrum"                 |
 |    M. Profeta, F. Mauri and C. J. Pickard       |
 |    J. Amer. Chem. Soc. 125 541 (2003)           |
 | For Spin-Spin (J) Couplings cite:               |
 |   "A first principles theory of NMR J-coupling  |
 |   in solid-state systems"                       |
 |   S.A. Joyce, J.R. Yates, C.J. Pickard, F. Mauri|
 |   J. Chem. Phys. 127 204107 (2007)              |
 |   "Relativistic NMR J-coupling with ultrasoft   |
 |   pseudopotentials and the zeroth-order regular |
 |   approximation"                                |
 |   T.F.G. Green and J.R. Yates                   |
 |   J. Chem. Phys. 140 234106 (2014)              |

 Atomic calculation performed for O: 1s2 2s2 2p4

 Converged in 44 iterations to an ae energy of -2040.855 eV

 Atomic calculation performed for O: 1s2 2s2 2p4

 Exceeded max iterations: converged to 0.000000062 eV

   | Pseudopotential Report - Date of generation  5-05-2018   |
   | Element: O Ionic charge:  6.00 Level of theory: PBE      |
   | Atomic Solver: ZORA (scalar)                             |
   |               Reference Electronic Structure             |
   |         Orbital         Occupation         Energy        |
   |            2s              2.000           -0.881        |
   |            2p              4.000           -0.332        |
   |                 Pseudopotential Definition               |
   |        Beta     l      e      Rc     scheme   norm       |
   |          1      0   -0.881   1.100     qc      0         |
   |          2      0    0.250   1.100     qc      0         |
   |          3      1   -0.332   1.100     qc      0         |
   |          4      1    0.250   1.100     qc      0         |
   |         loc     2    0.000   1.100     pn      0         |
   | Augmentation charge Rinner = 0.769                       |
   | Partial core correction Rc = 0.769                       |
   | "2|1.1|15|18|20|20:21(qc=7)"                             |
   |      Author: Chris J. Pickard, Cambridge University      |

 Atomic calculation performed for Zr: 1s2 2s2 2p6 3s2 3p6 3d10 4s2 4p6 4d2 5s2

[...]

 Atomic calculation performed for Zr: 1s2 2s2 2p6 3s2 3p6 3d10 4s2 4p6 4d2 5s2

[...]

 Warning: ion_atom_descreen_psp: negative charge density encountered
   | Pseudopotential Report - Date of generation  5-05-2018   |
   | Element: Zr Ionic charge: 12.00 Level of theory: PBE     |
   | Atomic Solver: ZORA (scalar)                             |
   |               Reference Electronic Structure             |
   |         Orbital         Occupation         Energy        |
   |            4s              2.000           -2.003        |
   |            4p              6.000           -1.193        |
   |            5s              2.000           -0.163        |
   |            4d              2.000           -0.132        |
   |                 Pseudopotential Definition               |
   |        Beta     l      e      Rc     scheme   norm       |
   |          1      0   -2.003   2.105     qc      0         |
   |          2      0   -0.163   2.105     qc      0         |
   |          3      0    0.250   2.105     qc      0         |
   |          4      1   -1.193   2.105     qc      0         |
   |          5      1    0.250   2.105     qc      0         |
   |          6      2   -0.132   2.105     qc      0         |
   |          7      2    0.250   2.105     qc      0         |
   |         loc     3    0.000   2.105     pn      0         |
   | Augmentation charge Rinner = 1.471                       |
   | Partial core correction Rc = 1.471                       |
   | "3|2.1|7|8|9|40U:50:41:42"                               |
   |      Author: Chris J. Pickard, Cambridge University      |

 Atomic calculation performed for Sn:

[...]

 Atomic calculation performed for Sn:

[...]

   | Pseudopotential Report - Date of generation  5-05-2018   |
   | Element: Sn Ionic charge: 14.00 Level of theory: PBE     |
   | Atomic Solver: ZORA (scalar)                             |
   |               Reference Electronic Structure             |
   |         Orbital         Occupation         Energy        |
   |            4d             10.000           -0.950        |
   |            5s              2.000           -0.388        |
   |            5p              2.000           -0.136        |
   |                 Pseudopotential Definition               |
   |        Beta     l      e      Rc     scheme   norm       |
   |          1      0   -0.388   2.199     qc      0         |
   |          2      0    0.250   2.199     qc      0         |
   |          3      1   -0.136   2.199     qc      0         |
   |          4      1    0.250   2.199     qc      0         |
   |          5      2   -0.950   2.199     qc      0         |
   |          6      2    0.250   2.199     qc      0         |
   |         loc     3    0.000   2.199     pn      0         |
   | Augmentation charge Rinner = 1.537                       |
   | Partial core correction Rc = 1.537                       |
   | "3|2.2|7|8|9|50:51:42"                                   |
   |      Author: Chris J. Pickard, Cambridge University      |

 Atomic calculation performed for La:

 Converged in 56 iterations to an ae energy of -230121.495 eV

 Atomic calculation performed for La:

 Exceeded max iterations: converged to 0.000000907 eV

 Warning: ion_atom_descreen_psp: negative charge density encountered
   | Pseudopotential Report - Date of generation  5-05-2018   |
   | Element: La Ionic charge: 11.00 Level of theory: PBE     |
   | Atomic Solver: ZORA (scalar)                             |
   |               Reference Electronic Structure             |
   |         Orbital         Occupation         Energy        |
   |            5s              2.000           -1.430        |
   |            5p              6.000           -0.823        |
   |            6s              2.000           -0.135        |
   |            5d              1.000           -0.114        |
   |                 Pseudopotential Definition               |
   |        Beta     l      e      Rc     scheme   norm       |
   |          1      0   -1.430   2.298     qc      0         |
   |          2      0   -0.135   2.298     qc      0         |
   |          3      0    0.250   2.298     qc      0         |
   |          4      1   -0.823   2.298     qc      0         |
   |          5      1    0.250   2.298     qc      0         |
   |          6      2   -0.114   2.298     qc      0         |
   |          7      2    0.250   2.298     qc      0         |
   |         loc     2    0.000   2.298     pn      0         |
   | Augmentation charge Rinner = 1.606                       |
   | Partial core correction Rc = 1.606                       |
   | "2|2.3|5|6|7|50U:60:51:52(qc=4.5)"                       |
   |      Author: Chris J. Pickard, Cambridge University      |

 Pseudo atomic calculation performed for O 2s2 2p4

 Converged in 39 iterations to a total energy of -432.6554 eV

 Pseudo atomic calculation performed for Zr 4s2 4p6 4d2 5s2

[...]

 Calculation parallelised over 56 processes.
 Data is distributed by G-vector(4-way) and k-point(14-way)

 ************************************ Title ************************************
 nmr testing

 ***************************** General Parameters ******************************

 output verbosity                               : normal  (1)
 write checkpoint data to                       : 089.check
 type of calculation                            : Magnetic Resonance
 stress calculation                             : on
 density difference calculation                 : off
 electron localisation func (ELF) calculation   : off
 Hirshfeld analysis                             : off
 unlimited duration calculation
 timing information                             : on
 write final potential to formatted file        : off
 write final density to formatted file          : off
 write structure in CIF formatted file          : on
 write structure in CELL formatted file         : on
 write BibTeX reference list                    : on
 write OTFG pseudopotential files               : on
 checkpoint writing                             : both castep_bin and check files

 output         length unit                     : A
 output           mass unit                     : amu
 output           time unit                     : ps
 output         charge unit                     : e
 output           spin unit                     : hbar/2
 output         energy unit                     : eV
 output          force unit                     : eV/A
 output       velocity unit                     : A/ps
 output       pressure unit                     : GPa
 output     inv_length unit                     : 1/A
 output      frequency unit                     : cm-1
 output force constant unit                     : eV/A**2
 output         volume unit                     : A**3
 output   IR intensity unit                     : (D/A)**2/amu
 output         dipole unit                     : D
 output         efield unit                     : eV/A/e
 output        entropy unit                     : J/mol/K

 wavefunctions paging                           : none
 random number generator seed                   : randomised (224615658)
 data distribution                              : optimal for this architecture
[...]
  |    O          41      -22.33      39.62      0.78   3.903E+00   0.84 |
  |    O          42      -93.53      86.88      0.14  -3.221E+00   0.12 |
  |    O          43      -88.32      88.47      0.07  -3.208E+00   0.06 |
  |    O          44     -161.49     152.53      0.74   1.034E+00   0.77 |
  |    O          45     -159.07     148.89      0.80   1.117E+00   0.67 |
  |    O          46     -159.80     138.62      0.76   1.079E+00   0.61 |
  |    O          47      -18.96      37.80      0.75   3.934E+00   0.83 |
  |    O          48     -162.62     152.03      0.82   1.006E+00   0.82 |
  |    O          49      -92.40      83.04      0.06  -3.210E+00   0.09 |
  |    O          50      -88.95      79.30      0.25  -3.238E+00   0.12 |
  |    O          51      -87.05      85.13      0.17  -3.109E+00   0.04 |
  |    O          52     -164.01     159.96      0.85   1.094E+00   0.81 |
  |    O          53      -88.23      81.72      0.07  -3.236E+00   0.12 |
  |    O          54      -88.30      86.92      0.17  -3.174E+00   0.09 |
  |    O          55      -87.76      86.44      0.20  -3.213E+00   0.09 |
  |    O          56      -85.92      84.86      0.28  -3.157E+00   0.09 |
  |    Zr          1     1628.92    -125.87      0.03  -3.747E+01   0.18 |
  |    Zr          2     1615.24    -119.33      0.07  -3.644E+01   0.07 |
  |    Zr          3     1623.82    -121.37      0.11  -3.875E+01   0.06 |
  |    Zr          4     1610.21    -112.57      0.08  -3.757E+01   0.07 |
[...]
  |    La          2     4652.36     635.28      0.01  -7.972E+01   0.05 |
  |    La          3     4664.74     619.30      0.01  -8.217E+01   0.02 |
  |    La          4     4746.83     870.74      0.05  -8.565E+01   0.07 |
  |    La          5     4604.51     514.28      0.08  -7.590E+01   0.07 |
  |    La          6     4704.75     751.52      0.04  -8.438E+01   0.09 |
  |    La          7     4653.66     661.91      0.10  -8.126E+01   0.17 |
  |    La          8     4563.98     379.86      0.05  -7.436E+01   0.10 |
  |    La          9     4647.98     634.67      0.00  -7.771E+01   0.03 |
  |    La         10     4659.71     624.50      0.01  -8.101E+01   0.03 |
  |    La         11     4606.42     518.62      0.08  -7.628E+01   0.08 |
  |    La         12     4705.70     750.02      0.04  -8.421E+01   0.09 |
  |    La         13     4700.52     760.11      0.05  -8.311E+01   0.11 |
  |    La         14     4612.24     546.73      0.06  -7.954E+01   0.20 |
  |    La         15     4610.70     507.26      0.08  -7.795E+01   0.09 |
  |    La         16     4701.13     783.01      0.11  -8.381E+01   0.14 |

 *********************** Forces ***********************
 *            Cartesian components (eV/A)             *
 *                   x            y            z      *
 * O         1     -0.00249      0.00344     -0.00380 *
 * O         2      0.00087     -0.00375     -0.01439 *
 * O         3      0.00786      0.00034     -0.00711 *
 * O         4     -0.00512      0.00102     -0.00057 *
 * O         5     -0.01370     -0.00887     -0.00177 *
 * O         6     -0.01185     -0.00527      0.00380 *
 * O         7      0.00221      0.00233      0.00599 *
 * O         8      0.01022     -0.00897     -0.00072 *
 * O         9      0.01927      0.01191      0.01816 *
 * O        10     -0.00694     -0.01084     -0.00287 *
 * O        11     -0.00393     -0.02189      0.02064 *
 * O        12     -0.00020     -0.01064     -0.00751 *
 * O        13     -0.00164      0.01012     -0.00014 *
 * O        14      0.00335      0.00468      0.00532 *
 * O        15     -0.00150     -0.01286     -0.00569 *
 * O        16      0.00188      0.01080     -0.00715 *
 * O        17     -0.00602     -0.00692      0.00875 *
 * O        18      0.00674     -0.00439     -0.01735 *
 * O        19      0.00977     -0.01818     -0.00693 *
 * O        20      0.01822      0.01175      0.00854 *
 * O        21      0.01600     -0.00063     -0.02603 *
 * O        22     -0.00241     -0.01520      0.00929 *
 * O        23     -0.01939     -0.00286     -0.02669 *
 * O        24     -0.01180      0.00203      0.01962 *
 * O        25      0.01360     -0.00103     -0.01069 *
 * O        26     -0.01446      0.00367      0.00343 *
 * O        27     -0.01963     -0.00886     -0.00400 *
 * O        28      0.02122      0.02381     -0.01444 *
 * O        29      0.02810      0.03789     -0.00347 *
 * O        30     -0.01105      0.02409      0.00988 *
 * O        31     -0.01370      0.01978     -0.00722 *
 * O        32      0.02447      0.02476     -0.00925 *
 * O        33      0.02543      0.00290     -0.00574 *
 * O        34     -0.01532     -0.00425     -0.00275 *
 * O        35      0.00172      0.00548      0.00369 *
 * O        36      0.01829     -0.00194      0.02677 *
 * O        37     -0.00171     -0.01395      0.00545 *
 * O        38     -0.00010     -0.02318     -0.01210 *
 * O        39     -0.01050     -0.01636      0.00971 *
 * O        40      0.01232      0.01425      0.02373 *
 * O        41      0.00315      0.00382     -0.00145 *
 * O        42     -0.01823     -0.02270      0.02046 *
 * O        43     -0.02848     -0.02847      0.00431 *
 * O        44      0.00417     -0.00193     -0.00066 *
 * O        45      0.01794     -0.00177     -0.00572 *
 * O        46     -0.00763      0.00001      0.00720 *
 * O        47     -0.00735      0.00501     -0.01438 *
 * O        48     -0.00491      0.00065      0.00562 *
 * O        49      0.02413      0.01252     -0.02809 *
 * O        50     -0.00604     -0.01039     -0.02519 *
 * O        51     -0.00664      0.01403     -0.01905 *
 * O        52     -0.01497      0.01053      0.00830 *
 * O        53      0.00563     -0.01028      0.01631 *
 * O        54     -0.00777     -0.01575     -0.00943 *
 * O        55     -0.02695     -0.01635      0.01218 *
 * O        56      0.00947     -0.00035      0.01336 *
 * Zr        1     -0.01786      0.00608      0.04358 *
 * Zr        2     -0.00083      0.01789     -0.02545 *
 * Zr        3      0.00989      0.02011     -0.02172 *
 * Zr        4     -0.01226     -0.02487      0.00386 *
[...]
 * La        2      0.01580      0.00624      0.02117 *
 * La        3     -0.01369     -0.00952     -0.01475 *
 * La        4     -0.01555     -0.00012     -0.01425 *
 * La        5     -0.01825     -0.00121      0.00138 *
 * La        6      0.02688      0.01260     -0.00557 *
 * La        7     -0.00618     -0.01095      0.00127 *
 * La        8     -0.00099      0.00787      0.00198 *
 * La        9      0.00523     -0.00382     -0.00575 *
 * La       10     -0.00222      0.00691     -0.00666 *
 * La       11      0.00899     -0.02114      0.00177 *
 * La       12      0.00179      0.00798      0.01039 *
 * La       13     -0.02947      0.01056      0.01199 *
 * La       14      0.00449     -0.00746     -0.00703 *
 * La       15      0.01406      0.00016      0.00238 *
 * La       16      0.00349     -0.00426     -0.01064 *

 ***************** Stress Tensor *****************
 *          Cartesian components (GPa)           *
 *             x             y             z     *
 *  x      0.086674      0.033819     -0.029660  *
 *  y      0.033819      0.051160     -0.006135  *
 *  z     -0.029660     -0.006135      0.041465  *
 *  Pressure:   -0.0598                          *

[...]

 Pseudo atomic calculation performed for Sn 4d10 5s2 5p2

[...]

 Pseudo atomic calculation performed for La 5s2 5p6 5d1 6s2

 Converged in 34 iterations to a total energy of -968.0372 eV

Charge spilling parameter for spin component 1 = 0.24%

     Atomic Populations (Mulliken)
Species   Ion     s      p      d      f     Total  Charge (e)
  O        1     1.87   5.00   0.00   0.00   6.87    -0.87
  O        2     1.87   5.00   0.00   0.00   6.87    -0.87
  O        3     1.87   5.00   0.00   0.00   6.87    -0.87
  O        4     1.87   5.00   0.00   0.00   6.87    -0.87
  O        5     1.87   5.00   0.00   0.00   6.87    -0.87
  O        6     1.87   5.00   0.00   0.00   6.87    -0.87
  O        7     1.87   5.00   0.00   0.00   6.87    -0.87
  O        8     1.87   5.00   0.00   0.00   6.87    -0.87
  O        9     1.86   4.95   0.00   0.00   6.80    -0.80
  O       10     1.88   5.03   0.00   0.00   6.91    -0.91
  O       11     1.87   4.99   0.00   0.00   6.86    -0.86
  O       12     1.88   5.02   0.00   0.00   6.91    -0.91
  O       13     1.88   5.02   0.00   0.00   6.91    -0.91
  O       14     1.86   4.95   0.00   0.00   6.80    -0.80
  O       15     1.86   4.95   0.00   0.00   6.80    -0.80
  O       16     1.88   5.03   0.00   0.00   6.91    -0.91
  O       17     1.88   5.02   0.00   0.00   6.91    -0.91
  O       18     1.88   5.02   0.00   0.00   6.91    -0.91
  O       19     1.87   4.99   0.00   0.00   6.85    -0.85
  O       20     1.86   4.95   0.00   0.00   6.80    -0.80
  O       21     1.87   4.99   0.00   0.00   6.86    -0.86
  O       22     1.88   5.02   0.00   0.00   6.91    -0.91
  O       23     1.87   4.99   0.00   0.00   6.86    -0.86
  O       24     1.87   4.99   0.00   0.00   6.86    -0.86
  O       25     1.88   5.02   0.00   0.00   6.90    -0.90
  O       26     1.88   5.02   0.00   0.00   6.91    -0.91
  O       27     1.86   4.95   0.00   0.00   6.80    -0.80
  O       28     1.87   4.99   0.00   0.00   6.86    -0.86
  O       29     1.87   4.99   0.00   0.00   6.86    -0.86
  O       30     1.87   4.99   0.00   0.00   6.86    -0.86
  O       31     1.87   4.99   0.00   0.00   6.86    -0.86
  O       32     1.87   4.99   0.00   0.00   6.86    -0.86
  O       33     1.85   4.95   0.00   0.00   6.80    -0.80
  O       34     1.88   5.02   0.00   0.00   6.91    -0.91
  O       35     1.86   4.95   0.00   0.00   6.80    -0.80
  O       36     1.87   4.99   0.00   0.00   6.86    -0.86
  O       37     1.88   5.02   0.00   0.00   6.91    -0.91
  O       38     1.86   4.95   0.00   0.00   6.80    -0.80
  O       39     1.88   5.02   0.00   0.00   6.91    -0.91
  O       40     1.86   4.94   0.00   0.00   6.80    -0.80
  O       41     1.88   5.03   0.00   0.00   6.91    -0.91
  O       42     1.87   4.99   0.00   0.00   6.86    -0.86
  O       43     1.87   4.99   0.00   0.00   6.86    -0.86
  O       44     1.86   4.95   0.00   0.00   6.80    -0.80
  O       45     1.86   4.95   0.00   0.00   6.80    -0.80
  O       46     1.86   4.95   0.00   0.00   6.80    -0.80
  O       47     1.88   5.03   0.00   0.00   6.91    -0.91
  O       48     1.86   4.95   0.00   0.00   6.80    -0.80
  O       49     1.87   4.99   0.00   0.00   6.86    -0.86
  O       50     1.87   4.99   0.00   0.00   6.86    -0.86
  O       51     1.87   4.99   0.00   0.00   6.85    -0.85
  O       52     1.85   4.95   0.00   0.00   6.80    -0.80
  O       53     1.87   4.99   0.00   0.00   6.86    -0.86
  O       54     1.87   4.99   0.00   0.00   6.86    -0.86
  O       55     1.87   4.99   0.00   0.00   6.86    -0.86
  O       56     1.87   4.99   0.00   0.00   6.85    -0.85
  Zr       1     2.37   6.48   1.92   0.00  10.77     1.23
  Zr       2     2.37   6.49   1.92   0.00  10.78     1.22
  Zr       3     2.37   6.47   1.92   0.00  10.77     1.23
  Zr       4     2.36   6.49   1.92   0.00  10.77     1.23
[...]
  La       2     2.09   6.17   1.19   0.00   9.45     1.55
  La       3     2.07   6.18   1.19   0.00   9.44     1.56
  La       4     2.01   6.14   1.20   0.00   9.35     1.65
  La       5     2.11   6.19   1.19   0.00   9.49     1.51
  La       6     2.03   6.16   1.19   0.00   9.39     1.61
  La       7     2.06   6.17   1.19   0.00   9.42     1.58
  La       8     2.12   6.21   1.19   0.00   9.51     1.49
  La       9     2.08   6.17   1.19   0.00   9.44     1.56
  La      10     2.06   6.18   1.19   0.00   9.43     1.57
  La      11     2.11   6.18   1.19   0.00   9.48     1.52
  La      12     2.04   6.16   1.19   0.00   9.39     1.61
  La      13     2.04   6.16   1.19   0.00   9.39     1.61
  La      14     2.10   6.19   1.19   0.00   9.47     1.53
  La      15     2.10   6.19   1.19   0.00   9.48     1.52
  La      16     2.03   6.15   1.20   0.00   9.38     1.62

            Bond              Population      Length (A)
         O 28 -- Sn 5              0.35        2.09703
         O 53 -- Sn 3              0.34        2.10173
         O 16 -- Sn 8              0.34        2.10231
         O 30 -- Sn 6              0.34        2.10232
         O 36 -- Sn 8              0.35        2.10272
         O 29 -- Sn 7              0.35        2.10305
         O 55 -- Sn 3              0.35        2.10321
         O 50 -- Sn 6              0.34        2.10518
         O 10 -- Sn 2              0.34        2.10519
         O 52 -- Zr 7              0.41        2.10535
         O 16 -- Sn 2              0.34        2.10549
         O 42 -- Sn 6              0.34        2.10570
         O 43 -- Sn 7              0.35        2.10591
         O 10 -- Sn 4              0.34        2.10620
         O 21 -- Sn 3              0.35        2.10705
         O 47 -- Sn 1              0.34        2.10706
         O 24 -- Sn 4              0.35        2.10710
         O 49 -- Sn 1              0.34        2.10753
         O 23 -- Sn 2              0.34        2.10767
         O 47 -- Sn 2              0.34        2.10780
         O 19 -- Sn 5              0.34        2.10841
         O 33 -- Zr 3              0.41        2.10919
         O 17 -- Sn 4              0.34        2.10942
         O 18 -- Sn 3              0.34        2.10954
         O 22 -- Sn 5              0.34        2.10989
         O 31 -- Sn 2              0.34        2.11011
         O 27 -- Zr 8              0.42        2.11028
         O 22 -- Sn 7              0.33        2.11031
         O 54 -- Sn 4              0.34        2.11031
         O 18 -- Sn 6              0.34        2.11063
         O 17 -- Sn 8              0.34        2.11095
         O 11 -- Sn 5              0.35        2.11098
         O 52 -- Zr 1              0.41        2.11133
         O 33 -- Zr 6              0.42        2.11140
         O 39 -- Sn 4              0.34        2.11158
         O 41 -- Sn 1              0.34        2.11170
         O 28 -- Zr 4              0.44        2.11201
         O 37 -- Sn 1              0.34        2.11208
         O 29 -- Zr 4              0.44        2.11229
         O 32 -- Sn 8              0.34        2.11240
         O 56 -- Sn 5              0.34        2.11240
         O 37 -- Sn 5              0.33        2.11269
         O 41 -- Sn 8              0.33        2.11291
         O 13 -- Sn 6              0.34        2.11336
         O 13 -- Sn 7              0.33        2.11399
         O 12 -- Sn 7              0.33        2.11411
         O 27 -- Zr 5              0.41        2.11453
         O 45 -- Zr 1              0.42        2.11496
         O 39 -- Sn 1              0.34        2.11504
         O 12 -- Sn 3              0.33        2.11574
         O 9  -- Zr 5              0.43        2.11638
         O 42 -- Zr 2              0.44        2.11685
         O 38 -- Zr 2              0.42        2.11716
         O 45 -- Zr 8              0.42        2.11723
         O 36 -- Zr 3              0.45        2.11735
         O 15 -- Zr 8              0.42        2.11806
         O 30 -- Zr 7              0.44        2.11810
         O 51 -- Sn 2              0.34        2.11824
         O 35 -- Zr 2              0.42        2.11856
         O 38 -- Zr 5              0.42        2.11887
[...]
         O 36 -- O 44             -0.03        2.82790
         O 15 -- O 32             -0.03        2.82804
         O 21 -- O 48             -0.03        2.82866
         O 20 -- O 49             -0.03        2.82873
         O 14 -- O 29             -0.03        2.82882
         O 36 -- O 46             -0.03        2.82905
         O 46 -- O 53             -0.03        2.82975
         O 9  -- O 24             -0.03        2.83099
         O 35 -- O 43             -0.03        2.83117
         O 45 -- O 54             -0.03        2.83276
         O 43 -- O 51             -0.03        2.83373
         O 51 -- O 55             -0.03        2.83530
         O 54 -- O 56             -0.03        2.83617
         O 11 -- O 32             -0.03        2.83643
         O 11 -- O 21             -0.03        2.83651

Writing analysis data to 089.castep_bin

Writing model to 089.check

 A BibTeX formatted list of references used in this run has been written to
 089.bib

Initialisation time =     53.86 s
Calculation time    =  33870.32 s
Finalisation time   =     44.25 s
Total time          =  33968.43 s

Overall parallel efficiency rating: Good (78%)

Data was distributed by:-
G-vector (4-way); efficiency rating: Good (79%)
k-point (14-way); efficiency rating: Ideal (100%)