 Compiled for linux_x86_64_ifort16 on Sat, 23 Jul 2016 23:44:54 +0100
 from code version
 203e84763863+ Castep161_branch Fri, 04 Mar 2016 19:21:07 +0000
 Compiler: Intel Fortran 16.0.3.210; Optimisation: fast
 MATHLIBS: Intel MKL(11.3.3) (LAPACK version 3.6.0)
 FFT Lib : mkl
 Fundamental constants values: CODATA 2010

 Run started: Sun, 06 May 2018 17:38:55 +0100
 |           N   N    M   M    RRRR                |
 |           NN  N    MM MM    R   R               |
 |           N N N    M M M    RRRR                |
 |           N  NN    M   M    R  R                |
 |           N   N    M   M    R   R               |
 | Welcome to Materials Studio CASTEP-NMR          |
 | Authors:                                        |
 | J.R. Yates, C.J. Pickard, F. Mauri              |
 | Contributors:                                   |
 | T.F.G. Green, S.A. Joyce                        |
 | Copyright (c) 2004 - 2015                       |
 | Please cite the appropriate publications in all |
 | work arising from your use of CASTEP NMR.       |
 | For NMR Shielding Tensors cite:                 |
 |    "All-electron magnetic response with         |
 |    pseudopotentials: NMR chemical shifts",      |
 |    C. J. Pickard, F. Mauri;                     |
 |    Physical Review B63 245101 (2001), and       |
 |    "Calculation of NMR Chemical Shifts          |
 |    for extended systems using                   |
 |    Ultrasoft Pseudopotentials",                 |
 |    J. R. Yates, C. J. Pickard and F. Mauri      |
 |    Physical Review B76 024401 (2007)            |
 | For Electric Field Gradients cite:              |
 |   "Accurate First Principles Prediction of 17O  |
 |    NMR Parameters in SiO2: Assignment of the    |
 |    Zeolite Ferrierite Spectrum"                 |
 |    M. Profeta, F. Mauri and C. J. Pickard       |
 |    J. Amer. Chem. Soc. 125 541 (2003)           |
 | For Spin-Spin (J) Couplings cite:               |
 |   "A first principles theory of NMR J-coupling  |
 |   in solid-state systems"                       |
 |   S.A. Joyce, J.R. Yates, C.J. Pickard, F. Mauri|
 |   J. Chem. Phys. 127 204107 (2007)              |
 |   "Relativistic NMR J-coupling with ultrasoft   |
 |   pseudopotentials and the zeroth-order regular |
 |   approximation"                                |
 |   T.F.G. Green and J.R. Yates                   |
 |   J. Chem. Phys. 140 234106 (2014)              |

 Atomic calculation performed for O: 1s2 2s2 2p4

 Converged in 44 iterations to an ae energy of -2040.855 eV

 Atomic calculation performed for O: 1s2 2s2 2p4

 Exceeded max iterations: converged to 0.000000062 eV

   | Pseudopotential Report - Date of generation  6-05-2018   |
   | Element: O Ionic charge:  6.00 Level of theory: PBE      |
   | Atomic Solver: ZORA (scalar)                             |
   |               Reference Electronic Structure             |
   |         Orbital         Occupation         Energy        |
   |            2s              2.000           -0.881        |
   |            2p              4.000           -0.332        |
   |                 Pseudopotential Definition               |
   |        Beta     l      e      Rc     scheme   norm       |
   |          1      0   -0.881   1.100     qc      0         |
   |          2      0    0.250   1.100     qc      0         |
   |          3      1   -0.332   1.100     qc      0         |
   |          4      1    0.250   1.100     qc      0         |
   |         loc     2    0.000   1.100     pn      0         |
   | Augmentation charge Rinner = 0.769                       |
   | Partial core correction Rc = 0.769                       |
   | "2|1.1|15|18|20|20:21(qc=7)"                             |
   |      Author: Chris J. Pickard, Cambridge University      |

 Atomic calculation performed for Zr: 1s2 2s2 2p6 3s2 3p6 3d10 4s2 4p6 4d2 5s2

[...]

 Atomic calculation performed for Zr: 1s2 2s2 2p6 3s2 3p6 3d10 4s2 4p6 4d2 5s2

[...]

 Warning: ion_atom_descreen_psp: negative charge density encountered
   | Pseudopotential Report - Date of generation  6-05-2018   |
   | Element: Zr Ionic charge: 12.00 Level of theory: PBE     |
   | Atomic Solver: ZORA (scalar)                             |
   |               Reference Electronic Structure             |
   |         Orbital         Occupation         Energy        |
   |            4s              2.000           -2.003        |
   |            4p              6.000           -1.193        |
   |            5s              2.000           -0.163        |
   |            4d              2.000           -0.132        |
   |                 Pseudopotential Definition               |
   |        Beta     l      e      Rc     scheme   norm       |
   |          1      0   -2.003   2.105     qc      0         |
   |          2      0   -0.163   2.105     qc      0         |
   |          3      0    0.250   2.105     qc      0         |
   |          4      1   -1.193   2.105     qc      0         |
   |          5      1    0.250   2.105     qc      0         |
   |          6      2   -0.132   2.105     qc      0         |
   |          7      2    0.250   2.105     qc      0         |
   |         loc     3    0.000   2.105     pn      0         |
   | Augmentation charge Rinner = 1.471                       |
   | Partial core correction Rc = 1.471                       |
   | "3|2.1|7|8|9|40U:50:41:42"                               |
   |      Author: Chris J. Pickard, Cambridge University      |

 Atomic calculation performed for Sn:

[...]

 Atomic calculation performed for Sn:

[...]

   | Pseudopotential Report - Date of generation  6-05-2018   |
   | Element: Sn Ionic charge: 14.00 Level of theory: PBE     |
   | Atomic Solver: ZORA (scalar)                             |
   |               Reference Electronic Structure             |
   |         Orbital         Occupation         Energy        |
   |            4d             10.000           -0.950        |
   |            5s              2.000           -0.388        |
   |            5p              2.000           -0.136        |
   |                 Pseudopotential Definition               |
   |        Beta     l      e      Rc     scheme   norm       |
   |          1      0   -0.388   2.199     qc      0         |
   |          2      0    0.250   2.199     qc      0         |
   |          3      1   -0.136   2.199     qc      0         |
   |          4      1    0.250   2.199     qc      0         |
   |          5      2   -0.950   2.199     qc      0         |
   |          6      2    0.250   2.199     qc      0         |
   |         loc     3    0.000   2.199     pn      0         |
   | Augmentation charge Rinner = 1.537                       |
   | Partial core correction Rc = 1.537                       |
   | "3|2.2|7|8|9|50:51:42"                                   |
   |      Author: Chris J. Pickard, Cambridge University      |

 Atomic calculation performed for La:

 Converged in 56 iterations to an ae energy of -230121.495 eV

 Atomic calculation performed for La:

 Exceeded max iterations: converged to 0.000000907 eV

 Warning: ion_atom_descreen_psp: negative charge density encountered
   | Pseudopotential Report - Date of generation  6-05-2018   |
   | Element: La Ionic charge: 11.00 Level of theory: PBE     |
   | Atomic Solver: ZORA (scalar)                             |
   |               Reference Electronic Structure             |
   |         Orbital         Occupation         Energy        |
   |            5s              2.000           -1.430        |
   |            5p              6.000           -0.823        |
   |            6s              2.000           -0.135        |
   |            5d              1.000           -0.114        |
   |                 Pseudopotential Definition               |
   |        Beta     l      e      Rc     scheme   norm       |
   |          1      0   -1.430   2.298     qc      0         |
   |          2      0   -0.135   2.298     qc      0         |
   |          3      0    0.250   2.298     qc      0         |
   |          4      1   -0.823   2.298     qc      0         |
   |          5      1    0.250   2.298     qc      0         |
   |          6      2   -0.114   2.298     qc      0         |
   |          7      2    0.250   2.298     qc      0         |
   |         loc     2    0.000   2.298     pn      0         |
   | Augmentation charge Rinner = 1.606                       |
   | Partial core correction Rc = 1.606                       |
   | "2|2.3|5|6|7|50U:60:51:52(qc=4.5)"                       |
   |      Author: Chris J. Pickard, Cambridge University      |

 Pseudo atomic calculation performed for O 2s2 2p4

 Converged in 39 iterations to a total energy of -432.6554 eV

 Pseudo atomic calculation performed for Zr 4s2 4p6 4d2 5s2

[...]

 Calculation parallelised over 56 processes.
 Data is distributed by G-vector(4-way) and k-point(14-way)

 ************************************ Title ************************************
 nmr testing

 ***************************** General Parameters ******************************

 output verbosity                               : normal  (1)
 write checkpoint data to                       : 091.check
 type of calculation                            : Magnetic Resonance
 stress calculation                             : on
 density difference calculation                 : off
 electron localisation func (ELF) calculation   : off
 Hirshfeld analysis                             : off
 unlimited duration calculation
 timing information                             : on
 write final potential to formatted file        : off
 write final density to formatted file          : off
 write structure in CIF formatted file          : on
 write structure in CELL formatted file         : on
 write BibTeX reference list                    : on
 write OTFG pseudopotential files               : on
 checkpoint writing                             : both castep_bin and check files

 output         length unit                     : A
 output           mass unit                     : amu
 output           time unit                     : ps
 output         charge unit                     : e
 output           spin unit                     : hbar/2
 output         energy unit                     : eV
 output          force unit                     : eV/A
 output       velocity unit                     : A/ps
 output       pressure unit                     : GPa
 output     inv_length unit                     : 1/A
 output      frequency unit                     : cm-1
 output force constant unit                     : eV/A**2
 output         volume unit                     : A**3
 output   IR intensity unit                     : (D/A)**2/amu
 output         dipole unit                     : D
 output         efield unit                     : eV/A/e
 output        entropy unit                     : J/mol/K

 wavefunctions paging                           : none
 random number generator seed                   : randomised (173858412)
 data distribution                              : optimal for this architecture
[...]
  |    O          42     -166.60     158.18      0.83   1.007E+00   0.98 |
  |    O          43      -84.29      88.86      0.06  -3.210E+00   0.06 |
  |    O          44     -160.46     146.72      0.75   1.068E+00   0.68 |
  |    O          45     -160.67     154.89      0.85   1.114E+00   0.72 |
  |    O          46     -161.06     136.40      0.77   1.055E+00   0.61 |
  |    O          47      -19.09      38.58      0.81   3.902E+00   0.83 |
  |    O          48      -89.14      78.01      0.22  -3.231E+00   0.12 |
  |    O          49      -89.45      79.32      0.07  -3.244E+00   0.09 |
  |    O          50     -161.83     152.51      0.80   1.026E+00   0.80 |
  |    O          51      -83.20      84.75      0.23  -3.095E+00   0.06 |
  |    O          52     -162.11     154.65      0.79   1.116E+00   0.74 |
  |    O          53      -88.48      82.70      0.11  -3.275E+00   0.10 |
  |    O          54      -86.57      84.80      0.19  -3.146E+00   0.07 |
  |    O          55      -86.95      85.99      0.17  -3.164E+00   0.10 |
  |    O          56      -86.54      85.51      0.27  -3.178E+00   0.11 |
  |    Zr          1     1629.55    -125.34      0.10  -3.732E+01   0.20 |
  |    Zr          2     1630.78    -127.88      0.20  -3.726E+01   0.04 |
  |    Zr          3     1610.91    -112.68      0.03  -3.752E+01   0.01 |
  |    Zr          4     1610.73    -112.59      0.02  -3.752E+01   0.03 |
[...]
  |    La          2     4658.42     629.63      0.02  -8.106E+01   0.02 |
  |    La          3     4656.72     626.43      0.00  -8.107E+01   0.05 |
  |    La          4     4746.07     872.96      0.05  -8.596E+01   0.08 |
  |    La          5     4656.71     625.83      0.00  -8.104E+01   0.04 |
  |    La          6     4652.40     631.53      0.01  -7.943E+01   0.00 |
  |    La          7     4653.31     664.76      0.10  -8.146E+01   0.16 |
  |    La          8     4562.20     378.31      0.05  -7.450E+01   0.12 |
  |    La          9     4651.93     626.88      0.01  -7.915E+01   0.00 |
  |    La         10     4653.95     634.29      0.01  -7.979E+01   0.04 |
  |    La         11     4653.84     634.64      0.01  -7.982E+01   0.04 |
  |    La         12     4658.15     625.36      0.02  -8.079E+01   0.02 |
  |    La         13     4653.61     668.24      0.10  -8.162E+01   0.16 |
  |    La         14     4562.06     380.01      0.05  -7.474E+01   0.12 |
  |    La         15     4657.28     660.51      0.08  -8.301E+01   0.16 |
  |    La         16     4746.11     874.82      0.05  -8.603E+01   0.08 |

 *********************** Forces ***********************
 *            Cartesian components (eV/A)             *
 *                   x            y            z      *
 * O         1      0.00003      0.00096     -0.00003 *
 * O         2      0.00301     -0.00128     -0.00536 *
 * O         3      0.00816     -0.00165      0.00010 *
 * O         4     -0.00753     -0.00557     -0.00064 *
 * O         5     -0.01481     -0.00315     -0.00436 *
 * O         6     -0.01098     -0.00191      0.00019 *
 * O         7     -0.00082      0.00880      0.00803 *
 * O         8      0.00000     -0.00731     -0.00562 *
 * O         9     -0.00166      0.00929      0.01146 *
 * O        10      0.00378     -0.00092     -0.00303 *
 * O        11     -0.00874     -0.00025     -0.00039 *
 * O        12     -0.00583     -0.00704     -0.00185 *
 * O        13     -0.02880     -0.00640     -0.02060 *
 * O        14      0.00230      0.01761     -0.00262 *
 * O        15      0.01128      0.00270     -0.02296 *
 * O        16     -0.00696     -0.00230     -0.01642 *
 * O        17     -0.01176     -0.01446     -0.00407 *
 * O        18     -0.02245      0.02223      0.00317 *
 * O        19      0.00919     -0.02203      0.00556 *
 * O        20      0.01844      0.01938     -0.00034 *
 * O        21     -0.00803     -0.00315     -0.00584 *
 * O        22     -0.00662     -0.00338      0.00490 *
 * O        23     -0.02085      0.01456     -0.01872 *
 * O        24     -0.01897     -0.01114      0.02266 *
 * O        25     -0.01458     -0.02383      0.01000 *
 * O        26      0.00227      0.00900      0.00753 *
 * O        27     -0.00331     -0.01580     -0.00727 *
 * O        28      0.00227      0.03002     -0.00796 *
 * O        29      0.02997      0.03629      0.00693 *
 * O        30      0.00347      0.01275      0.00066 *
 * O        31     -0.01230      0.01716     -0.01996 *
 * O        32      0.00264      0.00669     -0.00464 *
 * O        33      0.00267     -0.02074      0.01520 *
 * O        34      0.00269     -0.00577     -0.00312 *
 * O        35      0.00567     -0.01094      0.00345 *
 * O        36      0.03123      0.00974      0.03682 *
 * O        37      0.00129     -0.00783      0.00041 *
 * O        38     -0.00247     -0.01929      0.00062 *
 * O        39     -0.01027      0.00004      0.01940 *
 * O        40      0.01024     -0.00565      0.02481 *
 * O        41     -0.00463     -0.00121     -0.00557 *
 * O        42     -0.01066     -0.00615     -0.00369 *
 * O        43     -0.02404     -0.02960     -0.00900 *
 * O        44      0.00994      0.00082      0.01564 *
 * O        45      0.00022     -0.00547     -0.00649 *
 * O        46      0.01005      0.00986      0.00787 *
 * O        47     -0.00915      0.01406      0.00149 *
 * O        48      0.00988      0.01519     -0.00956 *
 * O        49      0.02381      0.00314     -0.02299 *
 * O        50      0.00370     -0.00087     -0.01444 *
 * O        51     -0.01784      0.01659     -0.01621 *
 * O        52      0.00437      0.01035      0.00333 *
 * O        53      0.01922     -0.02060      0.00702 *
 * O        54     -0.01228     -0.02138      0.01116 *
 * O        55     -0.02202     -0.00052      0.01325 *
 * O        56      0.01027     -0.00585      0.01330 *
 * Zr        1     -0.01066     -0.01310      0.02046 *
 * Zr        2     -0.00245      0.03184     -0.02830 *
 * Zr        3      0.00570      0.01963     -0.01801 *
 * Zr        4     -0.00161     -0.03290      0.00045 *
[...]
 * La        2      0.00861      0.01117      0.01759 *
 * La        3     -0.01995     -0.01431     -0.01209 *
 * La        4      0.01685      0.01537      0.00314 *
 * La        5     -0.02252      0.00898      0.00441 *
 * La        6      0.01650      0.02121      0.00916 *
 * La        7     -0.00963     -0.01456      0.00194 *
 * La        8      0.00881      0.00290     -0.00325 *
 * La        9      0.00565      0.00189     -0.00078 *
 * La       10      0.00592      0.00753     -0.00165 *
 * La       11      0.00902     -0.02679     -0.01316 *
 * La       12     -0.00238      0.00027      0.01063 *
 * La       13     -0.01590      0.00026      0.01046 *
 * La       14      0.00615     -0.00141     -0.00069 *
 * La       15      0.01274      0.00370      0.00921 *
 * La       16      0.01531     -0.00321     -0.01548 *

 ***************** Stress Tensor *****************
 *          Cartesian components (GPa)           *
 *             x             y             z     *
 *  x     -0.010330      0.000942      0.001082  *
 *  y      0.000942     -0.075754     -0.022523  *
 *  z      0.001082     -0.022523     -0.034912  *
 *  Pressure:    0.0403                          *

[...]

 Pseudo atomic calculation performed for Sn 4d10 5s2 5p2

[...]

 Pseudo atomic calculation performed for La 5s2 5p6 5d1 6s2

 Converged in 34 iterations to a total energy of -968.0372 eV

Charge spilling parameter for spin component 1 = 0.24%

     Atomic Populations (Mulliken)
Species   Ion     s      p      d      f     Total  Charge (e)
  O        1     1.87   5.00   0.00   0.00   6.87    -0.87
  O        2     1.87   5.00   0.00   0.00   6.87    -0.87
  O        3     1.87   5.00   0.00   0.00   6.87    -0.87
  O        4     1.87   5.00   0.00   0.00   6.87    -0.87
  O        5     1.87   5.00   0.00   0.00   6.87    -0.87
  O        6     1.87   5.00   0.00   0.00   6.87    -0.87
  O        7     1.87   5.00   0.00   0.00   6.87    -0.87
  O        8     1.87   5.00   0.00   0.00   6.87    -0.87
  O        9     1.86   4.95   0.00   0.00   6.80    -0.80
  O       10     1.88   5.03   0.00   0.00   6.91    -0.91
  O       11     1.88   5.02   0.00   0.00   6.91    -0.91
  O       12     1.88   5.02   0.00   0.00   6.91    -0.91
  O       13     1.87   4.99   0.00   0.00   6.86    -0.86
  O       14     1.86   4.94   0.00   0.00   6.80    -0.80
  O       15     1.87   4.99   0.00   0.00   6.86    -0.86
  O       16     1.88   5.03   0.00   0.00   6.91    -0.91
  O       17     1.88   5.03   0.00   0.00   6.91    -0.91
  O       18     1.87   4.99   0.00   0.00   6.86    -0.86
  O       19     1.87   4.99   0.00   0.00   6.86    -0.86
  O       20     1.86   4.95   0.00   0.00   6.80    -0.80
  O       21     1.88   5.02   0.00   0.00   6.91    -0.91
  O       22     1.88   5.02   0.00   0.00   6.91    -0.91
  O       23     1.87   4.99   0.00   0.00   6.86    -0.86
  O       24     1.87   4.99   0.00   0.00   6.86    -0.86
  O       25     1.87   4.99   0.00   0.00   6.86    -0.86
  O       26     1.88   5.02   0.00   0.00   6.91    -0.91
  O       27     1.86   4.95   0.00   0.00   6.80    -0.80
  O       28     1.87   4.99   0.00   0.00   6.86    -0.86
  O       29     1.87   4.99   0.00   0.00   6.86    -0.86
  O       30     1.86   4.95   0.00   0.00   6.80    -0.80
  O       31     1.87   4.99   0.00   0.00   6.86    -0.86
  O       32     1.88   5.02   0.00   0.00   6.91    -0.91
  O       33     1.87   4.99   0.00   0.00   6.86    -0.86
  O       34     1.88   5.02   0.00   0.00   6.91    -0.91
  O       35     1.86   4.95   0.00   0.00   6.80    -0.80
  O       36     1.87   4.99   0.00   0.00   6.86    -0.86
  O       37     1.88   5.02   0.00   0.00   6.91    -0.91
  O       38     1.86   4.95   0.00   0.00   6.80    -0.80
  O       39     1.88   5.03   0.00   0.00   6.91    -0.91
  O       40     1.86   4.94   0.00   0.00   6.80    -0.80
  O       41     1.88   5.02   0.00   0.00   6.91    -0.91
  O       42     1.86   4.95   0.00   0.00   6.80    -0.80
  O       43     1.87   4.99   0.00   0.00   6.86    -0.86
  O       44     1.86   4.95   0.00   0.00   6.80    -0.80
  O       45     1.86   4.95   0.00   0.00   6.80    -0.80
  O       46     1.86   4.95   0.00   0.00   6.80    -0.80
  O       47     1.88   5.03   0.00   0.00   6.91    -0.91
  O       48     1.87   4.99   0.00   0.00   6.86    -0.86
  O       49     1.87   4.99   0.00   0.00   6.86    -0.86
  O       50     1.86   4.95   0.00   0.00   6.80    -0.80
  O       51     1.87   4.99   0.00   0.00   6.86    -0.86
  O       52     1.86   4.95   0.00   0.00   6.80    -0.80
  O       53     1.87   4.99   0.00   0.00   6.86    -0.86
  O       54     1.87   4.99   0.00   0.00   6.86    -0.86
  O       55     1.87   4.99   0.00   0.00   6.86    -0.86
  O       56     1.87   4.99   0.00   0.00   6.86    -0.86
  Zr       1     2.37   6.48   1.92   0.00  10.77     1.23
  Zr       2     2.37   6.48   1.92   0.00  10.77     1.23
  Zr       3     2.37   6.49   1.92   0.00  10.77     1.23
  Zr       4     2.37   6.49   1.92   0.00  10.77     1.23
[...]
  La       2     2.07   6.17   1.19   0.00   9.44     1.56
  La       3     2.08   6.18   1.19   0.00   9.45     1.55
  La       4     2.01   6.14   1.20   0.00   9.35     1.65
  La       5     2.08   6.18   1.19   0.00   9.45     1.55
  La       6     2.06   6.17   1.19   0.00   9.43     1.57
  La       7     2.06   6.17   1.19   0.00   9.42     1.58
  La       8     2.12   6.21   1.19   0.00   9.52     1.48
  La       9     2.07   6.18   1.19   0.00   9.43     1.57
  La      10     2.07   6.17   1.19   0.00   9.43     1.57
  La      11     2.07   6.17   1.19   0.00   9.43     1.57
  La      12     2.07   6.17   1.19   0.00   9.44     1.56
  La      13     2.06   6.17   1.19   0.00   9.42     1.58
  La      14     2.12   6.21   1.19   0.00   9.51     1.49
  La      15     2.07   6.17   1.19   0.00   9.43     1.57
  La      16     2.01   6.14   1.20   0.00   9.35     1.65

            Bond              Population      Length (A)
         O 53 -- Sn 3              0.35        2.09721
         O 29 -- Sn 7              0.35        2.09740
         O 10 -- Sn 4              0.34        2.10119
         O 28 -- Sn 5              0.34        2.10124
         O 33 -- Sn 6              0.34        2.10127
         O 10 -- Sn 2              0.34        2.10150
         O 43 -- Sn 7              0.35        2.10343
         O 49 -- Sn 1              0.35        2.10350
         O 36 -- Sn 8              0.35        2.10396
         O 18 -- Sn 3              0.35        2.10412
         O 19 -- Sn 5              0.34        2.10538
         O 48 -- Sn 6              0.34        2.10564
         O 15 -- Sn 6              0.34        2.10625
         O 56 -- Sn 5              0.34        2.10641
         O 55 -- Sn 3              0.34        2.10690
         O 13 -- Sn 7              0.34        2.10706
         O 39 -- Sn 4              0.34        2.10709
         O 47 -- Sn 2              0.34        2.10720
         O 17 -- Sn 4              0.34        2.10727
         O 16 -- Sn 2              0.34        2.10749
         O 16 -- Sn 8              0.34        2.10762
         O 23 -- Sn 2              0.34        2.10811
         O 39 -- Sn 1              0.34        2.10827
         O 24 -- Sn 4              0.34        2.10856
         O 47 -- Sn 1              0.33        2.10925
         O 17 -- Sn 8              0.34        2.10939
         O 29 -- Zr 4              0.44        2.10950
         O 52 -- Zr 7              0.42        2.11002
         O 21 -- Sn 6              0.34        2.11006
         O 22 -- Sn 5              0.34        2.11019
         O 22 -- Sn 7              0.34        2.11041
         O 45 -- Zr 8              0.41        2.11044
         O 28 -- Zr 4              0.44        2.11076
         O 21 -- Sn 3              0.34        2.11090
         O 52 -- Zr 1              0.42        2.11173
         O 33 -- Zr 3              0.44        2.11176
         O 45 -- Zr 1              0.41        2.11248
         O 51 -- Sn 2              0.34        2.11267
         O 30 -- Zr 6              0.42        2.11272
         O 25 -- Sn 4              0.34        2.11275
         O 42 -- Zr 6              0.42        2.11280
         O 42 -- Zr 2              0.42        2.11356
         O 27 -- Zr 8              0.42        2.11407
         O 27 -- Zr 5              0.42        2.11413
         O 41 -- Sn 8              0.33        2.11425
         O 41 -- Sn 1              0.33        2.11443
         O 54 -- Sn 4              0.34        2.11445
         O 31 -- Sn 2              0.34        2.11457
         O 9  -- Zr 5              0.42        2.11460
         O 38 -- Zr 2              0.42        2.11474
         O 30 -- Zr 7              0.42        2.11512
         O 32 -- Sn 6              0.34        2.11537
         O 14 -- Zr 4              0.44        2.11548
         O 37 -- Sn 5              0.34        2.11552
         O 36 -- Zr 3              0.44        2.11556
         O 26 -- Sn 8              0.34        2.11572
         O 34 -- Sn 1              0.34        2.11601
         O 38 -- Zr 5              0.42        2.11606
         O 53 -- Zr 3              0.44        2.11655
         O 34 -- Sn 7              0.33        2.11759
[...]
         O 48 -- O 50             -0.03        2.82644
         O 20 -- O 23             -0.03        2.82673
         O 31 -- O 45             -0.03        2.82676
         O 9  -- O 24             -0.03        2.82771
         O 9  -- O 23             -0.03        2.82869
         O 18 -- O 50             -0.03        2.82949
         O 35 -- O 43             -0.03        2.82962
         O 20 -- O 49             -0.03        2.82972
         O 36 -- O 44             -0.03        2.83018
         O 54 -- O 56             -0.03        2.83595
         O 15 -- O 31             -0.03        2.83608
         O 18 -- O 25             -0.03        2.83615
         O 43 -- O 51             -0.03        2.83624
         O 51 -- O 55             -0.03        2.83914
         O 13 -- O 25             -0.03        2.83915

Writing analysis data to 091.castep_bin

Writing model to 091.check

 A BibTeX formatted list of references used in this run has been written to
 091.bib

Initialisation time =     55.28 s
Calculation time    =  33612.60 s
Finalisation time   =     43.39 s
Total time          =  33711.27 s

Overall parallel efficiency rating: Good (77%)

Data was distributed by:-
G-vector (4-way); efficiency rating: Good (78%)
k-point (14-way); efficiency rating: Excellent (99%)