 Compiled for linux_x86_64_ifort16 on Sat, 23 Jul 2016 23:44:54 +0100
 from code version
 203e84763863+ Castep161_branch Fri, 04 Mar 2016 19:21:07 +0000
 Compiler: Intel Fortran 16.0.3.210; Optimisation: fast
 MATHLIBS: Intel MKL(11.3.3) (LAPACK version 3.6.0)
 FFT Lib : mkl
 Fundamental constants values: CODATA 2010

 Run started: Mon, 07 May 2018 03:01:04 +0100
 |           N   N    M   M    RRRR                |
 |           NN  N    MM MM    R   R               |
 |           N N N    M M M    RRRR                |
 |           N  NN    M   M    R  R                |
 |           N   N    M   M    R   R               |
 | Welcome to Materials Studio CASTEP-NMR          |
 | Authors:                                        |
 | J.R. Yates, C.J. Pickard, F. Mauri              |
 | Contributors:                                   |
 | T.F.G. Green, S.A. Joyce                        |
 | Copyright (c) 2004 - 2015                       |
 | Please cite the appropriate publications in all |
 | work arising from your use of CASTEP NMR.       |
 | For NMR Shielding Tensors cite:                 |
 |    "All-electron magnetic response with         |
 |    pseudopotentials: NMR chemical shifts",      |
 |    C. J. Pickard, F. Mauri;                     |
 |    Physical Review B63 245101 (2001), and       |
 |    "Calculation of NMR Chemical Shifts          |
 |    for extended systems using                   |
 |    Ultrasoft Pseudopotentials",                 |
 |    J. R. Yates, C. J. Pickard and F. Mauri      |
 |    Physical Review B76 024401 (2007)            |
 | For Electric Field Gradients cite:              |
 |   "Accurate First Principles Prediction of 17O  |
 |    NMR Parameters in SiO2: Assignment of the    |
 |    Zeolite Ferrierite Spectrum"                 |
 |    M. Profeta, F. Mauri and C. J. Pickard       |
 |    J. Amer. Chem. Soc. 125 541 (2003)           |
 | For Spin-Spin (J) Couplings cite:               |
 |   "A first principles theory of NMR J-coupling  |
 |   in solid-state systems"                       |
 |   S.A. Joyce, J.R. Yates, C.J. Pickard, F. Mauri|
 |   J. Chem. Phys. 127 204107 (2007)              |
 |   "Relativistic NMR J-coupling with ultrasoft   |
 |   pseudopotentials and the zeroth-order regular |
 |   approximation"                                |
 |   T.F.G. Green and J.R. Yates                   |
 |   J. Chem. Phys. 140 234106 (2014)              |

 Atomic calculation performed for O: 1s2 2s2 2p4

 Converged in 44 iterations to an ae energy of -2040.855 eV

 Atomic calculation performed for O: 1s2 2s2 2p4

 Exceeded max iterations: converged to 0.000000062 eV

   | Pseudopotential Report - Date of generation  7-05-2018   |
   | Element: O Ionic charge:  6.00 Level of theory: PBE      |
   | Atomic Solver: ZORA (scalar)                             |
   |               Reference Electronic Structure             |
   |         Orbital         Occupation         Energy        |
   |            2s              2.000           -0.881        |
   |            2p              4.000           -0.332        |
   |                 Pseudopotential Definition               |
   |        Beta     l      e      Rc     scheme   norm       |
   |          1      0   -0.881   1.100     qc      0         |
   |          2      0    0.250   1.100     qc      0         |
   |          3      1   -0.332   1.100     qc      0         |
   |          4      1    0.250   1.100     qc      0         |
   |         loc     2    0.000   1.100     pn      0         |
   | Augmentation charge Rinner = 0.769                       |
   | Partial core correction Rc = 0.769                       |
   | "2|1.1|15|18|20|20:21(qc=7)"                             |
   |      Author: Chris J. Pickard, Cambridge University      |

 Atomic calculation performed for Zr: 1s2 2s2 2p6 3s2 3p6 3d10 4s2 4p6 4d2 5s2

[...]

 Atomic calculation performed for Zr: 1s2 2s2 2p6 3s2 3p6 3d10 4s2 4p6 4d2 5s2

[...]

 Warning: ion_atom_descreen_psp: negative charge density encountered
   | Pseudopotential Report - Date of generation  7-05-2018   |
   | Element: Zr Ionic charge: 12.00 Level of theory: PBE     |
   | Atomic Solver: ZORA (scalar)                             |
   |               Reference Electronic Structure             |
   |         Orbital         Occupation         Energy        |
   |            4s              2.000           -2.003        |
   |            4p              6.000           -1.193        |
   |            5s              2.000           -0.163        |
   |            4d              2.000           -0.132        |
   |                 Pseudopotential Definition               |
   |        Beta     l      e      Rc     scheme   norm       |
   |          1      0   -2.003   2.105     qc      0         |
   |          2      0   -0.163   2.105     qc      0         |
   |          3      0    0.250   2.105     qc      0         |
   |          4      1   -1.193   2.105     qc      0         |
   |          5      1    0.250   2.105     qc      0         |
   |          6      2   -0.132   2.105     qc      0         |
   |          7      2    0.250   2.105     qc      0         |
   |         loc     3    0.000   2.105     pn      0         |
   | Augmentation charge Rinner = 1.471                       |
   | Partial core correction Rc = 1.471                       |
   | "3|2.1|7|8|9|40U:50:41:42"                               |
   |      Author: Chris J. Pickard, Cambridge University      |

 Atomic calculation performed for Sn:

[...]

 Atomic calculation performed for Sn:

[...]

   | Pseudopotential Report - Date of generation  7-05-2018   |
   | Element: Sn Ionic charge: 14.00 Level of theory: PBE     |
   | Atomic Solver: ZORA (scalar)                             |
   |               Reference Electronic Structure             |
   |         Orbital         Occupation         Energy        |
   |            4d             10.000           -0.950        |
   |            5s              2.000           -0.388        |
   |            5p              2.000           -0.136        |
   |                 Pseudopotential Definition               |
   |        Beta     l      e      Rc     scheme   norm       |
   |          1      0   -0.388   2.199     qc      0         |
   |          2      0    0.250   2.199     qc      0         |
   |          3      1   -0.136   2.199     qc      0         |
   |          4      1    0.250   2.199     qc      0         |
   |          5      2   -0.950   2.199     qc      0         |
   |          6      2    0.250   2.199     qc      0         |
   |         loc     3    0.000   2.199     pn      0         |
   | Augmentation charge Rinner = 1.537                       |
   | Partial core correction Rc = 1.537                       |
   | "3|2.2|7|8|9|50:51:42"                                   |
   |      Author: Chris J. Pickard, Cambridge University      |

 Atomic calculation performed for La:

 Converged in 56 iterations to an ae energy of -230121.495 eV

 Atomic calculation performed for La:

 Exceeded max iterations: converged to 0.000000907 eV

 Warning: ion_atom_descreen_psp: negative charge density encountered
   | Pseudopotential Report - Date of generation  7-05-2018   |
   | Element: La Ionic charge: 11.00 Level of theory: PBE     |
   | Atomic Solver: ZORA (scalar)                             |
   |               Reference Electronic Structure             |
   |         Orbital         Occupation         Energy        |
   |            5s              2.000           -1.430        |
   |            5p              6.000           -0.823        |
   |            6s              2.000           -0.135        |
   |            5d              1.000           -0.114        |
   |                 Pseudopotential Definition               |
   |        Beta     l      e      Rc     scheme   norm       |
   |          1      0   -1.430   2.298     qc      0         |
   |          2      0   -0.135   2.298     qc      0         |
   |          3      0    0.250   2.298     qc      0         |
   |          4      1   -0.823   2.298     qc      0         |
   |          5      1    0.250   2.298     qc      0         |
   |          6      2   -0.114   2.298     qc      0         |
   |          7      2    0.250   2.298     qc      0         |
   |         loc     2    0.000   2.298     pn      0         |
   | Augmentation charge Rinner = 1.606                       |
   | Partial core correction Rc = 1.606                       |
   | "2|2.3|5|6|7|50U:60:51:52(qc=4.5)"                       |
   |      Author: Chris J. Pickard, Cambridge University      |

 Pseudo atomic calculation performed for O 2s2 2p4

 Converged in 39 iterations to a total energy of -432.6554 eV

 Pseudo atomic calculation performed for Zr 4s2 4p6 4d2 5s2

[...]

 Calculation parallelised over 56 processes.
 Data is distributed by G-vector(4-way) and k-point(14-way)

 ************************************ Title ************************************
 nmr testing

 ***************************** General Parameters ******************************

 output verbosity                               : normal  (1)
 write checkpoint data to                       : 092.check
 type of calculation                            : Magnetic Resonance
 stress calculation                             : on
 density difference calculation                 : off
 electron localisation func (ELF) calculation   : off
 Hirshfeld analysis                             : off
 unlimited duration calculation
 timing information                             : on
 write final potential to formatted file        : off
 write final density to formatted file          : off
 write structure in CIF formatted file          : on
 write structure in CELL formatted file         : on
 write BibTeX reference list                    : on
 write OTFG pseudopotential files               : on
 checkpoint writing                             : both castep_bin and check files

 output         length unit                     : A
 output           mass unit                     : amu
 output           time unit                     : ps
 output         charge unit                     : e
 output           spin unit                     : hbar/2
 output         energy unit                     : eV
 output          force unit                     : eV/A
 output       velocity unit                     : A/ps
 output       pressure unit                     : GPa
 output     inv_length unit                     : 1/A
 output      frequency unit                     : cm-1
 output force constant unit                     : eV/A**2
 output         volume unit                     : A**3
 output   IR intensity unit                     : (D/A)**2/amu
 output         dipole unit                     : D
 output         efield unit                     : eV/A/e
 output        entropy unit                     : J/mol/K

 wavefunctions paging                           : none
 random number generator seed                   : randomised (30106297)
 data distribution                              : optimal for this architecture
[...]
  |    O          41      -20.58      36.82      0.94   3.864E+00   0.87 |
  |    O          42     -164.37     156.95      0.79   1.005E+00   0.91 |
  |    O          43      -83.04      82.00      0.22  -3.105E+00   0.06 |
  |    O          44     -160.82     154.90      0.81   1.103E+00   0.76 |
  |    O          45      -85.40      86.45      0.15  -3.208E+00   0.09 |
  |    O          46      -84.83      86.78      0.15  -3.128E+00   0.08 |
  |    O          47      -22.74      37.88      0.93   3.856E+00   0.87 |
  |    O          48     -167.07     159.62      0.83   9.994E-01   1.00 |
  |    O          49      -20.58      36.79      0.94   3.864E+00   0.87 |
  |    O          50     -164.31     156.84      0.80   1.005E+00   0.91 |
  |    O          51      -86.77      85.44      0.05  -3.172E+00   0.07 |
  |    O          52     -161.29     154.09      0.81   1.062E+00   0.77 |
  |    O          53     -160.87     155.86      0.80   1.106E+00   0.75 |
  |    O          54      -83.51      84.98      0.21  -3.099E+00   0.05 |
  |    O          55     -161.26     153.25      0.81   1.060E+00   0.78 |
  |    O          56      -86.81      85.43      0.05  -3.170E+00   0.07 |
  |    Zr          1     1629.90    -128.21      0.20  -3.741E+01   0.02 |
  |    Zr          2     1629.53    -128.04      0.19  -3.744E+01   0.01 |
  |    Zr          3     1634.14    -126.41      0.18  -3.837E+01   0.13 |
  |    Zr          4     1634.46    -129.04      0.22  -3.848E+01   0.18 |
[...]
  |    La          2     4658.72     628.34      0.01  -8.098E+01   0.05 |
  |    La          3     4612.15     526.97      0.07  -7.936E+01   0.13 |
  |    La          4     4793.98     974.24      0.01  -8.790E+01   0.02 |
  |    La          5     4652.41     629.39      0.01  -7.933E+01   0.04 |
  |    La          6     4700.26     760.91      0.05  -8.310E+01   0.12 |
  |    La          7     4610.76     546.66      0.07  -7.964E+01   0.23 |
  |    La          8     4658.72     627.99      0.01  -8.094E+01   0.04 |
  |    La          9     4652.41     629.39      0.01  -7.933E+01   0.04 |
  |    La         10     4700.26     760.91      0.05  -8.310E+01   0.12 |
  |    La         11     4658.72     628.34      0.01  -8.098E+01   0.05 |
  |    La         12     4612.15     526.96      0.07  -7.936E+01   0.13 |
  |    La         13     4652.40     629.26      0.01  -7.927E+01   0.04 |
  |    La         14     4610.38     544.00      0.06  -7.955E+01   0.23 |
  |    La         15     4605.67     559.22      0.09  -7.900E+01   0.23 |
  |    La         16     4652.40     629.26      0.01  -7.927E+01   0.04 |

 *********************** Forces ***********************
 *            Cartesian components (eV/A)             *
 *                   x            y            z      *
 * O         1      0.00466     -0.00377     -0.00738 *
 * O         2      0.00213     -0.00107     -0.00552 *
 * O         3      0.00127     -0.00322     -0.00618 *
 * O         4     -0.00060     -0.00091     -0.00349 *
 * O         5     -0.00466      0.00377      0.00738 *
 * O         6     -0.00127      0.00322      0.00618 *
 * O         7     -0.00213      0.00107      0.00552 *
 * O         8      0.00060      0.00091      0.00349 *
 * O         9      0.00630      0.00173      0.00253 *
 * O        10     -0.00065     -0.00602      0.00032 *
 * O        11      0.00345     -0.01303      0.01670 *
 * O        12     -0.00677     -0.01109     -0.00901 *
 * O        13     -0.01369     -0.01055     -0.01116 *
 * O        14      0.00839      0.00503     -0.00819 *
 * O        15     -0.01269      0.00099      0.01735 *
 * O        16      0.00802      0.00102      0.00059 *
 * O        17      0.00297     -0.00438      0.00229 *
 * O        18     -0.00152      0.00137     -0.00595 *
 * O        19      0.00197     -0.00204      0.00345 *
 * O        20      0.01379      0.01520     -0.01087 *
 * O        21     -0.00424      0.00597     -0.00053 *
 * O        22     -0.00802     -0.00102     -0.00059 *
 * O        23     -0.01015      0.00590     -0.01537 *
 * O        24     -0.00839     -0.00503      0.00819 *
 * O        25     -0.00934     -0.01233      0.01140 *
 * O        26      0.00677      0.01109      0.00901 *
 * O        27     -0.00073     -0.00785     -0.01561 *
 * O        28      0.00065      0.00602     -0.00032 *
 * O        29     -0.00297      0.00438     -0.00229 *
 * O        30      0.00227     -0.00264      0.00780 *
 * O        31     -0.00197      0.00204     -0.00345 *
 * O        32      0.00753      0.01011      0.00973 *
 * O        33      0.01261     -0.00613     -0.00322 *
 * O        34      0.00096     -0.00968     -0.00517 *
 * O        35      0.01269     -0.00099     -0.01735 *
 * O        36      0.01369      0.01055      0.01116 *
 * O        37      0.00469     -0.00524     -0.00178 *
 * O        38      0.00959      0.00000     -0.02234 *
 * O        39     -0.00762      0.00079      0.00500 *
 * O        40     -0.00382      0.01601      0.00279 *
 * O        41     -0.00096      0.00968      0.00517 *
 * O        42     -0.01261      0.00613      0.00322 *
 * O        43     -0.00753     -0.01011     -0.00973 *
 * O        44     -0.00227      0.00264     -0.00780 *
 * O        45      0.00073      0.00785      0.01561 *
 * O        46      0.00934      0.01233     -0.01140 *
 * O        47     -0.00469      0.00524      0.00178 *
 * O        48     -0.00960     -0.00000      0.02234 *
 * O        49      0.00762     -0.00079     -0.00500 *
 * O        50      0.00382     -0.01601     -0.00279 *
 * O        51     -0.00345      0.01303     -0.01670 *
 * O        52     -0.00630     -0.00173     -0.00253 *
 * O        53      0.00152     -0.00137      0.00595 *
 * O        54     -0.01379     -0.01520      0.01087 *
 * O        55      0.00424     -0.00597      0.00053 *
 * O        56      0.01015     -0.00590      0.01537 *
 * Zr        1     -0.00705     -0.00061      0.00433 *
 * Zr        2      0.00424      0.00511     -0.00250 *
 * Zr        3      0.00359     -0.00012      0.00160 *
 * Zr        4     -0.00000      0.00000      0.00000 *
[...]
 * La        2      0.01404     -0.00156      0.00543 *
 * La        3     -0.00067      0.00544      0.00325 *
 * La        4     -0.00000      0.00000      0.00000 *
 * La        5      0.00550      0.02268      0.00375 *
 * La        6      0.00848     -0.00330     -0.03089 *
 * La        7     -0.00000     -0.00000     -0.00000 *
 * La        8     -0.00109     -0.01044      0.00597 *
 * La        9     -0.00550     -0.02268     -0.00375 *
 * La       10     -0.00848      0.00330      0.03089 *
 * La       11     -0.01404      0.00156     -0.00543 *
 * La       12      0.00067     -0.00544     -0.00325 *
 * La       13     -0.02277     -0.00443      0.00186 *
 * La       14     -0.00000      0.00000     -0.00000 *
 * La       15     -0.00000     -0.00000      0.00000 *
 * La       16      0.02277      0.00443     -0.00186 *

 ***************** Stress Tensor *****************
 *          Cartesian components (GPa)           *
 *             x             y             z     *
 *  x     -0.013061      0.028680      0.013201  *
 *  y      0.028680     -0.012055     -0.013598  *
 *  z      0.013201     -0.013598      0.069058  *
 *  Pressure:   -0.0146                          *

[...]

 Pseudo atomic calculation performed for Sn 4d10 5s2 5p2

[...]

 Pseudo atomic calculation performed for La 5s2 5p6 5d1 6s2

 Converged in 34 iterations to a total energy of -968.0372 eV

Charge spilling parameter for spin component 1 = 0.24%

     Atomic Populations (Mulliken)
Species   Ion     s      p      d      f     Total  Charge (e)
  O        1     1.87   5.00   0.00   0.00   6.87    -0.87
  O        2     1.87   5.00   0.00   0.00   6.87    -0.87
  O        3     1.87   5.00   0.00   0.00   6.87    -0.87
  O        4     1.87   5.00   0.00   0.00   6.87    -0.87
  O        5     1.87   5.00   0.00   0.00   6.87    -0.87
  O        6     1.87   5.00   0.00   0.00   6.87    -0.87
  O        7     1.87   5.00   0.00   0.00   6.87    -0.87
  O        8     1.87   5.00   0.00   0.00   6.87    -0.87
  O        9     1.86   4.95   0.00   0.00   6.80    -0.80
  O       10     1.88   5.03   0.00   0.00   6.91    -0.91
  O       11     1.87   4.99   0.00   0.00   6.86    -0.86
  O       12     1.87   4.99   0.00   0.00   6.86    -0.86
  O       13     1.87   4.99   0.00   0.00   6.86    -0.86
  O       14     1.87   4.99   0.00   0.00   6.86    -0.86
  O       15     1.87   4.99   0.00   0.00   6.86    -0.86
  O       16     1.88   5.03   0.00   0.00   6.91    -0.91
  O       17     1.88   5.03   0.00   0.00   6.91    -0.91
  O       18     1.86   4.95   0.00   0.00   6.80    -0.80
  O       19     1.88   5.02   0.00   0.00   6.91    -0.91
  O       20     1.87   4.99   0.00   0.00   6.86    -0.86
  O       21     1.86   4.95   0.00   0.00   6.80    -0.80
  O       22     1.88   5.03   0.00   0.00   6.91    -0.91
  O       23     1.87   4.99   0.00   0.00   6.86    -0.86
  O       24     1.87   4.99   0.00   0.00   6.86    -0.86
  O       25     1.87   4.99   0.00   0.00   6.86    -0.86
  O       26     1.87   4.99   0.00   0.00   6.86    -0.86
  O       27     1.87   4.99   0.00   0.00   6.86    -0.86
  O       28     1.88   5.03   0.00   0.00   6.91    -0.91
  O       29     1.88   5.03   0.00   0.00   6.91    -0.91
  O       30     1.86   4.95   0.00   0.00   6.80    -0.80
  O       31     1.88   5.02   0.00   0.00   6.91    -0.91
  O       32     1.87   4.99   0.00   0.00   6.86    -0.86
  O       33     1.86   4.94   0.00   0.00   6.80    -0.80
  O       34     1.88   5.03   0.00   0.00   6.91    -0.91
  O       35     1.87   4.99   0.00   0.00   6.86    -0.86
  O       36     1.87   4.99   0.00   0.00   6.86    -0.86
  O       37     1.89   5.03   0.00   0.00   6.91    -0.91
  O       38     1.86   4.94   0.00   0.00   6.80    -0.80
  O       39     1.88   5.03   0.00   0.00   6.91    -0.91
  O       40     1.86   4.94   0.00   0.00   6.80    -0.80
  O       41     1.88   5.03   0.00   0.00   6.91    -0.91
  O       42     1.86   4.94   0.00   0.00   6.80    -0.80
  O       43     1.87   4.99   0.00   0.00   6.86    -0.86
  O       44     1.86   4.95   0.00   0.00   6.80    -0.80
  O       45     1.87   4.99   0.00   0.00   6.86    -0.86
  O       46     1.87   4.99   0.00   0.00   6.86    -0.86
  O       47     1.89   5.03   0.00   0.00   6.91    -0.91
  O       48     1.86   4.94   0.00   0.00   6.80    -0.80
  O       49     1.88   5.03   0.00   0.00   6.91    -0.91
  O       50     1.86   4.94   0.00   0.00   6.80    -0.80
  O       51     1.87   4.99   0.00   0.00   6.86    -0.86
  O       52     1.86   4.95   0.00   0.00   6.80    -0.80
  O       53     1.86   4.95   0.00   0.00   6.80    -0.80
  O       54     1.87   4.99   0.00   0.00   6.86    -0.86
  O       55     1.86   4.95   0.00   0.00   6.80    -0.80
  O       56     1.87   4.99   0.00   0.00   6.86    -0.86
  Zr       1     2.37   6.48   1.92   0.00  10.77     1.23
  Zr       2     2.37   6.48   1.92   0.00  10.77     1.23
  Zr       3     2.37   6.47   1.93   0.00  10.76     1.24
  Zr       4     2.36   6.47   1.93   0.00  10.76     1.24
[...]
  La       2     2.08   6.17   1.19   0.00   9.44     1.56
  La       3     2.09   6.18   1.19   0.00   9.47     1.53
  La       4     1.99   6.13   1.20   0.00   9.32     1.68
  La       5     2.07   6.17   1.19   0.00   9.43     1.57
  La       6     2.04   6.16   1.19   0.00   9.40     1.60
  La       7     2.10   6.18   1.19   0.00   9.47     1.53
  La       8     2.08   6.17   1.19   0.00   9.44     1.56
  La       9     2.07   6.17   1.19   0.00   9.43     1.57
  La      10     2.04   6.16   1.19   0.00   9.40     1.60
  La      11     2.08   6.17   1.19   0.00   9.44     1.56
  La      12     2.09   6.18   1.19   0.00   9.47     1.53
  La      13     2.07   6.17   1.19   0.00   9.43     1.57
  La      14     2.10   6.18   1.19   0.00   9.47     1.53
  La      15     2.09   6.18   1.19   0.00   9.46     1.54
  La      16     2.07   6.17   1.19   0.00   9.43     1.57

            Bond              Population      Length (A)
         O 35 -- Sn 7              0.35        2.10202
         O 15 -- Sn 7              0.35        2.10202
         O 27 -- Sn 7              0.35        2.10213
         O 45 -- Sn 7              0.35        2.10213
         O 17 -- Sn 4              0.34        2.10233
         O 29 -- Sn 2              0.34        2.10233
         O 29 -- Sn 6              0.34        2.10270
         O 17 -- Sn 8              0.34        2.10270
         O 22 -- Sn 5              0.34        2.10530
         O 16 -- Sn 3              0.34        2.10530
         O 28 -- Sn 5              0.34        2.10551
         O 10 -- Sn 3              0.34        2.10551
         O 22 -- Sn 6              0.34        2.10571
         O 16 -- Sn 8              0.34        2.10571
         O 28 -- Sn 2              0.34        2.10581
         O 10 -- Sn 4              0.34        2.10581
         O 51 -- Sn 3              0.34        2.10831
         O 11 -- Sn 5              0.34        2.10831
         O 23 -- Sn 3              0.34        2.10846
         O 56 -- Sn 5              0.34        2.10846
         O 24 -- Sn 4              0.34        2.11027
         O 14 -- Sn 2              0.34        2.11027
         O 26 -- Sn 8              0.34        2.11041
         O 12 -- Sn 6              0.34        2.11041
         O 34 -- Sn 6              0.34        2.11044
         O 41 -- Sn 8              0.34        2.11044
         O 49 -- Sn 2              0.34        2.11044
         O 39 -- Sn 4              0.34        2.11044
         O 46 -- Sn 2              0.34        2.11142
         O 25 -- Sn 4              0.34        2.11142
         O 13 -- Sn 6              0.34        2.11142
         O 36 -- Sn 8              0.34        2.11142
         O 34 -- Sn 1              0.34        2.11182
         O 41 -- Sn 1              0.34        2.11182
         O 32 -- Sn 8              0.34        2.11194
         O 43 -- Sn 6              0.34        2.11194
         O 38 -- Zr 2              0.42        2.11196
         O 48 -- Zr 6              0.42        2.11196
         O 49 -- Sn 1              0.34        2.11198
         O 39 -- Sn 1              0.34        2.11198
         O 54 -- Sn 4              0.34        2.11208
         O 20 -- Sn 2              0.34        2.11208
         O 53 -- Zr 3              0.42        2.11285
         O 18 -- Zr 7              0.42        2.11285
         O 47 -- Sn 1              0.34        2.11310
         O 37 -- Sn 1              0.34        2.11310
         O 18 -- Zr 4              0.42        2.11361
         O 53 -- Zr 4              0.42        2.11361
         O 30 -- Zr 8              0.42        2.11384
         O 44 -- Zr 8              0.42        2.11384
         O 30 -- Zr 7              0.42        2.11447
         O 44 -- Zr 3              0.42        2.11447
         O 42 -- Zr 2              0.43        2.11509
         O 33 -- Zr 6              0.43        2.11509
         O 50 -- Zr 1              0.43        2.11513
         O 40 -- Zr 5              0.43        2.11513
         O 38 -- Zr 5              0.42        2.11521
         O 48 -- Zr 1              0.42        2.11521
         O 37 -- Sn 5              0.33        2.11528
         O 47 -- Sn 3              0.33        2.11528
[...]
         O 51 -- O 55             -0.03        2.82951
         O 36 -- O 44             -0.03        2.83039
         O 13 -- O 30             -0.03        2.83039
         O 18 -- O 25             -0.03        2.83051
         O 46 -- O 53             -0.03        2.83051
         O 15 -- O 32             -0.03        2.83670
         O 35 -- O 43             -0.03        2.83670
         O 45 -- O 54             -0.03        2.83680
         O 20 -- O 27             -0.03        2.83680
         O 11 -- O 32             -0.03        2.83691
         O 43 -- O 51             -0.03        2.83691
         O 54 -- O 56             -0.03        2.83694
         O 20 -- O 23             -0.03        2.83694
         O 36 -- O 46             -0.03        2.83713
         O 13 -- O 25             -0.03        2.83713

Writing analysis data to 092.castep_bin

Writing model to 092.check

 A BibTeX formatted list of references used in this run has been written to
 092.bib

Initialisation time =     54.43 s
Calculation time    =  33470.46 s
Finalisation time   =     58.61 s
Total time          =  33583.50 s

Overall parallel efficiency rating: Good (77%)

Data was distributed by:-
G-vector (4-way); efficiency rating: Good (77%)
k-point (14-way); efficiency rating: Ideal (100%)