 Compiled for linux_x86_64_ifort16 on Sat, 23 Jul 2016 23:44:54 +0100
 from code version
 203e84763863+ Castep161_branch Fri, 04 Mar 2016 19:21:07 +0000
 Compiler: Intel Fortran 16.0.3.210; Optimisation: fast
 MATHLIBS: Intel MKL(11.3.3) (LAPACK version 3.6.0)
 FFT Lib : mkl
 Fundamental constants values: CODATA 2010

 Run started: Tue, 15 May 2018 06:22:22 +0100
 |           N   N    M   M    RRRR                |
 |           NN  N    MM MM    R   R               |
 |           N N N    M M M    RRRR                |
 |           N  NN    M   M    R  R                |
 |           N   N    M   M    R   R               |
 | Welcome to Materials Studio CASTEP-NMR          |
 | Authors:                                        |
 | J.R. Yates, C.J. Pickard, F. Mauri              |
 | Contributors:                                   |
 | T.F.G. Green, S.A. Joyce                        |
 | Copyright (c) 2004 - 2015                       |
 | Please cite the appropriate publications in all |
 | work arising from your use of CASTEP NMR.       |
 | For NMR Shielding Tensors cite:                 |
 |    "All-electron magnetic response with         |
 |    pseudopotentials: NMR chemical shifts",      |
 |    C. J. Pickard, F. Mauri;                     |
 |    Physical Review B63 245101 (2001), and       |
 |    "Calculation of NMR Chemical Shifts          |
 |    for extended systems using                   |
 |    Ultrasoft Pseudopotentials",                 |
 |    J. R. Yates, C. J. Pickard and F. Mauri      |
 |    Physical Review B76 024401 (2007)            |
 | For Electric Field Gradients cite:              |
 |   "Accurate First Principles Prediction of 17O  |
 |    NMR Parameters in SiO2: Assignment of the    |
 |    Zeolite Ferrierite Spectrum"                 |
 |    M. Profeta, F. Mauri and C. J. Pickard       |
 |    J. Amer. Chem. Soc. 125 541 (2003)           |
 | For Spin-Spin (J) Couplings cite:               |
 |   "A first principles theory of NMR J-coupling  |
 |   in solid-state systems"                       |
 |   S.A. Joyce, J.R. Yates, C.J. Pickard, F. Mauri|
 |   J. Chem. Phys. 127 204107 (2007)              |
 |   "Relativistic NMR J-coupling with ultrasoft   |
 |   pseudopotentials and the zeroth-order regular |
 |   approximation"                                |
 |   T.F.G. Green and J.R. Yates                   |
 |   J. Chem. Phys. 140 234106 (2014)              |

 Atomic calculation performed for O: 1s2 2s2 2p4

 Converged in 44 iterations to an ae energy of -2040.855 eV

 Atomic calculation performed for O: 1s2 2s2 2p4

 Exceeded max iterations: converged to 0.000000062 eV

   | Pseudopotential Report - Date of generation 15-05-2018   |
   | Element: O Ionic charge:  6.00 Level of theory: PBE      |
   | Atomic Solver: ZORA (scalar)                             |
   |               Reference Electronic Structure             |
   |         Orbital         Occupation         Energy        |
   |            2s              2.000           -0.881        |
   |            2p              4.000           -0.332        |
   |                 Pseudopotential Definition               |
   |        Beta     l      e      Rc     scheme   norm       |
   |          1      0   -0.881   1.100     qc      0         |
   |          2      0    0.250   1.100     qc      0         |
   |          3      1   -0.332   1.100     qc      0         |
   |          4      1    0.250   1.100     qc      0         |
   |         loc     2    0.000   1.100     pn      0         |
   | Augmentation charge Rinner = 0.769                       |
   | Partial core correction Rc = 0.769                       |
   | "2|1.1|15|18|20|20:21(qc=7)"                             |
   |      Author: Chris J. Pickard, Cambridge University      |

 Atomic calculation performed for Zr: 1s2 2s2 2p6 3s2 3p6 3d10 4s2 4p6 4d2 5s2

[...]

 Atomic calculation performed for Zr: 1s2 2s2 2p6 3s2 3p6 3d10 4s2 4p6 4d2 5s2

[...]

 Warning: ion_atom_descreen_psp: negative charge density encountered
   | Pseudopotential Report - Date of generation 15-05-2018   |
   | Element: Zr Ionic charge: 12.00 Level of theory: PBE     |
   | Atomic Solver: ZORA (scalar)                             |
   |               Reference Electronic Structure             |
   |         Orbital         Occupation         Energy        |
   |            4s              2.000           -2.003        |
   |            4p              6.000           -1.193        |
   |            5s              2.000           -0.163        |
   |            4d              2.000           -0.132        |
   |                 Pseudopotential Definition               |
   |        Beta     l      e      Rc     scheme   norm       |
   |          1      0   -2.003   2.105     qc      0         |
   |          2      0   -0.163   2.105     qc      0         |
   |          3      0    0.250   2.105     qc      0         |
   |          4      1   -1.193   2.105     qc      0         |
   |          5      1    0.250   2.105     qc      0         |
   |          6      2   -0.132   2.105     qc      0         |
   |          7      2    0.250   2.105     qc      0         |
   |         loc     3    0.000   2.105     pn      0         |
   | Augmentation charge Rinner = 1.471                       |
   | Partial core correction Rc = 1.471                       |
   | "3|2.1|7|8|9|40U:50:41:42"                               |
   |      Author: Chris J. Pickard, Cambridge University      |

 Atomic calculation performed for Sn:

[...]

 Atomic calculation performed for Sn:

[...]

   | Pseudopotential Report - Date of generation 15-05-2018   |
   | Element: Sn Ionic charge: 14.00 Level of theory: PBE     |
   | Atomic Solver: ZORA (scalar)                             |
   |               Reference Electronic Structure             |
   |         Orbital         Occupation         Energy        |
   |            4d             10.000           -0.950        |
   |            5s              2.000           -0.388        |
   |            5p              2.000           -0.136        |
   |                 Pseudopotential Definition               |
   |        Beta     l      e      Rc     scheme   norm       |
   |          1      0   -0.388   2.199     qc      0         |
   |          2      0    0.250   2.199     qc      0         |
   |          3      1   -0.136   2.199     qc      0         |
   |          4      1    0.250   2.199     qc      0         |
   |          5      2   -0.950   2.199     qc      0         |
   |          6      2    0.250   2.199     qc      0         |
   |         loc     3    0.000   2.199     pn      0         |
   | Augmentation charge Rinner = 1.537                       |
   | Partial core correction Rc = 1.537                       |
   | "3|2.2|7|8|9|50:51:42"                                   |
   |      Author: Chris J. Pickard, Cambridge University      |

 Atomic calculation performed for La:

 Converged in 56 iterations to an ae energy of -230121.495 eV

 Atomic calculation performed for La:

 Exceeded max iterations: converged to 0.000000907 eV

 Warning: ion_atom_descreen_psp: negative charge density encountered
   | Pseudopotential Report - Date of generation 15-05-2018   |
   | Element: La Ionic charge: 11.00 Level of theory: PBE     |
   | Atomic Solver: ZORA (scalar)                             |
   |               Reference Electronic Structure             |
   |         Orbital         Occupation         Energy        |
   |            5s              2.000           -1.430        |
   |            5p              6.000           -0.823        |
   |            6s              2.000           -0.135        |
   |            5d              1.000           -0.114        |
   |                 Pseudopotential Definition               |
   |        Beta     l      e      Rc     scheme   norm       |
   |          1      0   -1.430   2.298     qc      0         |
   |          2      0   -0.135   2.298     qc      0         |
   |          3      0    0.250   2.298     qc      0         |
   |          4      1   -0.823   2.298     qc      0         |
   |          5      1    0.250   2.298     qc      0         |
   |          6      2   -0.114   2.298     qc      0         |
   |          7      2    0.250   2.298     qc      0         |
   |         loc     2    0.000   2.298     pn      0         |
   | Augmentation charge Rinner = 1.606                       |
   | Partial core correction Rc = 1.606                       |
   | "2|2.3|5|6|7|50U:60:51:52(qc=4.5)"                       |
   |      Author: Chris J. Pickard, Cambridge University      |

 Pseudo atomic calculation performed for O 2s2 2p4

 Converged in 39 iterations to a total energy of -432.6554 eV

 Pseudo atomic calculation performed for Zr 4s2 4p6 4d2 5s2

[...]

 Calculation parallelised over 56 processes.
 Data is distributed by G-vector(4-way) and k-point(14-way)

 ************************************ Title ************************************
 nmr testing

 ***************************** General Parameters ******************************

 output verbosity                               : normal  (1)
 write checkpoint data to                       : 093.check
 type of calculation                            : Magnetic Resonance
 stress calculation                             : on
 density difference calculation                 : off
 electron localisation func (ELF) calculation   : off
 Hirshfeld analysis                             : off
 unlimited duration calculation
 timing information                             : on
 write final potential to formatted file        : off
 write final density to formatted file          : off
 write structure in CIF formatted file          : on
 write structure in CELL formatted file         : on
 write BibTeX reference list                    : on
 write OTFG pseudopotential files               : on
 checkpoint writing                             : both castep_bin and check files

 output         length unit                     : A
 output           mass unit                     : amu
 output           time unit                     : ps
 output         charge unit                     : e
 output           spin unit                     : hbar/2
 output         energy unit                     : eV
 output          force unit                     : eV/A
 output       velocity unit                     : A/ps
 output       pressure unit                     : GPa
 output     inv_length unit                     : 1/A
 output      frequency unit                     : cm-1
 output force constant unit                     : eV/A**2
 output         volume unit                     : A**3
 output   IR intensity unit                     : (D/A)**2/amu
 output         dipole unit                     : D
 output         efield unit                     : eV/A/e
 output        entropy unit                     : J/mol/K

 wavefunctions paging                           : none
 random number generator seed                   : randomised (62223383)
 data distribution                              : optimal for this architecture
[...]
  |    O          42      -91.67      87.73      0.15  -3.224E+00   0.13 |
  |    O          43      -86.49      87.17      0.15  -3.183E+00   0.08 |
  |    O          44     -161.53     152.63      0.82   1.057E+00   0.78 |
  |    O          45     -160.14     146.04      0.82   1.090E+00   0.69 |
  |    O          46      -82.86      86.54      0.11  -3.159E+00   0.08 |
  |    O          47      -19.66      37.57      0.95   3.876E+00   0.87 |
  |    O          48     -164.25     156.96      0.78   1.009E+00   0.90 |
  |    O          49      -20.56      38.09      0.98   3.860E+00   0.86 |
  |    O          50      -91.60      87.74      0.15  -3.224E+00   0.13 |
  |    O          51      -85.75      84.42      0.16  -3.163E+00   0.07 |
  |    O          52     -162.04     154.52      0.86   1.080E+00   0.76 |
  |    O          53     -161.45     153.20      0.81   1.061E+00   0.78 |
  |    O          54      -86.27      85.47      0.15  -3.184E+00   0.08 |
  |    O          55     -162.08     154.00      0.86   1.078E+00   0.76 |
  |    O          56      -85.67      84.50      0.15  -3.164E+00   0.07 |
  |    Zr          1     1629.40    -125.05      0.09  -3.748E+01   0.10 |
  |    Zr          2     1629.10    -124.91      0.08  -3.748E+01   0.10 |
  |    Zr          3     1635.20    -126.29      0.11  -3.861E+01   0.05 |
  |    Zr          4     1629.31    -124.94      0.14  -3.730E+01   0.16 |
[...]
  |    La          2     4658.34     631.43      0.00  -8.151E+01   0.07 |
  |    La          3     4665.51     621.48      0.01  -8.218E+01   0.04 |
  |    La          4     4745.55     874.86      0.05  -8.341E+01   0.05 |
  |    La          5     4654.63     664.29      0.10  -8.084E+01   0.15 |
  |    La          6     4705.80     755.14      0.04  -8.427E+01   0.09 |
  |    La          7     4603.68     551.22      0.09  -7.823E+01   0.23 |
  |    La          8     4612.28     509.72      0.07  -7.773E+01   0.06 |
  |    La          9     4700.60     756.26      0.05  -8.260E+01   0.10 |
  |    La         10     4705.55     753.18      0.04  -8.417E+01   0.09 |
  |    La         11     4612.28     510.03      0.07  -7.779E+01   0.06 |
  |    La         12     4660.88     632.17      0.00  -8.148E+01   0.06 |
  |    La         13     4700.48     755.82      0.05  -8.256E+01   0.10 |
  |    La         14     4603.98     552.70      0.09  -7.831E+01   0.23 |
  |    La         15     4553.17     387.41      0.06  -7.362E+01   0.15 |
  |    La         16     4654.69     664.40      0.10  -8.079E+01   0.15 |

 *********************** Forces ***********************
 *            Cartesian components (eV/A)             *
 *                   x            y            z      *
 * O         1      0.00176     -0.00246     -0.00069 *
 * O         2     -0.00311     -0.00267     -0.00656 *
 * O         3      0.00258      0.00107     -0.00056 *
 * O         4     -0.00548      0.01170      0.00693 *
 * O         5     -0.00169      0.00122      0.00038 *
 * O         6     -0.00069     -0.00368      0.00621 *
 * O         7      0.00237      0.00125      0.00130 *
 * O         8      0.01429     -0.00620     -0.00609 *
 * O         9      0.01322     -0.00473      0.00720 *
 * O        10     -0.00453     -0.00794     -0.00327 *
 * O        11      0.00103     -0.01448      0.02173 *
 * O        12     -0.00056     -0.02425     -0.02195 *
 * O        13     -0.00274      0.01004     -0.00294 *
 * O        14      0.01416      0.00931     -0.01796 *
 * O        15     -0.00213     -0.00879     -0.01011 *
 * O        16      0.00725      0.00735      0.00171 *
 * O        17      0.00934      0.00063      0.00666 *
 * O        18      0.02536     -0.01414     -0.00660 *
 * O        19      0.02277     -0.01695      0.00292 *
 * O        20      0.01490      0.01600     -0.00307 *
 * O        21     -0.00842      0.01054     -0.00590 *
 * O        22     -0.00574     -0.00600      0.00424 *
 * O        23     -0.01625     -0.00040     -0.02334 *
 * O        24     -0.01993      0.00096      0.01992 *
 * O        25      0.01050     -0.00393      0.00185 *
 * O        26      0.00622      0.01097      0.01832 *
 * O        27     -0.00899     -0.00261      0.00992 *
 * O        28      0.00848      0.00587     -0.00095 *
 * O        29     -0.00022      0.00704     -0.00666 *
 * O        30     -0.01353      0.02785      0.00570 *
 * O        31     -0.01764      0.02357     -0.00380 *
 * O        32      0.01968      0.01652      0.00348 *
 * O        33      0.01923     -0.00197     -0.01037 *
 * O        34     -0.00741     -0.00376     -0.00288 *
 * O        35     -0.00329      0.01345      0.00769 *
 * O        36      0.01347      0.00085      0.01454 *
 * O        37      0.00194     -0.00609      0.00599 *
 * O        38      0.00421     -0.01332     -0.01342 *
 * O        39     -0.00231     -0.00901      0.00257 *
 * O        40     -0.00255      0.01671      0.00989 *
 * O        41      0.00573      0.00598      0.00626 *
 * O        42     -0.01048     -0.00696      0.01705 *
 * O        43     -0.02038     -0.01835      0.00057 *
 * O        44     -0.00241     -0.00930     -0.01001 *
 * O        45      0.01359     -0.00057     -0.00728 *
 * O        46      0.00278      0.01281     -0.01404 *
 * O        47     -0.00446      0.00128     -0.00547 *
 * O        48     -0.00871      0.00755      0.01306 *
 * O        49      0.00822      0.00460     -0.00698 *
 * O        50     -0.00444     -0.01079     -0.01708 *
 * O        51     -0.00271      0.01243     -0.01844 *
 * O        52     -0.01213      0.01075      0.00308 *
 * O        53     -0.01299     -0.00304      0.00917 *
 * O        54     -0.01439     -0.01718     -0.00138 *
 * O        55      0.00547     -0.01668     -0.00217 *
 * O        56      0.01413     -0.00349      0.01802 *
 * Zr        1     -0.00501     -0.01516      0.02992 *
 * Zr        2     -0.00775     -0.00437     -0.02432 *
 * Zr        3      0.00806      0.02863     -0.00187 *
 * Zr        4      0.00731      0.00330      0.00510 *
[...]
 * La        2      0.01481      0.00150      0.00986 *
 * La        3     -0.00379     -0.00684     -0.00197 *
 * La        4     -0.01539     -0.01608     -0.00172 *
 * La        5     -0.01419      0.00718     -0.00413 *
 * La        6      0.01310     -0.01341     -0.01639 *
 * La        7      0.00385     -0.00222      0.00466 *
 * La        8     -0.00087     -0.00193     -0.00287 *
 * La        9      0.00257     -0.01849     -0.01775 *
 * La       10     -0.01196      0.01269      0.01664 *
 * La       11      0.00081     -0.00352      0.00413 *
 * La       12      0.00526      0.00612      0.00298 *
 * La       13     -0.01901      0.00653      0.01342 *
 * La       14     -0.00240      0.00219     -0.00558 *
 * La       15     -0.00243     -0.00362      0.00064 *
 * La       16      0.00810     -0.00911     -0.00104 *

 ***************** Stress Tensor *****************
 *          Cartesian components (GPa)           *
 *             x             y             z     *
 *  x      0.039162     -0.002373     -0.029342  *
 *  y     -0.002373      0.051972      0.029014  *
 *  z     -0.029342      0.029014      0.038397  *
 *  Pressure:   -0.0432                          *

[...]

 Pseudo atomic calculation performed for Sn 4d10 5s2 5p2

[...]

 Pseudo atomic calculation performed for La 5s2 5p6 5d1 6s2

 Converged in 34 iterations to a total energy of -968.0372 eV

Charge spilling parameter for spin component 1 = 0.24%

     Atomic Populations (Mulliken)
Species   Ion     s      p      d      f     Total  Charge (e)
  O        1     1.87   5.00   0.00   0.00   6.87    -0.87
  O        2     1.87   5.00   0.00   0.00   6.87    -0.87
  O        3     1.87   5.00   0.00   0.00   6.87    -0.87
  O        4     1.87   5.00   0.00   0.00   6.87    -0.87
  O        5     1.87   5.00   0.00   0.00   6.87    -0.87
  O        6     1.87   5.00   0.00   0.00   6.87    -0.87
  O        7     1.87   5.00   0.00   0.00   6.87    -0.87
  O        8     1.87   5.00   0.00   0.00   6.87    -0.87
  O        9     1.86   4.95   0.00   0.00   6.80    -0.80
  O       10     1.88   5.03   0.00   0.00   6.91    -0.91
  O       11     1.87   4.99   0.00   0.00   6.86    -0.86
  O       12     1.87   4.99   0.00   0.00   6.86    -0.86
  O       13     1.88   5.02   0.00   0.00   6.91    -0.91
  O       14     1.87   4.99   0.00   0.00   6.85    -0.85
  O       15     1.86   4.95   0.00   0.00   6.80    -0.80
  O       16     1.88   5.03   0.00   0.00   6.91    -0.91
  O       17     1.88   5.03   0.00   0.00   6.91    -0.91
  O       18     1.87   4.99   0.00   0.00   6.86    -0.86
  O       19     1.87   4.99   0.00   0.00   6.85    -0.85
  O       20     1.87   4.99   0.00   0.00   6.86    -0.86
  O       21     1.86   4.95   0.00   0.00   6.80    -0.80
  O       22     1.88   5.03   0.00   0.00   6.91    -0.91
  O       23     1.87   4.99   0.00   0.00   6.86    -0.86
  O       24     1.87   4.99   0.00   0.00   6.86    -0.86
  O       25     1.88   5.02   0.00   0.00   6.91    -0.91
  O       26     1.87   4.99   0.00   0.00   6.85    -0.85
  O       27     1.86   4.95   0.00   0.00   6.80    -0.80
  O       28     1.88   5.03   0.00   0.00   6.91    -0.91
  O       29     1.88   5.03   0.00   0.00   6.91    -0.91
  O       30     1.87   4.99   0.00   0.00   6.86    -0.86
  O       31     1.87   4.99   0.00   0.00   6.85    -0.85
  O       32     1.87   4.99   0.00   0.00   6.86    -0.86
  O       33     1.86   4.94   0.00   0.00   6.80    -0.80
  O       34     1.89   5.02   0.00   0.00   6.91    -0.91
  O       35     1.86   4.95   0.00   0.00   6.80    -0.80
  O       36     1.87   4.99   0.00   0.00   6.86    -0.86
  O       37     1.88   5.03   0.00   0.00   6.91    -0.91
  O       38     1.86   4.94   0.00   0.00   6.80    -0.80
  O       39     1.89   5.02   0.00   0.00   6.91    -0.91
  O       40     1.86   4.94   0.00   0.00   6.80    -0.80
  O       41     1.88   5.03   0.00   0.00   6.91    -0.91
  O       42     1.87   4.99   0.00   0.00   6.86    -0.86
  O       43     1.87   4.99   0.00   0.00   6.86    -0.86
  O       44     1.86   4.95   0.00   0.00   6.80    -0.80
  O       45     1.86   4.95   0.00   0.00   6.80    -0.80
  O       46     1.87   4.99   0.00   0.00   6.86    -0.86
  O       47     1.88   5.03   0.00   0.00   6.91    -0.91
  O       48     1.86   4.94   0.00   0.00   6.80    -0.80
  O       49     1.88   5.03   0.00   0.00   6.91    -0.91
  O       50     1.87   4.99   0.00   0.00   6.86    -0.86
  O       51     1.87   4.99   0.00   0.00   6.86    -0.86
  O       52     1.86   4.95   0.00   0.00   6.80    -0.80
  O       53     1.86   4.95   0.00   0.00   6.80    -0.80
  O       54     1.87   4.99   0.00   0.00   6.86    -0.86
  O       55     1.86   4.95   0.00   0.00   6.80    -0.80
  O       56     1.87   4.99   0.00   0.00   6.86    -0.86
  Zr       1     2.37   6.48   1.92   0.00  10.77     1.23
  Zr       2     2.37   6.48   1.92   0.00  10.77     1.23
  Zr       3     2.37   6.47   1.93   0.00  10.77     1.23
  Zr       4     2.36   6.48   1.92   0.00  10.77     1.23
[...]
  La       2     2.08   6.17   1.19   0.00   9.45     1.55
  La       3     2.07   6.18   1.19   0.00   9.44     1.56
  La       4     2.02   6.14   1.20   0.00   9.35     1.65
  La       5     2.06   6.17   1.19   0.00   9.43     1.57
  La       6     2.04   6.16   1.19   0.00   9.39     1.61
  La       7     2.11   6.18   1.19   0.00   9.48     1.52
  La       8     2.10   6.19   1.19   0.00   9.48     1.52
  La       9     2.04   6.16   1.19   0.00   9.39     1.61
  La      10     2.04   6.16   1.19   0.00   9.39     1.61
  La      11     2.10   6.19   1.19   0.00   9.48     1.52
  La      12     2.06   6.18   1.19   0.00   9.43     1.57
  La      13     2.04   6.16   1.19   0.00   9.39     1.61
  La      14     2.11   6.18   1.19   0.00   9.48     1.52
  La      15     2.13   6.20   1.19   0.00   9.52     1.48
  La      16     2.06   6.17   1.19   0.00   9.43     1.57

            Bond              Population      Length (A)
         O 16 -- Sn 8              0.34        2.10006
         O 28 -- Sn 2              0.34        2.10009
         O 16 -- Sn 3              0.34        2.10178
         O 28 -- Sn 5              0.34        2.10184
         O 18 -- Sn 6              0.35        2.10300
         O 30 -- Sn 6              0.35        2.10306
         O 10 -- Sn 3              0.34        2.10356
         O 22 -- Sn 5              0.34        2.10364
         O 29 -- Sn 7              0.34        2.10450
         O 17 -- Sn 4              0.34        2.10463
         O 50 -- Sn 6              0.34        2.10463
         O 42 -- Sn 6              0.34        2.10471
         O 17 -- Sn 8              0.34        2.10547
         O 22 -- Sn 7              0.33        2.10553
         O 10 -- Sn 4              0.33        2.10565
         O 29 -- Sn 2              0.34        2.10572
         O 36 -- Sn 8              0.34        2.10841
         O 46 -- Sn 2              0.34        2.10849
         O 54 -- Sn 4              0.34        2.10851
         O 43 -- Sn 7              0.34        2.10853
         O 23 -- Sn 3              0.34        2.10996
         O 37 -- Sn 1              0.34        2.11008
         O 47 -- Sn 1              0.34        2.11009
         O 11 -- Sn 5              0.34        2.11019
         O 24 -- Sn 4              0.35        2.11066
         O 12 -- Sn 7              0.34        2.11083
         O 52 -- Zr 7              0.41        2.11166
         O 49 -- Sn 2              0.34        2.11170
         O 41 -- Sn 8              0.34        2.11179
         O 47 -- Sn 3              0.34        2.11188
         O 37 -- Sn 5              0.34        2.11194
         O 20 -- Sn 2              0.34        2.11206
         O 32 -- Sn 8              0.34        2.11230
         O 41 -- Sn 1              0.34        2.11266
         O 49 -- Sn 1              0.34        2.11268
         O 19 -- Sn 5              0.34        2.11289
         O 31 -- Sn 3              0.34        2.11293
         O 56 -- Sn 5              0.34        2.11326
         O 51 -- Sn 3              0.34        2.11343
         O 55 -- Zr 4              0.41        2.11390
         O 55 -- Zr 2              0.41        2.11405
         O 33 -- Zr 6              0.43        2.11412
         O 27 -- Zr 8              0.42        2.11444
         O 40 -- Zr 5              0.43        2.11480
         O 48 -- Zr 1              0.43        2.11482
         O 15 -- Zr 8              0.42        2.11496
         O 34 -- Sn 7              0.34        2.11510
         O 40 -- Zr 3              0.43        2.11520
         O 52 -- Zr 1              0.41        2.11533
         O 33 -- Zr 3              0.43        2.11537
         O 39 -- Sn 4              0.34        2.11537
         O 53 -- Zr 4              0.43        2.11569
         O 34 -- Sn 1              0.34        2.11600
         O 39 -- Sn 1              0.34        2.11601
         O 15 -- Zr 6              0.42        2.11602
         O 26 -- Sn 8              0.34        2.11642
         O 14 -- Sn 2              0.34        2.11650
         O 38 -- Zr 2              0.43        2.11650
         O 27 -- Zr 5              0.42        2.11661
         O 44 -- Zr 7              0.42        2.11709
[...]
         O 15 -- O 32             -0.03        2.83011
         O 11 -- O 21             -0.03        2.83022
         O 20 -- O 27             -0.03        2.83032
         O 9  -- O 23             -0.03        2.83037
         O 36 -- O 44             -0.03        2.83119
         O 46 -- O 53             -0.03        2.83142
         O 18 -- O 26             -0.03        2.83333
         O 35 -- O 43             -0.03        2.83334
         O 14 -- O 30             -0.03        2.83339
         O 45 -- O 54             -0.03        2.83343
         O 54 -- O 56             -0.03        2.83369
         O 43 -- O 51             -0.03        2.83392
         O 20 -- O 23             -0.03        2.83587
         O 11 -- O 32             -0.03        2.83591
         O 36 -- O 46             -0.03        2.83682

Writing analysis data to 093.castep_bin

Writing model to 093.check

 A BibTeX formatted list of references used in this run has been written to
 093.bib

Initialisation time =     53.84 s
Calculation time    =  34017.69 s
Finalisation time   =     36.29 s
Total time          =  34107.82 s

Overall parallel efficiency rating: Good (79%)

Data was distributed by:-
G-vector (4-way); efficiency rating: Very good (80%)
k-point (14-way); efficiency rating: Excellent (98%)