 Compiled for linux_x86_64_ifort16 on Sat, 23 Jul 2016 23:44:54 +0100
 from code version
 203e84763863+ Castep161_branch Fri, 04 Mar 2016 19:21:07 +0000
 Compiler: Intel Fortran 16.0.3.210; Optimisation: fast
 MATHLIBS: Intel MKL(11.3.3) (LAPACK version 3.6.0)
 FFT Lib : mkl
 Fundamental constants values: CODATA 2010

 Run started: Wed, 09 May 2018 22:25:58 +0100
 |           N   N    M   M    RRRR                |
 |           NN  N    MM MM    R   R               |
 |           N N N    M M M    RRRR                |
 |           N  NN    M   M    R  R                |
 |           N   N    M   M    R   R               |
 | Welcome to Materials Studio CASTEP-NMR          |
 | Authors:                                        |
 | J.R. Yates, C.J. Pickard, F. Mauri              |
 | Contributors:                                   |
 | T.F.G. Green, S.A. Joyce                        |
 | Copyright (c) 2004 - 2015                       |
 | Please cite the appropriate publications in all |
 | work arising from your use of CASTEP NMR.       |
 | For NMR Shielding Tensors cite:                 |
 |    "All-electron magnetic response with         |
 |    pseudopotentials: NMR chemical shifts",      |
 |    C. J. Pickard, F. Mauri;                     |
 |    Physical Review B63 245101 (2001), and       |
 |    "Calculation of NMR Chemical Shifts          |
 |    for extended systems using                   |
 |    Ultrasoft Pseudopotentials",                 |
 |    J. R. Yates, C. J. Pickard and F. Mauri      |
 |    Physical Review B76 024401 (2007)            |
 | For Electric Field Gradients cite:              |
 |   "Accurate First Principles Prediction of 17O  |
 |    NMR Parameters in SiO2: Assignment of the    |
 |    Zeolite Ferrierite Spectrum"                 |
 |    M. Profeta, F. Mauri and C. J. Pickard       |
 |    J. Amer. Chem. Soc. 125 541 (2003)           |
 | For Spin-Spin (J) Couplings cite:               |
 |   "A first principles theory of NMR J-coupling  |
 |   in solid-state systems"                       |
 |   S.A. Joyce, J.R. Yates, C.J. Pickard, F. Mauri|
 |   J. Chem. Phys. 127 204107 (2007)              |
 |   "Relativistic NMR J-coupling with ultrasoft   |
 |   pseudopotentials and the zeroth-order regular |
 |   approximation"                                |
 |   T.F.G. Green and J.R. Yates                   |
 |   J. Chem. Phys. 140 234106 (2014)              |

 Atomic calculation performed for O: 1s2 2s2 2p4

 Converged in 44 iterations to an ae energy of -2040.855 eV

 Atomic calculation performed for O: 1s2 2s2 2p4

 Exceeded max iterations: converged to 0.000000062 eV

   | Pseudopotential Report - Date of generation  9-05-2018   |
   | Element: O Ionic charge:  6.00 Level of theory: PBE      |
   | Atomic Solver: ZORA (scalar)                             |
   |               Reference Electronic Structure             |
   |         Orbital         Occupation         Energy        |
   |            2s              2.000           -0.881        |
   |            2p              4.000           -0.332        |
   |                 Pseudopotential Definition               |
   |        Beta     l      e      Rc     scheme   norm       |
   |          1      0   -0.881   1.100     qc      0         |
   |          2      0    0.250   1.100     qc      0         |
   |          3      1   -0.332   1.100     qc      0         |
   |          4      1    0.250   1.100     qc      0         |
   |         loc     2    0.000   1.100     pn      0         |
   | Augmentation charge Rinner = 0.769                       |
   | Partial core correction Rc = 0.769                       |
   | "2|1.1|15|18|20|20:21(qc=7)"                             |
   |      Author: Chris J. Pickard, Cambridge University      |

 Atomic calculation performed for Zr: 1s2 2s2 2p6 3s2 3p6 3d10 4s2 4p6 4d2 5s2

[...]

 Atomic calculation performed for Zr: 1s2 2s2 2p6 3s2 3p6 3d10 4s2 4p6 4d2 5s2

[...]

 Warning: ion_atom_descreen_psp: negative charge density encountered
   | Pseudopotential Report - Date of generation  9-05-2018   |
   | Element: Zr Ionic charge: 12.00 Level of theory: PBE     |
   | Atomic Solver: ZORA (scalar)                             |
   |               Reference Electronic Structure             |
   |         Orbital         Occupation         Energy        |
   |            4s              2.000           -2.003        |
   |            4p              6.000           -1.193        |
   |            5s              2.000           -0.163        |
   |            4d              2.000           -0.132        |
   |                 Pseudopotential Definition               |
   |        Beta     l      e      Rc     scheme   norm       |
   |          1      0   -2.003   2.105     qc      0         |
   |          2      0   -0.163   2.105     qc      0         |
   |          3      0    0.250   2.105     qc      0         |
   |          4      1   -1.193   2.105     qc      0         |
   |          5      1    0.250   2.105     qc      0         |
   |          6      2   -0.132   2.105     qc      0         |
   |          7      2    0.250   2.105     qc      0         |
   |         loc     3    0.000   2.105     pn      0         |
   | Augmentation charge Rinner = 1.471                       |
   | Partial core correction Rc = 1.471                       |
   | "3|2.1|7|8|9|40U:50:41:42"                               |
   |      Author: Chris J. Pickard, Cambridge University      |

 Atomic calculation performed for Sn:

[...]

 Atomic calculation performed for Sn:

[...]

   | Pseudopotential Report - Date of generation  9-05-2018   |
   | Element: Sn Ionic charge: 14.00 Level of theory: PBE     |
   | Atomic Solver: ZORA (scalar)                             |
   |               Reference Electronic Structure             |
   |         Orbital         Occupation         Energy        |
   |            4d             10.000           -0.950        |
   |            5s              2.000           -0.388        |
   |            5p              2.000           -0.136        |
   |                 Pseudopotential Definition               |
   |        Beta     l      e      Rc     scheme   norm       |
   |          1      0   -0.388   2.199     qc      0         |
   |          2      0    0.250   2.199     qc      0         |
   |          3      1   -0.136   2.199     qc      0         |
   |          4      1    0.250   2.199     qc      0         |
   |          5      2   -0.950   2.199     qc      0         |
   |          6      2    0.250   2.199     qc      0         |
   |         loc     3    0.000   2.199     pn      0         |
   | Augmentation charge Rinner = 1.537                       |
   | Partial core correction Rc = 1.537                       |
   | "3|2.2|7|8|9|50:51:42"                                   |
   |      Author: Chris J. Pickard, Cambridge University      |

 Atomic calculation performed for La:

 Converged in 56 iterations to an ae energy of -230121.495 eV

 Atomic calculation performed for La:

 Exceeded max iterations: converged to 0.000000907 eV

 Warning: ion_atom_descreen_psp: negative charge density encountered
   | Pseudopotential Report - Date of generation  9-05-2018   |
   | Element: La Ionic charge: 11.00 Level of theory: PBE     |
   | Atomic Solver: ZORA (scalar)                             |
   |               Reference Electronic Structure             |
   |         Orbital         Occupation         Energy        |
   |            5s              2.000           -1.430        |
   |            5p              6.000           -0.823        |
   |            6s              2.000           -0.135        |
   |            5d              1.000           -0.114        |
   |                 Pseudopotential Definition               |
   |        Beta     l      e      Rc     scheme   norm       |
   |          1      0   -1.430   2.298     qc      0         |
   |          2      0   -0.135   2.298     qc      0         |
   |          3      0    0.250   2.298     qc      0         |
   |          4      1   -0.823   2.298     qc      0         |
   |          5      1    0.250   2.298     qc      0         |
   |          6      2   -0.114   2.298     qc      0         |
   |          7      2    0.250   2.298     qc      0         |
   |         loc     2    0.000   2.298     pn      0         |
   | Augmentation charge Rinner = 1.606                       |
   | Partial core correction Rc = 1.606                       |
   | "2|2.3|5|6|7|50U:60:51:52(qc=4.5)"                       |
   |      Author: Chris J. Pickard, Cambridge University      |

 Pseudo atomic calculation performed for O 2s2 2p4

 Converged in 39 iterations to a total energy of -432.6554 eV

 Pseudo atomic calculation performed for Zr 4s2 4p6 4d2 5s2

[...]

 Calculation parallelised over 56 processes.
 Data is distributed by G-vector(4-way) and k-point(14-way)

 ************************************ Title ************************************
 nmr testing

 ***************************** General Parameters ******************************

 output verbosity                               : normal  (1)
 write checkpoint data to                       : 095.check
 type of calculation                            : Magnetic Resonance
 stress calculation                             : on
 density difference calculation                 : off
 electron localisation func (ELF) calculation   : off
 Hirshfeld analysis                             : off
 unlimited duration calculation
 timing information                             : on
 write final potential to formatted file        : off
 write final density to formatted file          : off
 write structure in CIF formatted file          : on
 write structure in CELL formatted file         : on
 write BibTeX reference list                    : on
 write OTFG pseudopotential files               : on
 checkpoint writing                             : both castep_bin and check files

 output         length unit                     : A
 output           mass unit                     : amu
 output           time unit                     : ps
 output         charge unit                     : e
 output           spin unit                     : hbar/2
 output         energy unit                     : eV
 output          force unit                     : eV/A
 output       velocity unit                     : A/ps
 output       pressure unit                     : GPa
 output     inv_length unit                     : 1/A
 output      frequency unit                     : cm-1
 output force constant unit                     : eV/A**2
 output         volume unit                     : A**3
 output   IR intensity unit                     : (D/A)**2/amu
 output         dipole unit                     : D
 output         efield unit                     : eV/A/e
 output        entropy unit                     : J/mol/K

 wavefunctions paging                           : none
 random number generator seed                   : randomised (222559924)
 data distribution                              : optimal for this architecture
[...]
  |    O          42      -89.51      86.76      0.15  -3.252E+00   0.12 |
  |    O          43      -90.16      90.82      0.07  -3.181E+00   0.07 |
  |    O          44      -85.30      77.59      0.17  -3.202E+00   0.12 |
  |    O          45     -160.28     154.84      0.81   1.101E+00   0.74 |
  |    O          46      -85.77      86.30      0.21  -3.117E+00   0.03 |
  |    O          47      -10.97      56.33      0.52   3.939E+00   0.84 |
  |    O          48     -162.22     147.10      0.82   1.038E+00   0.74 |
  |    O          49      -90.06      89.76      0.08  -3.183E+00   0.07 |
  |    O          50      -85.22      77.44      0.16  -3.203E+00   0.12 |
  |    O          51      -85.77      86.31      0.21  -3.117E+00   0.03 |
  |    O          52     -160.28     154.84      0.81   1.101E+00   0.74 |
  |    O          53      -10.96      56.34      0.52   3.939E+00   0.84 |
  |    O          54     -162.22     147.10      0.82   1.038E+00   0.74 |
  |    O          55      -90.06      89.76      0.08  -3.183E+00   0.07 |
  |    O          56      -85.22      77.44      0.16  -3.203E+00   0.12 |
  |    Zr          1     1634.60    -128.51      0.14  -3.858E+01   0.12 |
  |    Zr          2     1615.30    -118.11      0.02  -3.654E+01   0.02 |
  |    Zr          3     1615.30    -118.11      0.02  -3.654E+01   0.02 |
  |    Zr          4     1634.60    -128.51      0.14  -3.858E+01   0.12 |
[...]
  |    La          2     4598.37     521.93      0.09  -7.473E+01   0.06 |
  |    La          3     4711.06     741.62      0.03  -8.493E+01   0.07 |
  |    La          4     4701.29     781.08      0.12  -8.369E+01   0.14 |
  |    La          5     4598.37     521.93      0.09  -7.473E+01   0.06 |
  |    La          6     4711.06     741.62      0.03  -8.493E+01   0.07 |
  |    La          7     4701.29     781.08      0.12  -8.369E+01   0.14 |
  |    La          8     4612.11     542.81      0.07  -7.923E+01   0.18 |
  |    La          9     4598.37     521.93      0.09  -7.473E+01   0.06 |
  |    La         10     4711.06     741.62      0.03  -8.493E+01   0.07 |
  |    La         11     4598.37     521.93      0.09  -7.473E+01   0.06 |
  |    La         12     4711.06     741.62      0.03  -8.493E+01   0.07 |
  |    La         13     4701.38     781.86      0.12  -8.370E+01   0.14 |
  |    La         14     4612.18     543.84      0.07  -7.933E+01   0.18 |
  |    La         15     4612.18     543.84      0.07  -7.933E+01   0.18 |
  |    La         16     4701.38     781.86      0.12  -8.370E+01   0.14 |

 *********************** Forces ***********************
 *            Cartesian components (eV/A)             *
 *                   x            y            z      *
 * O         1      0.00948      0.00192     -0.00140 *
 * O         2     -0.00423     -0.00075     -0.00068 *
 * O         3      0.00948      0.00192     -0.00140 *
 * O         4     -0.00423     -0.00075     -0.00068 *
 * O         5     -0.00948     -0.00192      0.00140 *
 * O         6     -0.00948     -0.00192      0.00140 *
 * O         7      0.00423      0.00075      0.00068 *
 * O         8      0.00423      0.00075      0.00068 *
 * O         9      0.02007     -0.00017      0.00166 *
 * O        10     -0.02266     -0.02158      0.01983 *
 * O        11      0.00113     -0.01837      0.02039 *
 * O        12      0.00841     -0.00016     -0.00187 *
 * O        13      0.00170      0.01387     -0.00635 *
 * O        14      0.00181     -0.00619     -0.00566 *
 * O        15      0.00181     -0.00619     -0.00566 *
 * O        16      0.00170      0.01387     -0.00635 *
 * O        17     -0.03086     -0.03104      0.00560 *
 * O        18      0.00262      0.00578     -0.01348 *
 * O        19      0.01090     -0.02304     -0.00562 *
 * O        20      0.00319      0.00818      0.00874 *
 * O        21      0.02943      0.00801     -0.02885 *
 * O        22     -0.00170     -0.01387      0.00635 *
 * O        23     -0.01153     -0.00529     -0.02385 *
 * O        24     -0.00181      0.00619      0.00566 *
 * O        25     -0.00113      0.01837     -0.02039 *
 * O        26     -0.00841      0.00016      0.00187 *
 * O        27     -0.02007      0.00017     -0.00166 *
 * O        28      0.02266      0.02158     -0.01983 *
 * O        29      0.03086      0.03104     -0.00560 *
 * O        30     -0.01089      0.02304      0.00562 *
 * O        31     -0.01089      0.02304      0.00562 *
 * O        32      0.03086      0.03104     -0.00560 *
 * O        33      0.02266      0.02158     -0.01984 *
 * O        34     -0.00841      0.00016      0.00187 *
 * O        35     -0.00181      0.00619      0.00566 *
 * O        36     -0.00170     -0.01387      0.00635 *
 * O        37     -0.00262     -0.00578      0.01348 *
 * O        38     -0.00319     -0.00818     -0.00874 *
 * O        39     -0.02943     -0.00801      0.02885 *
 * O        40      0.01153      0.00529      0.02385 *
 * O        41      0.00841     -0.00016     -0.00187 *
 * O        42     -0.02266     -0.02158      0.01984 *
 * O        43     -0.03086     -0.03104      0.00560 *
 * O        44      0.01090     -0.02304     -0.00562 *
 * O        45      0.02007     -0.00017      0.00166 *
 * O        46      0.00113     -0.01837      0.02039 *
 * O        47      0.00262      0.00578     -0.01348 *
 * O        48      0.00319      0.00818      0.00874 *
 * O        49      0.02943      0.00801     -0.02885 *
 * O        50     -0.01153     -0.00529     -0.02385 *
 * O        51     -0.00113      0.01837     -0.02039 *
 * O        52     -0.02007      0.00017     -0.00166 *
 * O        53     -0.00262     -0.00578      0.01348 *
 * O        54     -0.00318     -0.00818     -0.00874 *
 * O        55     -0.02943     -0.00801      0.02885 *
 * O        56      0.01153      0.00529      0.02385 *
 * Zr        1      0.00000      0.00000     -0.00000 *
 * Zr        2      0.00666      0.01326     -0.02223 *
 * Zr        3     -0.00666     -0.01326      0.02222 *
 * Zr        4     -0.00000      0.00000     -0.00000 *
[...]
 * La        2      0.00433      0.00212     -0.00107 *
 * La        3     -0.01288     -0.00480     -0.00196 *
 * La        4     -0.00000      0.00000      0.00000 *
 * La        5     -0.00433     -0.00211      0.00107 *
 * La        6      0.01288      0.00480      0.00196 *
 * La        7     -0.00000      0.00000      0.00000 *
 * La        8     -0.00000     -0.00000     -0.00000 *
 * La        9      0.00433      0.00212     -0.00107 *
 * La       10     -0.01288     -0.00480     -0.00196 *
 * La       11     -0.00433     -0.00211      0.00106 *
 * La       12      0.01288      0.00480      0.00196 *
 * La       13     -0.00000     -0.00000     -0.00000 *
 * La       14     -0.00000      0.00000      0.00000 *
 * La       15     -0.00000      0.00000      0.00000 *
 * La       16     -0.00000     -0.00000     -0.00000 *

 ***************** Stress Tensor *****************
 *          Cartesian components (GPa)           *
 *             x             y             z     *
 *  x      0.062954      0.018841     -0.019292  *
 *  y      0.018841      0.035919     -0.007983  *
 *  z     -0.019292     -0.007983      0.023215  *
 *  Pressure:   -0.0407                          *

[...]

 Pseudo atomic calculation performed for Sn 4d10 5s2 5p2

[...]

 Pseudo atomic calculation performed for La 5s2 5p6 5d1 6s2

 Converged in 34 iterations to a total energy of -968.0372 eV

Charge spilling parameter for spin component 1 = 0.24%

     Atomic Populations (Mulliken)
Species   Ion     s      p      d      f     Total  Charge (e)
  O        1     1.87   5.00   0.00   0.00   6.87    -0.87
  O        2     1.87   5.00   0.00   0.00   6.87    -0.87
  O        3     1.87   5.00   0.00   0.00   6.87    -0.87
  O        4     1.87   5.00   0.00   0.00   6.87    -0.87
  O        5     1.87   5.00   0.00   0.00   6.87    -0.87
  O        6     1.87   5.00   0.00   0.00   6.87    -0.87
  O        7     1.87   5.00   0.00   0.00   6.87    -0.87
  O        8     1.87   5.00   0.00   0.00   6.87    -0.87
  O        9     1.86   4.95   0.00   0.00   6.80    -0.80
  O       10     1.87   4.99   0.00   0.00   6.86    -0.86
  O       11     1.87   4.99   0.00   0.00   6.85    -0.85
  O       12     1.88   5.02   0.00   0.00   6.91    -0.91
  O       13     1.88   5.03   0.00   0.00   6.91    -0.91
  O       14     1.86   4.95   0.00   0.00   6.80    -0.80
  O       15     1.86   4.95   0.00   0.00   6.80    -0.80
  O       16     1.88   5.03   0.00   0.00   6.91    -0.91
  O       17     1.87   4.99   0.00   0.00   6.86    -0.86
  O       18     1.88   5.03   0.00   0.00   6.91    -0.91
  O       19     1.87   4.99   0.00   0.00   6.85    -0.85
  O       20     1.86   4.95   0.00   0.00   6.80    -0.80
  O       21     1.87   4.99   0.00   0.00   6.86    -0.86
  O       22     1.88   5.03   0.00   0.00   6.91    -0.91
  O       23     1.87   4.99   0.00   0.00   6.85    -0.85
  O       24     1.86   4.95   0.00   0.00   6.80    -0.80
  O       25     1.87   4.99   0.00   0.00   6.85    -0.85
  O       26     1.88   5.02   0.00   0.00   6.91    -0.91
  O       27     1.86   4.95   0.00   0.00   6.80    -0.80
  O       28     1.87   4.99   0.00   0.00   6.86    -0.86
  O       29     1.87   4.99   0.00   0.00   6.86    -0.86
  O       30     1.87   4.99   0.00   0.00   6.85    -0.85
  O       31     1.87   4.99   0.00   0.00   6.85    -0.85
  O       32     1.87   4.99   0.00   0.00   6.86    -0.86
  O       33     1.87   4.99   0.00   0.00   6.86    -0.86
  O       34     1.88   5.02   0.00   0.00   6.91    -0.91
  O       35     1.86   4.95   0.00   0.00   6.80    -0.80
  O       36     1.88   5.03   0.00   0.00   6.91    -0.91
  O       37     1.88   5.03   0.00   0.00   6.91    -0.91
  O       38     1.86   4.95   0.00   0.00   6.80    -0.80
  O       39     1.87   4.99   0.00   0.00   6.86    -0.86
  O       40     1.87   4.99   0.00   0.00   6.85    -0.85
  O       41     1.88   5.02   0.00   0.00   6.91    -0.91
  O       42     1.87   4.99   0.00   0.00   6.86    -0.86
  O       43     1.87   4.99   0.00   0.00   6.86    -0.86
  O       44     1.87   4.99   0.00   0.00   6.85    -0.85
  O       45     1.86   4.95   0.00   0.00   6.80    -0.80
  O       46     1.87   4.99   0.00   0.00   6.85    -0.85
  O       47     1.88   5.03   0.00   0.00   6.91    -0.91
  O       48     1.86   4.95   0.00   0.00   6.80    -0.80
  O       49     1.87   4.99   0.00   0.00   6.86    -0.86
  O       50     1.87   4.99   0.00   0.00   6.85    -0.85
  O       51     1.87   4.99   0.00   0.00   6.85    -0.85
  O       52     1.86   4.95   0.00   0.00   6.80    -0.80
  O       53     1.88   5.03   0.00   0.00   6.91    -0.91
  O       54     1.86   4.95   0.00   0.00   6.80    -0.80
  O       55     1.87   4.99   0.00   0.00   6.86    -0.86
  O       56     1.87   4.99   0.00   0.00   6.85    -0.85
  Zr       1     2.37   6.47   1.93   0.00  10.76     1.24
  Zr       2     2.36   6.49   1.92   0.00  10.78     1.22
  Zr       3     2.36   6.49   1.92   0.00  10.78     1.22
  Zr       4     2.37   6.47   1.93   0.00  10.76     1.24
[...]
  La       2     2.12   6.18   1.19   0.00   9.49     1.51
  La       3     2.03   6.17   1.19   0.00   9.39     1.61
  La       4     2.03   6.15   1.20   0.00   9.38     1.62
  La       5     2.12   6.18   1.19   0.00   9.49     1.51
  La       6     2.03   6.17   1.19   0.00   9.39     1.61
  La       7     2.03   6.15   1.20   0.00   9.38     1.62
  La       8     2.09   6.19   1.19   0.00   9.47     1.53
  La       9     2.12   6.18   1.19   0.00   9.49     1.51
  La      10     2.03   6.17   1.19   0.00   9.39     1.61
  La      11     2.12   6.18   1.19   0.00   9.49     1.51
  La      12     2.03   6.17   1.19   0.00   9.39     1.61
  La      13     2.03   6.15   1.20   0.00   9.38     1.62
  La      14     2.09   6.19   1.19   0.00   9.47     1.53
  La      15     2.09   6.19   1.19   0.00   9.47     1.53
  La      16     2.03   6.15   1.20   0.00   9.38     1.62

            Bond              Population      Length (A)
         O 10 -- Sn 3              0.35        2.10019
         O 33 -- Sn 1              0.35        2.10019
         O 28 -- Sn 5              0.35        2.10019
         O 42 -- Sn 6              0.35        2.10019
         O 23 -- Sn 3              0.34        2.10709
         O 40 -- Sn 1              0.34        2.10709
         O 50 -- Sn 6              0.34        2.10709
         O 56 -- Sn 5              0.34        2.10709
         O 44 -- Sn 1              0.34        2.10718
         O 19 -- Sn 5              0.34        2.10718
         O 30 -- Sn 6              0.34        2.10718
         O 31 -- Sn 3              0.34        2.10718
         O 36 -- Sn 8              0.33        2.10784
         O 16 -- Sn 8              0.33        2.10784
         O 22 -- Sn 7              0.33        2.10784
         O 13 -- Sn 7              0.33        2.10784
         O 47 -- Sn 2              0.33        2.10789
         O 53 -- Sn 4              0.33        2.10789
         O 18 -- Sn 4              0.33        2.10789
         O 37 -- Sn 2              0.33        2.10789
         O 29 -- Sn 7              0.35        2.10819
         O 43 -- Sn 7              0.35        2.10819
         O 17 -- Sn 8              0.35        2.10819
         O 32 -- Sn 8              0.35        2.10819
         O 55 -- Sn 4              0.35        2.10822
         O 49 -- Sn 2              0.35        2.10822
         O 39 -- Sn 2              0.35        2.10822
         O 21 -- Sn 4              0.35        2.10822
         O 13 -- Sn 6              0.34        2.10955
         O 22 -- Sn 5              0.34        2.10955
         O 36 -- Sn 1              0.34        2.10955
         O 16 -- Sn 3              0.34        2.10955
         O 37 -- Sn 5              0.34        2.10959
         O 53 -- Sn 1              0.34        2.10959
         O 47 -- Sn 3              0.34        2.10959
         O 18 -- Sn 6              0.34        2.10959
         O 27 -- Zr 8              0.42        2.11400
         O 52 -- Zr 7              0.42        2.11400
         O 9  -- Zr 7              0.42        2.11400
         O 45 -- Zr 8              0.42        2.11400
         O 52 -- Zr 1              0.42        2.11404
         O 27 -- Zr 4              0.42        2.11404
         O 45 -- Zr 1              0.42        2.11404
         O 9  -- Zr 4              0.42        2.11404
         O 33 -- Zr 6              0.44        2.11549
         O 28 -- Zr 3              0.44        2.11549
         O 10 -- Zr 5              0.44        2.11549
         O 42 -- Zr 2              0.44        2.11549
         O 51 -- Sn 3              0.34        2.11570
         O 46 -- Sn 1              0.34        2.11570
         O 25 -- Sn 6              0.34        2.11570
         O 11 -- Sn 5              0.34        2.11570
         O 12 -- Sn 4              0.33        2.11788
         O 34 -- Sn 2              0.33        2.11788
         O 41 -- Sn 2              0.33        2.11788
         O 26 -- Sn 4              0.33        2.11788
         O 41 -- Sn 8              0.33        2.11789
         O 12 -- Sn 7              0.33        2.11789
         O 26 -- Sn 8              0.33        2.11789
         O 34 -- Sn 7              0.33        2.11789
[...]
         O 38 -- O 55             -0.03        2.82864
         O 21 -- O 48             -0.03        2.82864
         O 39 -- O 54             -0.03        2.82864
         O 17 -- O 24             -0.03        2.82868
         O 15 -- O 32             -0.03        2.82868
         O 35 -- O 43             -0.03        2.82868
         O 14 -- O 29             -0.03        2.82868
         O 11 -- O 21             -0.03        2.83320
         O 25 -- O 39             -0.03        2.83320
         O 46 -- O 49             -0.03        2.83320
         O 51 -- O 55             -0.03        2.83320
         O 17 -- O 25             -0.03        2.83328
         O 11 -- O 32             -0.03        2.83328
         O 43 -- O 51             -0.03        2.83328
         O 29 -- O 46             -0.03        2.83328

Writing analysis data to 095.castep_bin

Writing model to 095.check

 A BibTeX formatted list of references used in this run has been written to
 095.bib

Initialisation time =     54.63 s
Calculation time    =  33665.08 s
Finalisation time   =     71.19 s
Total time          =  33790.90 s

Overall parallel efficiency rating: Good (79%)

Data was distributed by:-
G-vector (4-way); efficiency rating: Good (79%)
k-point (14-way); efficiency rating: Excellent (99%)