 Compiled for linux_x86_64_ifort16 on Sat, 23 Jul 2016 23:44:54 +0100
 from code version
 203e84763863+ Castep161_branch Fri, 04 Mar 2016 19:21:07 +0000
 Compiler: Intel Fortran 16.0.3.210; Optimisation: fast
 MATHLIBS: Intel MKL(11.3.3) (LAPACK version 3.6.0)
 FFT Lib : mkl
 Fundamental constants values: CODATA 2010

 Run started: Tue, 15 May 2018 15:51:07 +0100
 |           N   N    M   M    RRRR                |
 |           NN  N    MM MM    R   R               |
 |           N N N    M M M    RRRR                |
 |           N  NN    M   M    R  R                |
 |           N   N    M   M    R   R               |
 | Welcome to Materials Studio CASTEP-NMR          |
 | Authors:                                        |
 | J.R. Yates, C.J. Pickard, F. Mauri              |
 | Contributors:                                   |
 | T.F.G. Green, S.A. Joyce                        |
 | Copyright (c) 2004 - 2015                       |
 | Please cite the appropriate publications in all |
 | work arising from your use of CASTEP NMR.       |
 | For NMR Shielding Tensors cite:                 |
 |    "All-electron magnetic response with         |
 |    pseudopotentials: NMR chemical shifts",      |
 |    C. J. Pickard, F. Mauri;                     |
 |    Physical Review B63 245101 (2001), and       |
 |    "Calculation of NMR Chemical Shifts          |
 |    for extended systems using                   |
 |    Ultrasoft Pseudopotentials",                 |
 |    J. R. Yates, C. J. Pickard and F. Mauri      |
 |    Physical Review B76 024401 (2007)            |
 | For Electric Field Gradients cite:              |
 |   "Accurate First Principles Prediction of 17O  |
 |    NMR Parameters in SiO2: Assignment of the    |
 |    Zeolite Ferrierite Spectrum"                 |
 |    M. Profeta, F. Mauri and C. J. Pickard       |
 |    J. Amer. Chem. Soc. 125 541 (2003)           |
 | For Spin-Spin (J) Couplings cite:               |
 |   "A first principles theory of NMR J-coupling  |
 |   in solid-state systems"                       |
 |   S.A. Joyce, J.R. Yates, C.J. Pickard, F. Mauri|
 |   J. Chem. Phys. 127 204107 (2007)              |
 |   "Relativistic NMR J-coupling with ultrasoft   |
 |   pseudopotentials and the zeroth-order regular |
 |   approximation"                                |
 |   T.F.G. Green and J.R. Yates                   |
 |   J. Chem. Phys. 140 234106 (2014)              |

 Atomic calculation performed for O: 1s2 2s2 2p4

 Converged in 44 iterations to an ae energy of -2040.855 eV

 Atomic calculation performed for O: 1s2 2s2 2p4

 Exceeded max iterations: converged to 0.000000062 eV

   | Pseudopotential Report - Date of generation 15-05-2018   |
   | Element: O Ionic charge:  6.00 Level of theory: PBE      |
   | Atomic Solver: ZORA (scalar)                             |
   |               Reference Electronic Structure             |
   |         Orbital         Occupation         Energy        |
   |            2s              2.000           -0.881        |
   |            2p              4.000           -0.332        |
   |                 Pseudopotential Definition               |
   |        Beta     l      e      Rc     scheme   norm       |
   |          1      0   -0.881   1.100     qc      0         |
   |          2      0    0.250   1.100     qc      0         |
   |          3      1   -0.332   1.100     qc      0         |
   |          4      1    0.250   1.100     qc      0         |
   |         loc     2    0.000   1.100     pn      0         |
   | Augmentation charge Rinner = 0.769                       |
   | Partial core correction Rc = 0.769                       |
   | "2|1.1|15|18|20|20:21(qc=7)"                             |
   |      Author: Chris J. Pickard, Cambridge University      |

 Atomic calculation performed for Zr: 1s2 2s2 2p6 3s2 3p6 3d10 4s2 4p6 4d2 5s2

[...]

 Atomic calculation performed for Zr: 1s2 2s2 2p6 3s2 3p6 3d10 4s2 4p6 4d2 5s2

[...]

 Warning: ion_atom_descreen_psp: negative charge density encountered
   | Pseudopotential Report - Date of generation 15-05-2018   |
   | Element: Zr Ionic charge: 12.00 Level of theory: PBE     |
   | Atomic Solver: ZORA (scalar)                             |
   |               Reference Electronic Structure             |
   |         Orbital         Occupation         Energy        |
   |            4s              2.000           -2.003        |
   |            4p              6.000           -1.193        |
   |            5s              2.000           -0.163        |
   |            4d              2.000           -0.132        |
   |                 Pseudopotential Definition               |
   |        Beta     l      e      Rc     scheme   norm       |
   |          1      0   -2.003   2.105     qc      0         |
   |          2      0   -0.163   2.105     qc      0         |
   |          3      0    0.250   2.105     qc      0         |
   |          4      1   -1.193   2.105     qc      0         |
   |          5      1    0.250   2.105     qc      0         |
   |          6      2   -0.132   2.105     qc      0         |
   |          7      2    0.250   2.105     qc      0         |
   |         loc     3    0.000   2.105     pn      0         |
   | Augmentation charge Rinner = 1.471                       |
   | Partial core correction Rc = 1.471                       |
   | "3|2.1|7|8|9|40U:50:41:42"                               |
   |      Author: Chris J. Pickard, Cambridge University      |

 Atomic calculation performed for Sn:

[...]

 Atomic calculation performed for Sn:

[...]

   | Pseudopotential Report - Date of generation 15-05-2018   |
   | Element: Sn Ionic charge: 14.00 Level of theory: PBE     |
   | Atomic Solver: ZORA (scalar)                             |
   |               Reference Electronic Structure             |
   |         Orbital         Occupation         Energy        |
   |            4d             10.000           -0.950        |
   |            5s              2.000           -0.388        |
   |            5p              2.000           -0.136        |
   |                 Pseudopotential Definition               |
   |        Beta     l      e      Rc     scheme   norm       |
   |          1      0   -0.388   2.199     qc      0         |
   |          2      0    0.250   2.199     qc      0         |
   |          3      1   -0.136   2.199     qc      0         |
   |          4      1    0.250   2.199     qc      0         |
   |          5      2   -0.950   2.199     qc      0         |
   |          6      2    0.250   2.199     qc      0         |
   |         loc     3    0.000   2.199     pn      0         |
   | Augmentation charge Rinner = 1.537                       |
   | Partial core correction Rc = 1.537                       |
   | "3|2.2|7|8|9|50:51:42"                                   |
   |      Author: Chris J. Pickard, Cambridge University      |

 Atomic calculation performed for La:

 Converged in 56 iterations to an ae energy of -230121.495 eV

 Atomic calculation performed for La:

 Exceeded max iterations: converged to 0.000000907 eV

 Warning: ion_atom_descreen_psp: negative charge density encountered
   | Pseudopotential Report - Date of generation 15-05-2018   |
   | Element: La Ionic charge: 11.00 Level of theory: PBE     |
   | Atomic Solver: ZORA (scalar)                             |
   |               Reference Electronic Structure             |
   |         Orbital         Occupation         Energy        |
   |            5s              2.000           -1.430        |
   |            5p              6.000           -0.823        |
   |            6s              2.000           -0.135        |
   |            5d              1.000           -0.114        |
   |                 Pseudopotential Definition               |
   |        Beta     l      e      Rc     scheme   norm       |
   |          1      0   -1.430   2.298     qc      0         |
   |          2      0   -0.135   2.298     qc      0         |
   |          3      0    0.250   2.298     qc      0         |
   |          4      1   -0.823   2.298     qc      0         |
   |          5      1    0.250   2.298     qc      0         |
   |          6      2   -0.114   2.298     qc      0         |
   |          7      2    0.250   2.298     qc      0         |
   |         loc     2    0.000   2.298     pn      0         |
   | Augmentation charge Rinner = 1.606                       |
   | Partial core correction Rc = 1.606                       |
   | "2|2.3|5|6|7|50U:60:51:52(qc=4.5)"                       |
   |      Author: Chris J. Pickard, Cambridge University      |

 Pseudo atomic calculation performed for O 2s2 2p4

 Converged in 39 iterations to a total energy of -432.6554 eV

 Pseudo atomic calculation performed for Zr 4s2 4p6 4d2 5s2

[...]

 Calculation parallelised over 56 processes.
 Data is distributed by G-vector(4-way) and k-point(14-way)

 ************************************ Title ************************************
 nmr testing

 ***************************** General Parameters ******************************

 output verbosity                               : normal  (1)
 write checkpoint data to                       : 097.check
 type of calculation                            : Magnetic Resonance
 stress calculation                             : on
 density difference calculation                 : off
 electron localisation func (ELF) calculation   : off
 Hirshfeld analysis                             : off
 unlimited duration calculation
 timing information                             : on
 write final potential to formatted file        : off
 write final density to formatted file          : off
 write structure in CIF formatted file          : on
 write structure in CELL formatted file         : on
 write BibTeX reference list                    : on
 write OTFG pseudopotential files               : on
 checkpoint writing                             : both castep_bin and check files

 output         length unit                     : A
 output           mass unit                     : amu
 output           time unit                     : ps
 output         charge unit                     : e
 output           spin unit                     : hbar/2
 output         energy unit                     : eV
 output          force unit                     : eV/A
 output       velocity unit                     : A/ps
 output       pressure unit                     : GPa
 output     inv_length unit                     : 1/A
 output      frequency unit                     : cm-1
 output force constant unit                     : eV/A**2
 output         volume unit                     : A**3
 output   IR intensity unit                     : (D/A)**2/amu
 output         dipole unit                     : D
 output         efield unit                     : eV/A/e
 output        entropy unit                     : J/mol/K

 wavefunctions paging                           : none
 random number generator seed                   : randomised (155109913)
 data distribution                              : optimal for this architecture
[...]
  |    O          41       -5.31     -67.28      0.90   3.719E+00   0.96 |
  |    O          42     -167.29     161.97      0.85   1.070E+00   0.91 |
  |    O          43      -89.25      88.12      0.11  -3.198E+00   0.09 |
  |    O          44      -88.78      84.38      0.12  -3.208E+00   0.09 |
  |    O          45     -167.12     162.82      0.84   1.071E+00   0.90 |
  |    O          46       -6.18     -67.51      0.89   3.717E+00   0.96 |
  |    O          47      -88.52      82.51      0.12  -3.208E+00   0.10 |
  |    O          48      -87.82      80.59      0.12  -3.210E+00   0.10 |
  |    O          49      -16.39     -39.58      0.83   3.887E+00   0.88 |
  |    O          50     -162.05     147.43      0.78   1.011E+00   0.78 |
  |    O          51     -158.09     141.57      0.74   1.119E+00   0.58 |
  |    O          52     -158.32     140.61      0.75   1.122E+00   0.58 |
  |    O          53      -16.38     -39.58      0.83   3.887E+00   0.88 |
  |    O          54     -162.05     147.44      0.78   1.011E+00   0.78 |
  |    O          55      -88.52      82.52      0.12  -3.208E+00   0.10 |
  |    O          56      -87.82      80.57      0.12  -3.210E+00   0.10 |
  |    Zr          1     1625.17    -119.45      0.08  -3.809E+01   0.13 |
  |    Zr          2     1624.85    -119.26      0.06  -3.824E+01   0.13 |
  |    Zr          3     1624.86    -119.27      0.06  -3.824E+01   0.13 |
  |    Zr          4     1625.17    -119.45      0.08  -3.809E+01   0.13 |
[...]
  |    La          2     4611.14     511.94      0.08  -7.800E+01   0.10 |
  |    La          3     4699.72     758.13      0.05  -8.336E+01   0.12 |
  |    La          4     4698.64     754.98      0.05  -8.318E+01   0.11 |
  |    La          5     4699.72     758.14      0.05  -8.336E+01   0.12 |
  |    La          6     4611.14     511.92      0.08  -7.800E+01   0.10 |
  |    La          7     4698.64     754.98      0.05  -8.318E+01   0.11 |
  |    La          8     4611.22     511.27      0.08  -7.795E+01   0.10 |
  |    La          9     4611.14     511.94      0.08  -7.800E+01   0.10 |
  |    La         10     4699.72     758.13      0.05  -8.336E+01   0.12 |
  |    La         11     4699.72     758.14      0.05  -8.336E+01   0.12 |
  |    La         12     4611.14     511.92      0.08  -7.800E+01   0.10 |
  |    La         13     4699.33     757.88      0.06  -8.340E+01   0.12 |
  |    La         14     4612.16     515.19      0.08  -7.820E+01   0.09 |
  |    La         15     4612.16     515.19      0.08  -7.820E+01   0.09 |
  |    La         16     4699.33     757.88      0.06  -8.340E+01   0.12 |

 *********************** Forces ***********************
 *            Cartesian components (eV/A)             *
 *                   x            y            z      *
 * O         1      0.00163      0.00421      0.00421 *
 * O         2      0.00375      0.00532      0.00532 *
 * O         3      0.00163      0.00421      0.00421 *
 * O         4      0.00375      0.00532      0.00532 *
 * O         5     -0.00300      0.00536      0.00536 *
 * O         6     -0.00300      0.00536      0.00536 *
 * O         7      0.00785      0.00323      0.00323 *
 * O         8      0.00785      0.00323      0.00323 *
 * O         9      0.01889     -0.01280     -0.01280 *
 * O        10     -0.01702     -0.00141     -0.00141 *
 * O        11     -0.00044      0.00460      0.00460 *
 * O        12     -0.00057      0.00479      0.00479 *
 * O        13     -0.00592     -0.00671     -0.00604 *
 * O        14      0.00581      0.01204     -0.00415 *
 * O        15      0.00581      0.01204     -0.00415 *
 * O        16     -0.00592     -0.00671     -0.00604 *
 * O        17     -0.00592     -0.00604     -0.00671 *
 * O        18     -0.00138      0.00591      0.01048 *
 * O        19      0.00581     -0.00415      0.01204 *
 * O        20     -0.00356     -0.00111     -0.00633 *
 * O        21     -0.00090      0.00139      0.00499 *
 * O        22     -0.00797      0.00716     -0.00417 *
 * O        23      0.00196     -0.00363     -0.00041 *
 * O        24      0.00493      0.00235     -0.00423 *
 * O        25     -0.00886     -0.00136     -0.00136 *
 * O        26      0.00865      0.00047      0.00047 *
 * O        27      0.00950     -0.00575     -0.00575 *
 * O        28     -0.00680      0.00438      0.00438 *
 * O        29     -0.00797     -0.00417      0.00716 *
 * O        30      0.00493     -0.00423      0.00235 *
 * O        31      0.00493     -0.00423      0.00235 *
 * O        32     -0.00797     -0.00417      0.00716 *
 * O        33     -0.00680      0.00438      0.00438 *
 * O        34      0.00865      0.00047      0.00047 *
 * O        35      0.00493      0.00235     -0.00423 *
 * O        36     -0.00797      0.00716     -0.00417 *
 * O        37     -0.00090      0.00499      0.00139 *
 * O        38      0.00196     -0.00041     -0.00363 *
 * O        39     -0.00138      0.01048      0.00591 *
 * O        40     -0.00356     -0.00633     -0.00111 *
 * O        41     -0.00057      0.00479      0.00479 *
 * O        42     -0.01702     -0.00141     -0.00141 *
 * O        43     -0.00592     -0.00604     -0.00671 *
 * O        44      0.00581     -0.00415      0.01204 *
 * O        45      0.01889     -0.01280     -0.01280 *
 * O        46     -0.00044      0.00460      0.00460 *
 * O        47     -0.00138      0.00591      0.01048 *
 * O        48     -0.00356     -0.00111     -0.00633 *
 * O        49     -0.00090      0.00139      0.00499 *
 * O        50      0.00196     -0.00363     -0.00041 *
 * O        51     -0.00886     -0.00136     -0.00136 *
 * O        52      0.00950     -0.00575     -0.00575 *
 * O        53     -0.00090      0.00499      0.00139 *
 * O        54      0.00196     -0.00041     -0.00363 *
 * O        55     -0.00138      0.01048      0.00591 *
 * O        56     -0.00356     -0.00633     -0.00111 *
 * Zr        1     -0.00747      0.00366      0.00366 *
 * Zr        2     -0.00911     -0.01295     -0.00070 *
 * Zr        3     -0.00911     -0.00069     -0.01295 *
 * Zr        4     -0.00747      0.00366      0.00366 *
[...]
 * La        2      0.00717     -0.00119      0.01217 *
 * La        3     -0.01427     -0.01251      0.00311 *
 * La        4      0.00925      0.01443      0.01443 *
 * La        5     -0.01427      0.00311     -0.01251 *
 * La        6      0.00717      0.01217     -0.00120 *
 * La        7      0.00925      0.01444      0.01443 *
 * La        8      0.00547      0.01206      0.01206 *
 * La        9      0.00717     -0.00120      0.01217 *
 * La       10     -0.01427     -0.01251      0.00311 *
 * La       11     -0.01427      0.00311     -0.01251 *
 * La       12      0.00717      0.01217     -0.00120 *
 * La       13      0.01006     -0.00822     -0.00822 *
 * La       14     -0.00068     -0.00879     -0.00879 *
 * La       15     -0.00068     -0.00879     -0.00879 *
 * La       16      0.01006     -0.00822     -0.00822 *

 ***************** Stress Tensor *****************
 *          Cartesian components (GPa)           *
 *             x             y             z     *
 *  x     -0.003526     -0.002133     -0.002131  *
 *  y     -0.002133      0.001165     -0.002356  *
 *  z     -0.002131     -0.002356      0.001165  *
 *  Pressure:    0.0004                          *

[...]

 Pseudo atomic calculation performed for Sn 4d10 5s2 5p2

[...]

 Pseudo atomic calculation performed for La 5s2 5p6 5d1 6s2

 Converged in 34 iterations to a total energy of -968.0372 eV

Charge spilling parameter for spin component 1 = 0.24%

     Atomic Populations (Mulliken)
Species   Ion     s      p      d      f     Total  Charge (e)
  O        1     1.87   5.00   0.00   0.00   6.87    -0.87
  O        2     1.87   5.00   0.00   0.00   6.87    -0.87
  O        3     1.87   5.00   0.00   0.00   6.87    -0.87
  O        4     1.87   5.00   0.00   0.00   6.87    -0.87
  O        5     1.87   5.00   0.00   0.00   6.87    -0.87
  O        6     1.87   5.00   0.00   0.00   6.87    -0.87
  O        7     1.87   5.00   0.00   0.00   6.87    -0.87
  O        8     1.87   5.00   0.00   0.00   6.87    -0.87
  O        9     1.85   4.95   0.00   0.00   6.80    -0.80
  O       10     1.85   4.95   0.00   0.00   6.80    -0.80
  O       11     1.88   5.02   0.00   0.00   6.91    -0.91
  O       12     1.88   5.02   0.00   0.00   6.91    -0.91
  O       13     1.87   4.99   0.00   0.00   6.86    -0.86
  O       14     1.87   4.99   0.00   0.00   6.86    -0.86
  O       15     1.87   4.99   0.00   0.00   6.86    -0.86
  O       16     1.87   4.99   0.00   0.00   6.86    -0.86
  O       17     1.87   4.99   0.00   0.00   6.86    -0.86
  O       18     1.87   4.99   0.00   0.00   6.86    -0.86
  O       19     1.87   4.99   0.00   0.00   6.86    -0.86
  O       20     1.87   4.99   0.00   0.00   6.86    -0.86
  O       21     1.88   5.02   0.00   0.00   6.91    -0.91
  O       22     1.88   5.03   0.00   0.00   6.91    -0.91
  O       23     1.86   4.94   0.00   0.00   6.80    -0.80
  O       24     1.86   4.94   0.00   0.00   6.80    -0.80
  O       25     1.86   4.95   0.00   0.00   6.80    -0.80
  O       26     1.88   5.03   0.00   0.00   6.91    -0.91
  O       27     1.86   4.95   0.00   0.00   6.80    -0.80
  O       28     1.88   5.03   0.00   0.00   6.91    -0.91
  O       29     1.88   5.02   0.00   0.00   6.91    -0.91
  O       30     1.86   4.94   0.00   0.00   6.80    -0.80
  O       31     1.86   4.94   0.00   0.00   6.80    -0.80
  O       32     1.88   5.02   0.00   0.00   6.91    -0.91
  O       33     1.88   5.03   0.00   0.00   6.91    -0.91
  O       34     1.88   5.03   0.00   0.00   6.91    -0.91
  O       35     1.86   4.94   0.00   0.00   6.80    -0.80
  O       36     1.88   5.03   0.00   0.00   6.91    -0.91
  O       37     1.88   5.02   0.00   0.00   6.91    -0.91
  O       38     1.86   4.94   0.00   0.00   6.80    -0.80
  O       39     1.87   4.99   0.00   0.00   6.86    -0.86
  O       40     1.87   4.99   0.00   0.00   6.86    -0.86
  O       41     1.88   5.02   0.00   0.00   6.91    -0.91
  O       42     1.85   4.95   0.00   0.00   6.80    -0.80
  O       43     1.87   4.99   0.00   0.00   6.86    -0.86
  O       44     1.87   4.99   0.00   0.00   6.86    -0.86
  O       45     1.85   4.95   0.00   0.00   6.80    -0.80
  O       46     1.88   5.02   0.00   0.00   6.91    -0.91
  O       47     1.87   4.99   0.00   0.00   6.86    -0.86
  O       48     1.87   4.99   0.00   0.00   6.86    -0.86
  O       49     1.88   5.02   0.00   0.00   6.91    -0.91
  O       50     1.86   4.94   0.00   0.00   6.80    -0.80
  O       51     1.86   4.95   0.00   0.00   6.80    -0.80
  O       52     1.86   4.95   0.00   0.00   6.80    -0.80
  O       53     1.88   5.02   0.00   0.00   6.91    -0.91
  O       54     1.86   4.94   0.00   0.00   6.80    -0.80
  O       55     1.87   4.99   0.00   0.00   6.86    -0.86
  O       56     1.87   4.99   0.00   0.00   6.86    -0.86
  Zr       1     2.36   6.47   1.93   0.00  10.76     1.24
  Zr       2     2.36   6.47   1.93   0.00  10.76     1.24
  Zr       3     2.36   6.47   1.93   0.00  10.76     1.24
  Zr       4     2.36   6.47   1.93   0.00  10.76     1.24
[...]
  La       2     2.10   6.19   1.19   0.00   9.48     1.52
  La       3     2.05   6.16   1.19   0.00   9.40     1.60
  La       4     2.05   6.16   1.19   0.00   9.40     1.60
  La       5     2.05   6.16   1.19   0.00   9.40     1.60
  La       6     2.10   6.19   1.19   0.00   9.48     1.52
  La       7     2.05   6.16   1.19   0.00   9.40     1.60
  La       8     2.10   6.19   1.19   0.00   9.48     1.52
  La       9     2.10   6.19   1.19   0.00   9.48     1.52
  La      10     2.05   6.16   1.19   0.00   9.40     1.60
  La      11     2.05   6.16   1.19   0.00   9.40     1.60
  La      12     2.10   6.19   1.19   0.00   9.48     1.52
  La      13     2.05   6.16   1.19   0.00   9.40     1.60
  La      14     2.10   6.19   1.19   0.00   9.48     1.52
  La      15     2.10   6.19   1.19   0.00   9.48     1.52
  La      16     2.05   6.16   1.19   0.00   9.40     1.60

            Bond              Population      Length (A)
         O 45 -- Zr 8              0.41        2.10120
         O 9  -- Zr 7              0.41        2.10120
         O 48 -- Sn 6              0.35        2.10346
         O 20 -- Sn 3              0.35        2.10346
         O 56 -- Sn 5              0.35        2.10346
         O 40 -- Sn 1              0.35        2.10346
         O 55 -- Sn 4              0.35        2.10420
         O 39 -- Sn 2              0.35        2.10420
         O 18 -- Sn 4              0.35        2.10420
         O 47 -- Sn 2              0.35        2.10420
         O 14 -- Sn 3              0.35        2.10425
         O 44 -- Sn 1              0.35        2.10425
         O 15 -- Sn 6              0.35        2.10425
         O 19 -- Sn 5              0.35        2.10425
         O 17 -- Sn 8              0.34        2.10451
         O 43 -- Sn 7              0.34        2.10451
         O 13 -- Sn 7              0.34        2.10451
         O 16 -- Sn 8              0.34        2.10451
         O 32 -- Sn 8              0.34        2.10708
         O 29 -- Sn 7              0.34        2.10708
         O 36 -- Sn 8              0.34        2.10708
         O 22 -- Sn 7              0.34        2.10708
         O 42 -- Zr 6              0.41        2.10788
         O 10 -- Zr 3              0.41        2.10788
         O 42 -- Zr 2              0.41        2.10788
         O 10 -- Zr 5              0.41        2.10788
         O 21 -- Sn 4              0.34        2.10818
         O 49 -- Sn 2              0.34        2.10818
         O 53 -- Sn 4              0.34        2.10818
         O 37 -- Sn 2              0.34        2.10818
         O 21 -- Sn 6              0.34        2.10841
         O 53 -- Sn 1              0.34        2.10841
         O 49 -- Sn 3              0.34        2.10841
         O 37 -- Sn 5              0.34        2.10841
         O 32 -- Sn 6              0.34        2.10922
         O 29 -- Sn 3              0.34        2.10922
         O 22 -- Sn 5              0.34        2.10922
         O 36 -- Sn 1              0.34        2.10922
         O 34 -- Sn 7              0.33        2.10948
         O 26 -- Sn 8              0.33        2.10948
         O 28 -- Sn 5              0.33        2.10972
         O 33 -- Sn 1              0.33        2.10972
         O 28 -- Sn 3              0.33        2.10972
         O 33 -- Sn 6              0.33        2.10972
         O 34 -- Sn 2              0.33        2.11026
         O 26 -- Sn 4              0.33        2.11026
         O 27 -- Zr 4              0.43        2.11385
         O 52 -- Zr 1              0.43        2.11385
         O 9  -- Zr 4              0.40        2.11393
         O 45 -- Zr 1              0.40        2.11393
         O 17 -- Zr 5              0.45        2.11649
         O 43 -- Zr 2              0.45        2.11649
         O 13 -- Zr 6              0.45        2.11649
         O 16 -- Zr 3              0.45        2.11649
         O 51 -- Zr 3              0.43        2.11932
         O 25 -- Zr 6              0.43        2.11932
         O 25 -- Zr 5              0.43        2.11932
         O 51 -- Zr 2              0.43        2.11932
         O 15 -- Zr 8              0.45        2.12034
         O 14 -- Zr 7              0.45        2.12034
[...]
         O 14 -- O 52             -0.03        2.83069
         O 44 -- O 52             -0.03        2.83069
         O 19 -- O 27             -0.03        2.83069
         O 51 -- O 55             -0.03        2.83180
         O 25 -- O 39             -0.03        2.83180
         O 47 -- O 51             -0.03        2.83180
         O 18 -- O 25             -0.03        2.83180
         O 17 -- O 25             -0.03        2.83192
         O 43 -- O 51             -0.03        2.83192
         O 16 -- O 51             -0.03        2.83192
         O 13 -- O 25             -0.03        2.83192
         O 20 -- O 27             -0.03        2.83258
         O 48 -- O 52             -0.03        2.83258
         O 27 -- O 40             -0.03        2.83258
         O 52 -- O 56             -0.03        2.83258

Writing analysis data to 097.castep_bin

Writing model to 097.check

 A BibTeX formatted list of references used in this run has been written to
 097.bib

Initialisation time =     55.04 s
Calculation time    =  33645.79 s
Finalisation time   =    136.39 s
Total time          =  33837.22 s

Overall parallel efficiency rating: Good (77%)

Data was distributed by:-
G-vector (4-way); efficiency rating: Good (77%)
k-point (14-way); efficiency rating: Ideal (100%)