 Compiled for linux_x86_64_ifort16 on Sat, 23 Jul 2016 23:44:54 +0100
 from code version
 203e84763863+ Castep161_branch Fri, 04 Mar 2016 19:21:07 +0000
 Compiler: Intel Fortran 16.0.3.210; Optimisation: fast
 MATHLIBS: Intel MKL(11.3.3) (LAPACK version 3.6.0)
 FFT Lib : mkl
 Fundamental constants values: CODATA 2010

 Run started: Mon, 11 Dec 2017 17:22:14 +0000
 |           N   N    M   M    RRRR                |
 |           NN  N    MM MM    R   R               |
 |           N N N    M M M    RRRR                |
 |           N  NN    M   M    R  R                |
 |           N   N    M   M    R   R               |
 | Welcome to Materials Studio CASTEP-NMR          |
 | Authors:                                        |
 | J.R. Yates, C.J. Pickard, F. Mauri              |
 | Contributors:                                   |
 | T.F.G. Green, S.A. Joyce                        |
 | Copyright (c) 2004 - 2015                       |
 | Please cite the appropriate publications in all |
 | work arising from your use of CASTEP NMR.       |
 | For NMR Shielding Tensors cite:                 |
 |    "All-electron magnetic response with         |
 |    pseudopotentials: NMR chemical shifts",      |
 |    C. J. Pickard, F. Mauri;                     |
 |    Physical Review B63 245101 (2001), and       |
 |    "Calculation of NMR Chemical Shifts          |
 |    for extended systems using                   |
 |    Ultrasoft Pseudopotentials",                 |
 |    J. R. Yates, C. J. Pickard and F. Mauri      |
 |    Physical Review B76 024401 (2007)            |
 | For Electric Field Gradients cite:              |
 |   "Accurate First Principles Prediction of 17O  |
 |    NMR Parameters in SiO2: Assignment of the    |
 |    Zeolite Ferrierite Spectrum"                 |
 |    M. Profeta, F. Mauri and C. J. Pickard       |
 |    J. Amer. Chem. Soc. 125 541 (2003)           |
 | For Spin-Spin (J) Couplings cite:               |
 |   "A first principles theory of NMR J-coupling  |
 |   in solid-state systems"                       |
 |   S.A. Joyce, J.R. Yates, C.J. Pickard, F. Mauri|
 |   J. Chem. Phys. 127 204107 (2007)              |
 |   "Relativistic NMR J-coupling with ultrasoft   |
 |   pseudopotentials and the zeroth-order regular |
 |   approximation"                                |
 |   T.F.G. Green and J.R. Yates                   |
 |   J. Chem. Phys. 140 234106 (2014)              |

 Atomic calculation performed for O: 1s2 2s2 2p4

 Converged in 44 iterations to an ae energy of -2040.855 eV

 Atomic calculation performed for O: 1s2 2s2 2p4

 Exceeded max iterations: converged to 0.000000062 eV

   | Pseudopotential Report - Date of generation 11-12-2017   |
   | Element: O Ionic charge:  6.00 Level of theory: PBE      |
   | Atomic Solver: ZORA (scalar)                             |
   |               Reference Electronic Structure             |
   |         Orbital         Occupation         Energy        |
   |            2s              2.000           -0.881        |
   |            2p              4.000           -0.332        |
   |                 Pseudopotential Definition               |
   |        Beta     l      e      Rc     scheme   norm       |
   |          1      0   -0.881   1.100     qc      0         |
   |          2      0    0.250   1.100     qc      0         |
   |          3      1   -0.332   1.100     qc      0         |
   |          4      1    0.250   1.100     qc      0         |
   |         loc     2    0.000   1.100     pn      0         |
   | Augmentation charge Rinner = 0.769                       |
   | Partial core correction Rc = 0.769                       |
   | "2|1.1|15|18|20|20:21(qc=7)"                             |
   |      Author: Chris J. Pickard, Cambridge University      |

 Atomic calculation performed for Zr: 1s2 2s2 2p6 3s2 3p6 3d10 4s2 4p6 4d2 5s2

[...]

 Atomic calculation performed for Zr: 1s2 2s2 2p6 3s2 3p6 3d10 4s2 4p6 4d2 5s2

[...]

 Warning: ion_atom_descreen_psp: negative charge density encountered
   | Pseudopotential Report - Date of generation 11-12-2017   |
   | Element: Zr Ionic charge: 12.00 Level of theory: PBE     |
   | Atomic Solver: ZORA (scalar)                             |
   |               Reference Electronic Structure             |
   |         Orbital         Occupation         Energy        |
   |            4s              2.000           -2.003        |
   |            4p              6.000           -1.193        |
   |            5s              2.000           -0.163        |
   |            4d              2.000           -0.132        |
   |                 Pseudopotential Definition               |
   |        Beta     l      e      Rc     scheme   norm       |
   |          1      0   -2.003   2.105     qc      0         |
   |          2      0   -0.163   2.105     qc      0         |
   |          3      0    0.250   2.105     qc      0         |
   |          4      1   -1.193   2.105     qc      0         |
   |          5      1    0.250   2.105     qc      0         |
   |          6      2   -0.132   2.105     qc      0         |
   |          7      2    0.250   2.105     qc      0         |
   |         loc     3    0.000   2.105     pn      0         |
   | Augmentation charge Rinner = 1.471                       |
   | Partial core correction Rc = 1.471                       |
   | "3|2.1|7|8|9|40U:50:41:42"                               |
   |      Author: Chris J. Pickard, Cambridge University      |

 Atomic calculation performed for Sn:

[...]

 Atomic calculation performed for Sn:

[...]

   | Pseudopotential Report - Date of generation 11-12-2017   |
   | Element: Sn Ionic charge: 14.00 Level of theory: PBE     |
   | Atomic Solver: ZORA (scalar)                             |
   |               Reference Electronic Structure             |
   |         Orbital         Occupation         Energy        |
   |            4d             10.000           -0.950        |
   |            5s              2.000           -0.388        |
   |            5p              2.000           -0.136        |
   |                 Pseudopotential Definition               |
   |        Beta     l      e      Rc     scheme   norm       |
   |          1      0   -0.388   2.199     qc      0         |
   |          2      0    0.250   2.199     qc      0         |
   |          3      1   -0.136   2.199     qc      0         |
   |          4      1    0.250   2.199     qc      0         |
   |          5      2   -0.950   2.199     qc      0         |
   |          6      2    0.250   2.199     qc      0         |
   |         loc     3    0.000   2.199     pn      0         |
   | Augmentation charge Rinner = 1.537                       |
   | Partial core correction Rc = 1.537                       |
   | "3|2.2|7|8|9|50:51:42"                                   |
   |      Author: Chris J. Pickard, Cambridge University      |

 Atomic calculation performed for La:

 Converged in 56 iterations to an ae energy of -230121.495 eV

 Atomic calculation performed for La:

 Exceeded max iterations: converged to 0.000000907 eV

 Warning: ion_atom_descreen_psp: negative charge density encountered
   | Pseudopotential Report - Date of generation 11-12-2017   |
   | Element: La Ionic charge: 11.00 Level of theory: PBE     |
   | Atomic Solver: ZORA (scalar)                             |
   |               Reference Electronic Structure             |
   |         Orbital         Occupation         Energy        |
   |            5s              2.000           -1.430        |
   |            5p              6.000           -0.823        |
   |            6s              2.000           -0.135        |
   |            5d              1.000           -0.114        |
   |                 Pseudopotential Definition               |
   |        Beta     l      e      Rc     scheme   norm       |
   |          1      0   -1.430   2.298     qc      0         |
   |          2      0   -0.135   2.298     qc      0         |
   |          3      0    0.250   2.298     qc      0         |
   |          4      1   -0.823   2.298     qc      0         |
   |          5      1    0.250   2.298     qc      0         |
   |          6      2   -0.114   2.298     qc      0         |
   |          7      2    0.250   2.298     qc      0         |
   |         loc     2    0.000   2.298     pn      0         |
   | Augmentation charge Rinner = 1.606                       |
   | Partial core correction Rc = 1.606                       |
   | "2|2.3|5|6|7|50U:60:51:52(qc=4.5)"                       |
   |      Author: Chris J. Pickard, Cambridge University      |

 Pseudo atomic calculation performed for O 2s2 2p4

 Converged in 39 iterations to a total energy of -432.6554 eV

 Pseudo atomic calculation performed for Zr 4s2 4p6 4d2 5s2

[...]

 Calculation parallelised over 56 processes.
 Data is distributed by G-vector(4-way) and k-point(14-way)

 ************************************ Title ************************************
 nmr testing

 ***************************** General Parameters ******************************

 output verbosity                               : normal  (1)
 write checkpoint data to                       : 02.check
 type of calculation                            : Magnetic Resonance
 stress calculation                             : on
 density difference calculation                 : off
 electron localisation func (ELF) calculation   : off
 Hirshfeld analysis                             : off
 unlimited duration calculation
 timing information                             : on
 write final potential to formatted file        : off
 write final density to formatted file          : off
 write structure in CIF formatted file          : on
 write structure in CELL formatted file         : on
 write BibTeX reference list                    : on
 write OTFG pseudopotential files               : on
 checkpoint writing                             : both castep_bin and check files

 output         length unit                     : A
 output           mass unit                     : amu
 output           time unit                     : ps
 output         charge unit                     : e
 output           spin unit                     : hbar/2
 output         energy unit                     : eV
 output          force unit                     : eV/A
 output       velocity unit                     : A/ps
 output       pressure unit                     : GPa
 output     inv_length unit                     : 1/A
 output      frequency unit                     : cm-1
 output force constant unit                     : eV/A**2
 output         volume unit                     : A**3
 output   IR intensity unit                     : (D/A)**2/amu
 output         dipole unit                     : D
 output         efield unit                     : eV/A/e
 output        entropy unit                     : J/mol/K

 wavefunctions paging                           : none
 random number generator seed                   : randomised (172215506)
 data distribution                              : optimal for this architecture
[...]
  |    O          41      -16.15     -46.09      0.40   3.776E+00   0.97 |
  |    O          42      -15.42     -38.76      0.83   3.889E+00   0.91 |
  |    O          43      -12.98     -46.12      0.41   3.797E+00   0.97 |
  |    O          44       -5.38      57.28      0.92   3.824E+00   0.95 |
  |    O          45      -84.22      87.91      0.14  -3.203E+00   0.03 |
  |    O          46       -3.91     -58.85      0.98   3.780E+00   0.99 |
  |    O          47      -14.52     -41.71      0.58   3.849E+00   0.95 |
  |    O          48      -87.52      88.09      0.12  -3.161E+00   0.03 |
  |    O          49      -14.52     -41.71      0.58   3.849E+00   0.95 |
  |    O          50      -87.52      88.08      0.12  -3.161E+00   0.03 |
  |    O          51       -3.91     -58.85      0.98   3.780E+00   0.99 |
  |    O          52      -84.22      87.91      0.14  -3.203E+00   0.03 |
  |    O          53      -14.52     -41.71      0.58   3.849E+00   0.95 |
  |    O          54      -87.52      88.09      0.12  -3.161E+00   0.03 |
  |    O          55      -14.52     -41.71      0.58   3.849E+00   0.95 |
  |    O          56      -87.52      88.08      0.12  -3.161E+00   0.03 |
  |    Zr          1     1604.29    -102.54      0.03  -3.294E+01   0.02 |
  |    Zr          2     1604.29    -102.54      0.03  -3.294E+01   0.02 |
  |    Sn          1     3244.67     -62.89      0.38   1.160E+02   0.02 |
  |    Sn          2     3244.67     -62.90      0.38   1.160E+02   0.02 |
[...]
  |    La          2     4554.56     390.30      0.05  -7.904E+01   0.08 |
  |    La          3     4554.56     390.30      0.05  -7.904E+01   0.08 |
  |    La          4     4601.08     551.84      0.05  -8.371E+01   0.16 |
  |    La          5     4554.56     390.30      0.05  -7.904E+01   0.08 |
  |    La          6     4554.56     390.30      0.05  -7.904E+01   0.08 |
  |    La          7     4601.08     551.84      0.05  -8.371E+01   0.16 |
  |    La          8     4495.89     243.05      0.01  -7.334E+01   0.02 |
  |    La          9     4554.56     390.30      0.05  -7.904E+01   0.08 |
  |    La         10     4554.56     390.30      0.05  -7.904E+01   0.08 |
  |    La         11     4554.56     390.30      0.05  -7.904E+01   0.08 |
  |    La         12     4554.56     390.30      0.05  -7.904E+01   0.08 |
  |    La         13     4487.53     247.19      0.00  -7.189E+01   0.01 |
  |    La         14     4507.00     231.12      0.02  -7.438E+01   0.02 |
  |    La         15     4507.00     231.12      0.02  -7.438E+01   0.02 |
  |    La         16     4487.53     247.19      0.00  -7.189E+01   0.01 |

 *********************** Forces ***********************
 *            Cartesian components (eV/A)             *
 *                   x            y            z      *
 * O         1      0.00212      0.00083      0.00083 *
 * O         2     -0.00048      0.00101      0.00101 *
 * O         3      0.00212      0.00083      0.00083 *
 * O         4     -0.00048      0.00101      0.00101 *
 * O         5     -0.00212     -0.00083     -0.00083 *
 * O         6     -0.00212     -0.00083     -0.00083 *
 * O         7      0.00048     -0.00101     -0.00101 *
 * O         8      0.00048     -0.00101     -0.00101 *
 * O         9     -0.00281      0.02790      0.02790 *
 * O        10      0.00185     -0.00078     -0.00078 *
 * O        11     -0.00893      0.00001      0.00001 *
 * O        12      0.00101      0.00388      0.00388 *
 * O        13      0.00530      0.00236      0.00063 *
 * O        14      0.00257     -0.00473     -0.00372 *
 * O        15      0.00257     -0.00473     -0.00372 *
 * O        16      0.00530      0.00236      0.00063 *
 * O        17      0.00530      0.00063      0.00236 *
 * O        18     -0.00219      0.00288     -0.00364 *
 * O        19      0.00257     -0.00372     -0.00473 *
 * O        20      0.02596      0.03159     -0.00360 *
 * O        21      0.00219      0.00364     -0.00288 *
 * O        22     -0.00530     -0.00236     -0.00063 *
 * O        23     -0.02596      0.00359     -0.03159 *
 * O        24     -0.00257      0.00473      0.00372 *
 * O        25      0.00893     -0.00001     -0.00001 *
 * O        26     -0.00101     -0.00388     -0.00388 *
 * O        27      0.00282     -0.02790     -0.02790 *
 * O        28     -0.00185      0.00078      0.00078 *
 * O        29     -0.00530     -0.00063     -0.00236 *
 * O        30     -0.00257      0.00372      0.00473 *
 * O        31     -0.00257      0.00372      0.00473 *
 * O        32     -0.00530     -0.00063     -0.00236 *
 * O        33     -0.00185      0.00078      0.00078 *
 * O        34     -0.00101     -0.00388     -0.00388 *
 * O        35     -0.00257      0.00473      0.00372 *
 * O        36     -0.00530     -0.00236     -0.00063 *
 * O        37      0.00219     -0.00288      0.00364 *
 * O        38     -0.02596     -0.03159      0.00360 *
 * O        39     -0.00219     -0.00364      0.00288 *
 * O        40      0.02596     -0.00359      0.03159 *
 * O        41      0.00101      0.00388      0.00388 *
 * O        42      0.00185     -0.00078     -0.00078 *
 * O        43      0.00530      0.00063      0.00236 *
 * O        44      0.00257     -0.00372     -0.00473 *
 * O        45     -0.00282      0.02790      0.02790 *
 * O        46     -0.00893      0.00001      0.00001 *
 * O        47     -0.00219      0.00288     -0.00364 *
 * O        48      0.02596      0.03159     -0.00359 *
 * O        49      0.00219      0.00365     -0.00288 *
 * O        50     -0.02596      0.00359     -0.03159 *
 * O        51      0.00893     -0.00001     -0.00001 *
 * O        52      0.00282     -0.02790     -0.02790 *
 * O        53      0.00219     -0.00288      0.00364 *
 * O        54     -0.02596     -0.03159      0.00360 *
 * O        55     -0.00219     -0.00364      0.00288 *
 * O        56      0.02596     -0.00359      0.03159 *
 * Zr        1      0.00000     -0.00000     -0.00000 *
 * Zr        2      0.00000     -0.00000     -0.00000 *
 * Sn        1      0.00795      0.00905     -0.00477 *
 * Sn        2     -0.00795      0.00477     -0.00905 *
[...]
 * La        2      0.00471      0.00225     -0.00639 *
 * La        3     -0.00471      0.00639     -0.00225 *
 * La        4      0.00000      0.00000     -0.00000 *
 * La        5     -0.00471     -0.00225      0.00639 *
 * La        6      0.00471     -0.00639      0.00225 *
 * La        7      0.00000     -0.00000      0.00000 *
 * La        8     -0.00000      0.00000      0.00000 *
 * La        9      0.00471      0.00225     -0.00639 *
 * La       10     -0.00471      0.00639     -0.00225 *
 * La       11     -0.00471     -0.00225      0.00639 *
 * La       12      0.00471     -0.00639      0.00225 *
 * La       13      0.00000      0.00000      0.00000 *
 * La       14     -0.00000      0.00000     -0.00000 *
 * La       15     -0.00000     -0.00000     -0.00000 *
 * La       16      0.00000      0.00000      0.00000 *

 ***************** Stress Tensor *****************
 *          Cartesian components (GPa)           *
 *             x             y             z     *
 *  x      0.001666      0.001466      0.001465  *
 *  y      0.001466     -0.000499      0.002162  *
 *  z      0.001465      0.002162     -0.000499  *
 *  Pressure:   -0.0002                          *

[...]

 Pseudo atomic calculation performed for Sn 4d10 5s2 5p2

[...]

 Pseudo atomic calculation performed for La 5s2 5p6 5d1 6s2

 Converged in 34 iterations to a total energy of -968.0372 eV

Charge spilling parameter for spin component 1 = 0.27%

     Atomic Populations (Mulliken)
Species   Ion     s      p      d      f     Total  Charge (e)
  O        1     1.87   5.00   0.00   0.00   6.88    -0.88
  O        2     1.87   5.00   0.00   0.00   6.88    -0.88
  O        3     1.87   5.00   0.00   0.00   6.88    -0.88
  O        4     1.87   5.00   0.00   0.00   6.88    -0.88
  O        5     1.87   5.00   0.00   0.00   6.88    -0.88
  O        6     1.87   5.00   0.00   0.00   6.88    -0.88
  O        7     1.87   5.00   0.00   0.00   6.88    -0.88
  O        8     1.87   5.00   0.00   0.00   6.88    -0.88
  O        9     1.87   4.99   0.00   0.00   6.86    -0.86
  O       10     1.88   5.03   0.00   0.00   6.92    -0.92
  O       11     1.88   5.03   0.00   0.00   6.91    -0.91
  O       12     1.89   5.03   0.00   0.00   6.91    -0.91
  O       13     1.88   5.03   0.00   0.00   6.91    -0.91
  O       14     1.88   5.03   0.00   0.00   6.91    -0.91
  O       15     1.88   5.03   0.00   0.00   6.91    -0.91
  O       16     1.88   5.03   0.00   0.00   6.91    -0.91
  O       17     1.88   5.03   0.00   0.00   6.91    -0.91
  O       18     1.88   5.03   0.00   0.00   6.92    -0.92
  O       19     1.88   5.03   0.00   0.00   6.91    -0.91
  O       20     1.87   4.99   0.00   0.00   6.86    -0.86
  O       21     1.88   5.03   0.00   0.00   6.92    -0.92
  O       22     1.88   5.03   0.00   0.00   6.91    -0.91
  O       23     1.87   4.99   0.00   0.00   6.86    -0.86
  O       24     1.88   5.03   0.00   0.00   6.91    -0.91
  O       25     1.88   5.03   0.00   0.00   6.91    -0.91
  O       26     1.89   5.03   0.00   0.00   6.91    -0.91
  O       27     1.87   4.99   0.00   0.00   6.86    -0.86
  O       28     1.88   5.03   0.00   0.00   6.92    -0.92
  O       29     1.88   5.03   0.00   0.00   6.91    -0.91
  O       30     1.88   5.03   0.00   0.00   6.91    -0.91
  O       31     1.88   5.03   0.00   0.00   6.91    -0.91
  O       32     1.88   5.03   0.00   0.00   6.91    -0.91
  O       33     1.88   5.03   0.00   0.00   6.92    -0.92
  O       34     1.89   5.03   0.00   0.00   6.91    -0.91
  O       35     1.88   5.03   0.00   0.00   6.91    -0.91
  O       36     1.88   5.03   0.00   0.00   6.91    -0.91
  O       37     1.88   5.03   0.00   0.00   6.92    -0.92
  O       38     1.87   4.99   0.00   0.00   6.86    -0.86
  O       39     1.88   5.03   0.00   0.00   6.92    -0.92
  O       40     1.87   4.99   0.00   0.00   6.86    -0.86
  O       41     1.89   5.03   0.00   0.00   6.91    -0.91
  O       42     1.88   5.03   0.00   0.00   6.92    -0.92
  O       43     1.88   5.03   0.00   0.00   6.91    -0.91
  O       44     1.88   5.03   0.00   0.00   6.91    -0.91
  O       45     1.87   4.99   0.00   0.00   6.86    -0.86
  O       46     1.88   5.03   0.00   0.00   6.91    -0.91
  O       47     1.88   5.03   0.00   0.00   6.92    -0.92
  O       48     1.87   4.99   0.00   0.00   6.86    -0.86
  O       49     1.88   5.03   0.00   0.00   6.92    -0.92
  O       50     1.87   4.99   0.00   0.00   6.86    -0.86
  O       51     1.88   5.03   0.00   0.00   6.91    -0.91
  O       52     1.87   4.99   0.00   0.00   6.86    -0.86
  O       53     1.88   5.03   0.00   0.00   6.92    -0.92
  O       54     1.87   4.99   0.00   0.00   6.86    -0.86
  O       55     1.88   5.03   0.00   0.00   6.92    -0.92
  O       56     1.87   4.99   0.00   0.00   6.86    -0.86
  Zr       1     2.36   6.48   1.92   0.00  10.76     1.24
  Zr       2     2.36   6.48   1.92   0.00  10.76     1.24
  Sn       1     1.04   1.30  10.00   0.00  12.34     1.66
  Sn       2     1.04   1.30  10.00   0.00  12.34     1.66
[...]
  La       2     2.07   6.19   1.20   0.00   9.45     1.55
  La       3     2.07   6.19   1.20   0.00   9.45     1.55
  La       4     2.05   6.18   1.20   0.00   9.42     1.58
  La       5     2.07   6.19   1.20   0.00   9.45     1.55
  La       6     2.07   6.19   1.20   0.00   9.45     1.55
  La       7     2.05   6.18   1.20   0.00   9.42     1.58
  La       8     2.12   6.19   1.19   0.00   9.50     1.50
  La       9     2.07   6.19   1.20   0.00   9.45     1.55
  La      10     2.07   6.19   1.20   0.00   9.45     1.55
  La      11     2.07   6.19   1.20   0.00   9.45     1.55
  La      12     2.07   6.19   1.20   0.00   9.45     1.55
  La      13     2.11   6.19   1.19   0.00   9.49     1.51
  La      14     2.09   6.20   1.19   0.00   9.49     1.51
  La      15     2.09   6.20   1.19   0.00   9.49     1.51
  La      16     2.11   6.19   1.19   0.00   9.49     1.51

            Bond              Population      Length (A)
         O 45 -- Sn 13             0.35        2.10291
         O 52 -- Sn 12             0.35        2.10291
         O 9  -- Sn 12             0.35        2.10291
         O 27 -- Sn 13             0.35        2.10291
         O 33 -- Sn 2              0.33        2.10708
         O 28 -- Sn 4              0.33        2.10708
         O 42 -- Sn 10             0.33        2.10708
         O 10 -- Sn 7              0.33        2.10708
         O 28 -- Sn 8              0.33        2.10708
         O 10 -- Sn 5              0.33        2.10708
         O 42 -- Sn 1              0.33        2.10708
         O 33 -- Sn 9              0.33        2.10708
         O 54 -- Sn 7              0.34        2.10878
         O 48 -- Sn 9              0.34        2.10878
         O 20 -- Sn 4              0.34        2.10878
         O 38 -- Sn 1              0.34        2.10878
         O 50 -- Sn 10             0.34        2.10878
         O 40 -- Sn 2              0.34        2.10878
         O 23 -- Sn 5              0.34        2.10878
         O 56 -- Sn 8              0.34        2.10878
         O 37 -- Sn 3              0.34        2.10952
         O 21 -- Sn 6              0.34        2.10952
         O 47 -- Sn 3              0.34        2.10952
         O 53 -- Sn 6              0.34        2.10952
         O 55 -- Sn 6              0.34        2.10952
         O 18 -- Sn 6              0.34        2.10952
         O 49 -- Sn 3              0.34        2.10952
         O 39 -- Sn 3              0.34        2.10952
         O 39 -- Sn 7              0.33        2.11030
         O 37 -- Sn 8              0.33        2.11030
         O 47 -- Sn 5              0.33        2.11030
         O 53 -- Sn 2              0.33        2.11030
         O 49 -- Sn 4              0.33        2.11030
         O 18 -- Sn 10             0.33        2.11030
         O 21 -- Sn 9              0.33        2.11030
         O 55 -- Sn 1              0.33        2.11030
         O 43 -- Sn 1              0.34        2.11138
         O 29 -- Sn 4              0.34        2.11138
         O 13 -- Sn 10             0.34        2.11138
         O 16 -- Sn 5              0.34        2.11138
         O 22 -- Sn 8              0.34        2.11138
         O 36 -- Sn 2              0.34        2.11138
         O 32 -- Sn 9              0.34        2.11138
         O 17 -- Sn 7              0.34        2.11138
         O 32 -- Sn 14             0.34        2.11158
         O 29 -- Sn 11             0.34        2.11158
         O 17 -- Sn 14             0.34        2.11158
         O 43 -- Sn 11             0.34        2.11158
         O 16 -- Sn 14             0.34        2.11158
         O 22 -- Sn 11             0.34        2.11158
         O 36 -- Sn 14             0.34        2.11158
         O 13 -- Sn 11             0.34        2.11158
         O 31 -- Sn 5              0.33        2.11349
         O 35 -- Sn 1              0.33        2.11349
         O 19 -- Sn 8              0.33        2.11349
         O 30 -- Sn 10             0.33        2.11349
         O 44 -- Sn 2              0.33        2.11349
         O 15 -- Sn 9              0.33        2.11349
         O 24 -- Sn 7              0.33        2.11349
         O 14 -- Sn 4              0.33        2.11349
[...]
         O 36 -- O 44             -0.05        2.80837
         O 14 -- O 29             -0.05        2.80837
         O 15 -- O 32             -0.05        2.80837
         O 27 -- O 40             -0.03        2.82883
         O 52 -- O 56             -0.03        2.82883
         O 9  -- O 23             -0.03        2.82883
         O 20 -- O 27             -0.03        2.82883
         O 48 -- O 52             -0.03        2.82883
         O 45 -- O 50             -0.03        2.82883
         O 9  -- O 38             -0.03        2.82883
         O 45 -- O 54             -0.03        2.82883
         O 38 -- O 40             -0.03        2.83010
         O 48 -- O 50             -0.03        2.83010
         O 20 -- O 23             -0.03        2.83010
         O 54 -- O 56             -0.03        2.83010

Writing analysis data to 02.castep_bin

Writing model to 02.check

 A BibTeX formatted list of references used in this run has been written to
 02.bib

Initialisation time =     54.01 s
Calculation time    =  34358.99 s
Finalisation time   =     40.79 s
Total time          =  34453.80 s

Overall parallel efficiency rating: Good (79%)

Data was distributed by:-
G-vector (4-way); efficiency rating: Good (79%)
k-point (14-way); efficiency rating: Excellent (99%)