 Compiled for linux_x86_64_ifort16 on Sat, 23 Jul 2016 23:44:54 +0100
 from code version
 203e84763863+ Castep161_branch Fri, 04 Mar 2016 19:21:07 +0000
 Compiler: Intel Fortran 16.0.3.210; Optimisation: fast
 MATHLIBS: Intel MKL(11.3.3) (LAPACK version 3.6.0)
 FFT Lib : mkl
 Fundamental constants values: CODATA 2010

 Run started: Tue, 12 Dec 2017 02:56:44 +0000
 |           N   N    M   M    RRRR                |
 |           NN  N    MM MM    R   R               |
 |           N N N    M M M    RRRR                |
 |           N  NN    M   M    R  R                |
 |           N   N    M   M    R   R               |
 | Welcome to Materials Studio CASTEP-NMR          |
 | Authors:                                        |
 | J.R. Yates, C.J. Pickard, F. Mauri              |
 | Contributors:                                   |
 | T.F.G. Green, S.A. Joyce                        |
 | Copyright (c) 2004 - 2015                       |
 | Please cite the appropriate publications in all |
 | work arising from your use of CASTEP NMR.       |
 | For NMR Shielding Tensors cite:                 |
 |    "All-electron magnetic response with         |
 |    pseudopotentials: NMR chemical shifts",      |
 |    C. J. Pickard, F. Mauri;                     |
 |    Physical Review B63 245101 (2001), and       |
 |    "Calculation of NMR Chemical Shifts          |
 |    for extended systems using                   |
 |    Ultrasoft Pseudopotentials",                 |
 |    J. R. Yates, C. J. Pickard and F. Mauri      |
 |    Physical Review B76 024401 (2007)            |
 | For Electric Field Gradients cite:              |
 |   "Accurate First Principles Prediction of 17O  |
 |    NMR Parameters in SiO2: Assignment of the    |
 |    Zeolite Ferrierite Spectrum"                 |
 |    M. Profeta, F. Mauri and C. J. Pickard       |
 |    J. Amer. Chem. Soc. 125 541 (2003)           |
 | For Spin-Spin (J) Couplings cite:               |
 |   "A first principles theory of NMR J-coupling  |
 |   in solid-state systems"                       |
 |   S.A. Joyce, J.R. Yates, C.J. Pickard, F. Mauri|
 |   J. Chem. Phys. 127 204107 (2007)              |
 |   "Relativistic NMR J-coupling with ultrasoft   |
 |   pseudopotentials and the zeroth-order regular |
 |   approximation"                                |
 |   T.F.G. Green and J.R. Yates                   |
 |   J. Chem. Phys. 140 234106 (2014)              |

 Atomic calculation performed for O: 1s2 2s2 2p4

 Converged in 44 iterations to an ae energy of -2040.855 eV

 Atomic calculation performed for O: 1s2 2s2 2p4

 Exceeded max iterations: converged to 0.000000062 eV

   | Pseudopotential Report - Date of generation 12-12-2017   |
   | Element: O Ionic charge:  6.00 Level of theory: PBE      |
   | Atomic Solver: ZORA (scalar)                             |
   |               Reference Electronic Structure             |
   |         Orbital         Occupation         Energy        |
   |            2s              2.000           -0.881        |
   |            2p              4.000           -0.332        |
   |                 Pseudopotential Definition               |
   |        Beta     l      e      Rc     scheme   norm       |
   |          1      0   -0.881   1.100     qc      0         |
   |          2      0    0.250   1.100     qc      0         |
   |          3      1   -0.332   1.100     qc      0         |
   |          4      1    0.250   1.100     qc      0         |
   |         loc     2    0.000   1.100     pn      0         |
   | Augmentation charge Rinner = 0.769                       |
   | Partial core correction Rc = 0.769                       |
   | "2|1.1|15|18|20|20:21(qc=7)"                             |
   |      Author: Chris J. Pickard, Cambridge University      |

 Atomic calculation performed for Zr: 1s2 2s2 2p6 3s2 3p6 3d10 4s2 4p6 4d2 5s2

[...]

 Atomic calculation performed for Zr: 1s2 2s2 2p6 3s2 3p6 3d10 4s2 4p6 4d2 5s2

[...]

 Warning: ion_atom_descreen_psp: negative charge density encountered
   | Pseudopotential Report - Date of generation 12-12-2017   |
   | Element: Zr Ionic charge: 12.00 Level of theory: PBE     |
   | Atomic Solver: ZORA (scalar)                             |
   |               Reference Electronic Structure             |
   |         Orbital         Occupation         Energy        |
   |            4s              2.000           -2.003        |
   |            4p              6.000           -1.193        |
   |            5s              2.000           -0.163        |
   |            4d              2.000           -0.132        |
   |                 Pseudopotential Definition               |
   |        Beta     l      e      Rc     scheme   norm       |
   |          1      0   -2.003   2.105     qc      0         |
   |          2      0   -0.163   2.105     qc      0         |
   |          3      0    0.250   2.105     qc      0         |
   |          4      1   -1.193   2.105     qc      0         |
   |          5      1    0.250   2.105     qc      0         |
   |          6      2   -0.132   2.105     qc      0         |
   |          7      2    0.250   2.105     qc      0         |
   |         loc     3    0.000   2.105     pn      0         |
   | Augmentation charge Rinner = 1.471                       |
   | Partial core correction Rc = 1.471                       |
   | "3|2.1|7|8|9|40U:50:41:42"                               |
   |      Author: Chris J. Pickard, Cambridge University      |

 Atomic calculation performed for Sn:

[...]

 Atomic calculation performed for Sn:

[...]

   | Pseudopotential Report - Date of generation 12-12-2017   |
   | Element: Sn Ionic charge: 14.00 Level of theory: PBE     |
   | Atomic Solver: ZORA (scalar)                             |
   |               Reference Electronic Structure             |
   |         Orbital         Occupation         Energy        |
   |            4d             10.000           -0.950        |
   |            5s              2.000           -0.388        |
   |            5p              2.000           -0.136        |
   |                 Pseudopotential Definition               |
   |        Beta     l      e      Rc     scheme   norm       |
   |          1      0   -0.388   2.199     qc      0         |
   |          2      0    0.250   2.199     qc      0         |
   |          3      1   -0.136   2.199     qc      0         |
   |          4      1    0.250   2.199     qc      0         |
   |          5      2   -0.950   2.199     qc      0         |
   |          6      2    0.250   2.199     qc      0         |
   |         loc     3    0.000   2.199     pn      0         |
   | Augmentation charge Rinner = 1.537                       |
   | Partial core correction Rc = 1.537                       |
   | "3|2.2|7|8|9|50:51:42"                                   |
   |      Author: Chris J. Pickard, Cambridge University      |

 Atomic calculation performed for La:

 Converged in 56 iterations to an ae energy of -230121.495 eV

 Atomic calculation performed for La:

 Exceeded max iterations: converged to 0.000000907 eV

 Warning: ion_atom_descreen_psp: negative charge density encountered
   | Pseudopotential Report - Date of generation 12-12-2017   |
   | Element: La Ionic charge: 11.00 Level of theory: PBE     |
   | Atomic Solver: ZORA (scalar)                             |
   |               Reference Electronic Structure             |
   |         Orbital         Occupation         Energy        |
   |            5s              2.000           -1.430        |
   |            5p              6.000           -0.823        |
   |            6s              2.000           -0.135        |
   |            5d              1.000           -0.114        |
   |                 Pseudopotential Definition               |
   |        Beta     l      e      Rc     scheme   norm       |
   |          1      0   -1.430   2.298     qc      0         |
   |          2      0   -0.135   2.298     qc      0         |
   |          3      0    0.250   2.298     qc      0         |
   |          4      1   -0.823   2.298     qc      0         |
   |          5      1    0.250   2.298     qc      0         |
   |          6      2   -0.114   2.298     qc      0         |
   |          7      2    0.250   2.298     qc      0         |
   |         loc     2    0.000   2.298     pn      0         |
   | Augmentation charge Rinner = 1.606                       |
   | Partial core correction Rc = 1.606                       |
   | "2|2.3|5|6|7|50U:60:51:52(qc=4.5)"                       |
   |      Author: Chris J. Pickard, Cambridge University      |

 Pseudo atomic calculation performed for O 2s2 2p4

 Converged in 39 iterations to a total energy of -432.6554 eV

 Pseudo atomic calculation performed for Zr 4s2 4p6 4d2 5s2

[...]

 Calculation parallelised over 56 processes.
 Data is distributed by G-vector(4-way) and k-point(14-way)

 ************************************ Title ************************************
 nmr testing

 ***************************** General Parameters ******************************

 output verbosity                               : normal  (1)
 write checkpoint data to                       : 03.check
 type of calculation                            : Magnetic Resonance
 stress calculation                             : on
 density difference calculation                 : off
 electron localisation func (ELF) calculation   : off
 Hirshfeld analysis                             : off
 unlimited duration calculation
 timing information                             : on
 write final potential to formatted file        : off
 write final density to formatted file          : off
 write structure in CIF formatted file          : on
 write structure in CELL formatted file         : on
 write BibTeX reference list                    : on
 write OTFG pseudopotential files               : on
 checkpoint writing                             : both castep_bin and check files

 output         length unit                     : A
 output           mass unit                     : amu
 output           time unit                     : ps
 output         charge unit                     : e
 output           spin unit                     : hbar/2
 output         energy unit                     : eV
 output          force unit                     : eV/A
 output       velocity unit                     : A/ps
 output       pressure unit                     : GPa
 output     inv_length unit                     : 1/A
 output      frequency unit                     : cm-1
 output force constant unit                     : eV/A**2
 output         volume unit                     : A**3
 output   IR intensity unit                     : (D/A)**2/amu
 output         dipole unit                     : D
 output         efield unit                     : eV/A/e
 output        entropy unit                     : J/mol/K

 wavefunctions paging                           : none
 random number generator seed                   : randomised (25647599)
 data distribution                              : optimal for this architecture
[...]
  |    O          41       -6.45     -58.27      0.99   3.767E+00   0.98 |
  |    O          42      -12.11     -41.94      0.62   3.854E+00   0.93 |
  |    O          43      -15.50     -46.08      0.40   3.784E+00   0.97 |
  |    O          44      -17.47      36.91      0.85   3.881E+00   0.90 |
  |    O          45      -85.81      86.75      0.13  -3.222E+00   0.06 |
  |    O          46      -14.94     -45.87      0.34   3.788E+00   0.98 |
  |    O          47       -4.00     -59.29      0.89   3.781E+00   0.99 |
  |    O          48      -84.98      86.80      0.15  -3.171E+00   0.04 |
  |    O          49      -12.01     -45.92      0.37   3.811E+00   0.98 |
  |    O          50      -83.01      88.39      0.16  -3.158E+00   0.04 |
  |    O          51      -12.01     -45.92      0.37   3.811E+00   0.98 |
  |    O          52      -83.01      88.39      0.16  -3.158E+00   0.04 |
  |    O          53      -13.56     -45.53      0.30   3.807E+00   0.99 |
  |    O          54     -160.52     144.02      0.87   1.031E+00   0.58 |
  |    O          55      -14.95     -45.87      0.34   3.788E+00   0.98 |
  |    O          56      -85.81      86.75      0.13  -3.222E+00   0.06 |
  |    Zr          1     1618.09    -110.81      0.09  -3.399E+01   0.09 |
  |    Zr          2     1617.78    -110.90      0.10  -3.401E+01   0.10 |
  |    Sn          1     3236.05     -62.65      0.06   1.132E+02   0.08 |
  |    Sn          2     3234.57     -64.11      0.11   1.122E+02   0.09 |
[...]
  |    La          2     4545.63     398.93      0.06  -7.829E+01   0.10 |
  |    La          3     4600.90     518.57      0.07  -8.217E+01   0.07 |
  |    La          4     4555.92     393.28      0.04  -7.882E+01   0.10 |
  |    La          5     4545.63     398.93      0.06  -7.829E+01   0.10 |
  |    La          6     4555.92     393.28      0.04  -7.882E+01   0.10 |
  |    La          7     4600.90     518.57      0.07  -8.217E+01   0.07 |
  |    La          8     4545.66     398.90      0.06  -7.824E+01   0.10 |
  |    La          9     4505.28     236.76      0.02  -7.506E+01   0.01 |
  |    La         10     4556.05     394.64      0.04  -7.889E+01   0.10 |
  |    La         11     4496.41     241.90      0.02  -7.386E+01   0.01 |
  |    La         12     4507.04     230.87      0.01  -7.415E+01   0.00 |
  |    La         13     4545.66     398.90      0.06  -7.824E+01   0.10 |
  |    La         14     4507.04     230.87      0.01  -7.415E+01   0.00 |
  |    La         15     4556.05     394.64      0.04  -7.889E+01   0.10 |
  |    La         16     4496.40     241.75      0.02  -7.380E+01   0.01 |

 *********************** Forces ***********************
 *            Cartesian components (eV/A)             *
 *                   x            y            z      *
 * O         1      0.00187      0.00187      0.01083 *
 * O         2     -0.00471      0.00456      0.01098 *
 * O         3      0.00457     -0.00471      0.01098 *
 * O         4     -0.00196     -0.00196      0.00920 *
 * O         5      0.00134     -0.00042     -0.00911 *
 * O         6      0.00078      0.00078     -0.01084 *
 * O         7      0.00025      0.00025     -0.01961 *
 * O         8     -0.00042      0.00134     -0.00911 *
 * O         9      0.00314     -0.01021     -0.01113 *
 * O        10     -0.00125     -0.02499      0.02313 *
 * O        11     -0.00409     -0.00324      0.00065 *
 * O        12      0.00811     -0.00502      0.00153 *
 * O        13     -0.01020      0.00314     -0.01113 *
 * O        14      0.01042     -0.00322     -0.01077 *
 * O        15     -0.00323     -0.00410      0.00066 *
 * O        16      0.00356      0.00746     -0.00150 *
 * O        17     -0.02784     -0.02784     -0.00111 *
 * O        18     -0.00919      0.01029     -0.00090 *
 * O        19     -0.00207     -0.00207     -0.01087 *
 * O        20     -0.00638      0.00649      0.00005 *
 * O        21      0.00981      0.00204     -0.00161 *
 * O        22      0.00326     -0.00889      0.00205 *
 * O        23      0.00731      0.00180      0.00094 *
 * O        24      0.01839     -0.00257     -0.01911 *
 * O        25     -0.00257      0.01839     -0.01910 *
 * O        26     -0.00083     -0.00549     -0.00005 *
 * O        27     -0.00891      0.00326      0.00206 *
 * O        28     -0.00108     -0.00750      0.00126 *
 * O        29      0.00093     -0.00025     -0.00339 *
 * O        30      0.00009      0.00009      0.00964 *
 * O        31     -0.00067      0.00109      0.00335 *
 * O        32      0.00080      0.00081     -0.00308 *
 * O        33      0.00204      0.00981     -0.00160 *
 * O        34      0.00180      0.00731      0.00093 *
 * O        35     -0.00751     -0.00109      0.00127 *
 * O        36     -0.00549     -0.00083     -0.00005 *
 * O        37      0.00109     -0.00067      0.00334 *
 * O        38     -0.00025      0.00093     -0.00338 *
 * O        39     -0.02499     -0.00125      0.02313 *
 * O        40     -0.00503      0.00811      0.00154 *
 * O        41      0.00744      0.00357     -0.00151 *
 * O        42     -0.00322      0.01043     -0.01078 *
 * O        43      0.00649     -0.00638      0.00005 *
 * O        44      0.01029     -0.00918     -0.00090 *
 * O        45     -0.00123      0.02351      0.02332 *
 * O        46     -0.00717      0.00551      0.00222 *
 * O        47      0.00296      0.00296     -0.01214 *
 * O        48      0.02180      0.02180      0.00086 *
 * O        49     -0.00221      0.00922      0.00148 *
 * O        50     -0.02377      0.00260     -0.02224 *
 * O        51      0.00923     -0.00222      0.00149 *
 * O        52      0.00261     -0.02377     -0.02223 *
 * O        53      0.00043      0.00043      0.00987 *
 * O        54     -0.00682     -0.00682      0.01210 *
 * O        55      0.00552     -0.00717      0.00223 *
 * O        56      0.02351     -0.00123      0.02332 *
 * Zr        1      0.01098      0.01099     -0.04018 *
 * Zr        2     -0.00175     -0.00175     -0.03831 *
 * Sn        1     -0.00113      0.00503      0.00426 *
 * Sn        2      0.00265     -0.00398     -0.00185 *
[...]
 * La        2      0.00148     -0.00049     -0.00410 *
 * La        3     -0.00559      0.00822      0.01407 *
 * La        4      0.00623     -0.00975      0.00431 *
 * La        5     -0.00049      0.00148     -0.00410 *
 * La        6     -0.00975      0.00623      0.00431 *
 * La        7      0.00822     -0.00559      0.01407 *
 * La        8     -0.00303      0.00395     -0.00496 *
 * La        9      0.00495      0.00497     -0.00502 *
 * La       10     -0.00112      0.00622     -0.00128 *
 * La       11     -0.00049     -0.00049      0.00923 *
 * La       12      0.01167     -0.01275      0.00320 *
 * La       13      0.00395     -0.00303     -0.00495 *
 * La       14     -0.01274      0.01168      0.00320 *
 * La       15      0.00622     -0.00112     -0.00128 *
 * La       16      0.00186      0.00186      0.00904 *

 ***************** Stress Tensor *****************
 *          Cartesian components (GPa)           *
 *             x             y             z     *
 *  x      0.001129     -0.070476     -0.000024  *
 *  y     -0.070476      0.001132     -0.000025  *
 *  z     -0.000024     -0.000025      0.006107  *
 *  Pressure:   -0.0028                          *

[...]

 Pseudo atomic calculation performed for Sn 4d10 5s2 5p2

[...]

 Pseudo atomic calculation performed for La 5s2 5p6 5d1 6s2

 Converged in 34 iterations to a total energy of -968.0372 eV

Charge spilling parameter for spin component 1 = 0.27%

     Atomic Populations (Mulliken)
Species   Ion     s      p      d      f     Total  Charge (e)
  O        1     1.87   5.00   0.00   0.00   6.88    -0.88
  O        2     1.87   5.00   0.00   0.00   6.88    -0.88
  O        3     1.87   5.00   0.00   0.00   6.88    -0.88
  O        4     1.87   5.00   0.00   0.00   6.88    -0.88
  O        5     1.87   5.00   0.00   0.00   6.88    -0.88
  O        6     1.87   5.00   0.00   0.00   6.87    -0.87
  O        7     1.87   5.00   0.00   0.00   6.88    -0.88
  O        8     1.87   5.00   0.00   0.00   6.88    -0.88
  O        9     1.88   5.03   0.00   0.00   6.92    -0.92
  O       10     1.87   4.99   0.00   0.00   6.86    -0.86
  O       11     1.88   5.03   0.00   0.00   6.91    -0.91
  O       12     1.89   5.03   0.00   0.00   6.91    -0.91
  O       13     1.88   5.03   0.00   0.00   6.92    -0.92
  O       14     1.88   5.03   0.00   0.00   6.92    -0.92
  O       15     1.88   5.03   0.00   0.00   6.91    -0.91
  O       16     1.88   5.03   0.00   0.00   6.91    -0.91
  O       17     1.87   4.99   0.00   0.00   6.86    -0.86
  O       18     1.88   5.03   0.00   0.00   6.92    -0.92
  O       19     1.88   5.03   0.00   0.00   6.91    -0.91
  O       20     1.89   5.03   0.00   0.00   6.91    -0.91
  O       21     1.88   5.03   0.00   0.00   6.91    -0.91
  O       22     1.88   5.03   0.00   0.00   6.91    -0.91
  O       23     1.88   5.03   0.00   0.00   6.92    -0.92
  O       24     1.87   4.99   0.00   0.00   6.86    -0.86
  O       25     1.87   4.99   0.00   0.00   6.86    -0.86
  O       26     1.88   5.03   0.00   0.00   6.91    -0.91
  O       27     1.88   5.03   0.00   0.00   6.91    -0.91
  O       28     1.88   5.03   0.00   0.00   6.92    -0.92
  O       29     1.89   5.03   0.00   0.00   6.91    -0.91
  O       30     1.88   5.03   0.00   0.00   6.91    -0.91
  O       31     1.88   5.03   0.00   0.00   6.92    -0.92
  O       32     1.88   5.03   0.00   0.00   6.91    -0.91
  O       33     1.88   5.03   0.00   0.00   6.91    -0.91
  O       34     1.88   5.03   0.00   0.00   6.92    -0.92
  O       35     1.88   5.03   0.00   0.00   6.92    -0.92
  O       36     1.88   5.03   0.00   0.00   6.91    -0.91
  O       37     1.88   5.03   0.00   0.00   6.92    -0.92
  O       38     1.89   5.03   0.00   0.00   6.91    -0.91
  O       39     1.87   4.99   0.00   0.00   6.86    -0.86
  O       40     1.89   5.03   0.00   0.00   6.91    -0.91
  O       41     1.88   5.03   0.00   0.00   6.91    -0.91
  O       42     1.88   5.03   0.00   0.00   6.92    -0.92
  O       43     1.89   5.03   0.00   0.00   6.91    -0.91
  O       44     1.88   5.03   0.00   0.00   6.92    -0.92
  O       45     1.87   4.99   0.00   0.00   6.86    -0.86
  O       46     1.89   5.03   0.00   0.00   6.91    -0.91
  O       47     1.88   5.03   0.00   0.00   6.91    -0.91
  O       48     1.87   4.99   0.00   0.00   6.86    -0.86
  O       49     1.88   5.03   0.00   0.00   6.91    -0.91
  O       50     1.87   4.99   0.00   0.00   6.86    -0.86
  O       51     1.88   5.03   0.00   0.00   6.91    -0.91
  O       52     1.87   4.99   0.00   0.00   6.86    -0.86
  O       53     1.89   5.03   0.00   0.00   6.91    -0.91
  O       54     1.86   4.95   0.00   0.00   6.81    -0.81
  O       55     1.89   5.03   0.00   0.00   6.91    -0.91
  O       56     1.87   4.99   0.00   0.00   6.86    -0.86
  Zr       1     2.36   6.48   1.92   0.00  10.75     1.25
  Zr       2     2.36   6.48   1.92   0.00  10.75     1.25
  Sn       1     1.04   1.30  10.00   0.00  12.34     1.66
  Sn       2     1.04   1.30  10.00   0.00  12.34     1.66
[...]
  La       2     2.08   6.18   1.20   0.00   9.46     1.54
  La       3     2.05   6.18   1.20   0.00   9.42     1.58
  La       4     2.07   6.19   1.19   0.00   9.45     1.55
  La       5     2.08   6.18   1.20   0.00   9.46     1.54
  La       6     2.07   6.19   1.19   0.00   9.45     1.55
  La       7     2.05   6.18   1.20   0.00   9.42     1.58
  La       8     2.08   6.18   1.20   0.00   9.46     1.54
  La       9     2.11   6.20   1.19   0.00   9.50     1.50
  La      10     2.07   6.19   1.20   0.00   9.45     1.55
  La      11     2.10   6.19   1.19   0.00   9.49     1.51
  La      12     2.10   6.20   1.19   0.00   9.49     1.51
  La      13     2.08   6.18   1.20   0.00   9.46     1.54
  La      14     2.10   6.20   1.19   0.00   9.49     1.51
  La      15     2.07   6.19   1.20   0.00   9.45     1.55
  La      16     2.10   6.19   1.19   0.00   9.49     1.51

            Bond              Population      Length (A)
         O 48 -- Sn 9              0.34        2.10317
         O 17 -- Sn 14             0.34        2.10322
         O 45 -- Sn 13             0.34        2.10340
         O 56 -- Sn 8              0.34        2.10340
         O 10 -- Sn 5              0.34        2.10344
         O 39 -- Sn 3              0.34        2.10344
         O 13 -- Sn 10             0.34        2.10523
         O 9  -- Sn 12             0.34        2.10523
         O 14 -- Sn 12             0.34        2.10530
         O 42 -- Sn 10             0.34        2.10530
         O 18 -- Sn 6              0.34        2.10605
         O 44 -- Sn 2              0.34        2.10605
         O 32 -- Sn 14             0.34        2.10736
         O 32 -- Sn 9              0.34        2.10740
         O 37 -- Sn 3              0.33        2.10808
         O 31 -- Sn 5              0.33        2.10808
         O 31 -- Sn 13             0.33        2.10810
         O 37 -- Sn 8              0.33        2.10810
         O 13 -- Sn 11             0.34        2.10833
         O 9  -- Sn 7              0.34        2.10833
         O 42 -- Sn 1              0.34        2.10835
         O 14 -- Sn 4              0.34        2.10835
         O 44 -- Sn 12             0.33        2.10866
         O 18 -- Sn 10             0.33        2.10866
         O 50 -- Sn 10             0.34        2.10870
         O 52 -- Sn 12             0.34        2.10870
         O 25 -- Sn 10             0.34        2.10875
         O 24 -- Sn 12             0.34        2.10875
         O 22 -- Sn 8              0.34        2.10964
         O 27 -- Sn 13             0.34        2.10964
         O 51 -- Sn 5              0.34        2.10968
         O 49 -- Sn 3              0.34        2.10968
         O 23 -- Sn 7              0.34        2.11097
         O 34 -- Sn 11             0.34        2.11097
         O 28 -- Sn 4              0.34        2.11098
         O 35 -- Sn 1              0.34        2.11098
         O 22 -- Sn 11             0.33        2.11117
         O 27 -- Sn 7              0.33        2.11117
         O 51 -- Sn 1              0.33        2.11120
         O 49 -- Sn 4              0.33        2.11120
         O 34 -- Sn 3              0.33        2.11141
         O 23 -- Sn 5              0.33        2.11141
         O 28 -- Sn 8              0.33        2.11150
         O 35 -- Sn 13             0.33        2.11150
         O 36 -- Sn 14             0.33        2.11159
         O 26 -- Sn 14             0.33        2.11159
         O 33 -- Sn 9              0.33        2.11163
         O 21 -- Sn 9              0.33        2.11163
         O 36 -- Sn 2              0.33        2.11172
         O 26 -- Sn 6              0.33        2.11172
         O 33 -- Sn 2              0.33        2.11176
         O 21 -- Sn 6              0.33        2.11176
         O 54 -- Zr 1              0.41        2.11227
         O 53 -- Sn 6              0.33        2.11323
         O 53 -- Sn 2              0.33        2.11323
         O 40 -- Sn 7              0.33        2.11442
         O 12 -- Sn 11             0.33        2.11442
         O 46 -- Sn 4              0.33        2.11446
         O 55 -- Sn 1              0.33        2.11446
         O 43 -- Sn 1              0.33        2.11481
[...]
         O 15 -- O 27             -0.05        2.80811
         O 16 -- O 51             -0.05        2.80812
         O 41 -- O 49             -0.05        2.80812
         O 10 -- O 54             -0.03        2.82196
         O 39 -- O 54             -0.03        2.82196
         O 54 -- O 56             -0.03        2.82204
         O 45 -- O 54             -0.03        2.82204
         O 52 -- O 56             -0.03        2.82950
         O 45 -- O 50             -0.03        2.82950
         O 25 -- O 39             -0.03        2.82951
         O 10 -- O 24             -0.03        2.82951
         O 48 -- O 50             -0.03        2.83278
         O 48 -- O 52             -0.03        2.83278
         O 17 -- O 25             -0.03        2.83278
         O 17 -- O 24             -0.03        2.83278

Writing analysis data to 03.castep_bin

Writing model to 03.check

 A BibTeX formatted list of references used in this run has been written to
 03.bib

Initialisation time =     55.24 s
Calculation time    =  34558.21 s
Finalisation time   =     73.63 s
Total time          =  34687.08 s

Overall parallel efficiency rating: Good (78%)

Data was distributed by:-
G-vector (4-way); efficiency rating: Good (78%)
k-point (14-way); efficiency rating: Excellent (99%)