 Compiled for linux_x86_64_ifort16 on Sat, 23 Jul 2016 23:44:54 +0100
 from code version
 203e84763863+ Castep161_branch Fri, 04 Mar 2016 19:21:07 +0000
 Compiler: Intel Fortran 16.0.3.210; Optimisation: fast
 MATHLIBS: Intel MKL(11.3.3) (LAPACK version 3.6.0)
 FFT Lib : mkl
 Fundamental constants values: CODATA 2010

 Run started: Tue, 06 Mar 2018 10:25:41 +0000
 |           N   N    M   M    RRRR                |
 |           NN  N    MM MM    R   R               |
 |           N N N    M M M    RRRR                |
 |           N  NN    M   M    R  R                |
 |           N   N    M   M    R   R               |
 | Welcome to Materials Studio CASTEP-NMR          |
 | Authors:                                        |
 | J.R. Yates, C.J. Pickard, F. Mauri              |
 | Contributors:                                   |
 | T.F.G. Green, S.A. Joyce                        |
 | Copyright (c) 2004 - 2015                       |
 | Please cite the appropriate publications in all |
 | work arising from your use of CASTEP NMR.       |
 | For NMR Shielding Tensors cite:                 |
 |    "All-electron magnetic response with         |
 |    pseudopotentials: NMR chemical shifts",      |
 |    C. J. Pickard, F. Mauri;                     |
 |    Physical Review B63 245101 (2001), and       |
 |    "Calculation of NMR Chemical Shifts          |
 |    for extended systems using                   |
 |    Ultrasoft Pseudopotentials",                 |
 |    J. R. Yates, C. J. Pickard and F. Mauri      |
 |    Physical Review B76 024401 (2007)            |
 | For Electric Field Gradients cite:              |
 |   "Accurate First Principles Prediction of 17O  |
 |    NMR Parameters in SiO2: Assignment of the    |
 |    Zeolite Ferrierite Spectrum"                 |
 |    M. Profeta, F. Mauri and C. J. Pickard       |
 |    J. Amer. Chem. Soc. 125 541 (2003)           |
 | For Spin-Spin (J) Couplings cite:               |
 |   "A first principles theory of NMR J-coupling  |
 |   in solid-state systems"                       |
 |   S.A. Joyce, J.R. Yates, C.J. Pickard, F. Mauri|
 |   J. Chem. Phys. 127 204107 (2007)              |
 |   "Relativistic NMR J-coupling with ultrasoft   |
 |   pseudopotentials and the zeroth-order regular |
 |   approximation"                                |
 |   T.F.G. Green and J.R. Yates                   |
 |   J. Chem. Phys. 140 234106 (2014)              |

 Atomic calculation performed for O: 1s2 2s2 2p4

 Converged in 44 iterations to an ae energy of -2040.855 eV

 Atomic calculation performed for O: 1s2 2s2 2p4

 Exceeded max iterations: converged to 0.000000062 eV

   | Pseudopotential Report - Date of generation  6-03-2018   |
   | Element: O Ionic charge:  6.00 Level of theory: PBE      |
   | Atomic Solver: ZORA (scalar)                             |
   |               Reference Electronic Structure             |
   |         Orbital         Occupation         Energy        |
   |            2s              2.000           -0.881        |
   |            2p              4.000           -0.332        |
   |                 Pseudopotential Definition               |
   |        Beta     l      e      Rc     scheme   norm       |
   |          1      0   -0.881   1.100     qc      0         |
   |          2      0    0.250   1.100     qc      0         |
   |          3      1   -0.332   1.100     qc      0         |
   |          4      1    0.250   1.100     qc      0         |
   |         loc     2    0.000   1.100     pn      0         |
   | Augmentation charge Rinner = 0.769                       |
   | Partial core correction Rc = 0.769                       |
   | "2|1.1|15|18|20|20:21(qc=7)"                             |
   |      Author: Chris J. Pickard, Cambridge University      |

 Atomic calculation performed for Zr: 1s2 2s2 2p6 3s2 3p6 3d10 4s2 4p6 4d2 5s2

[...]

 Atomic calculation performed for Zr: 1s2 2s2 2p6 3s2 3p6 3d10 4s2 4p6 4d2 5s2

[...]

 Warning: ion_atom_descreen_psp: negative charge density encountered
   | Pseudopotential Report - Date of generation  6-03-2018   |
   | Element: Zr Ionic charge: 12.00 Level of theory: PBE     |
   | Atomic Solver: ZORA (scalar)                             |
   |               Reference Electronic Structure             |
   |         Orbital         Occupation         Energy        |
   |            4s              2.000           -2.003        |
   |            4p              6.000           -1.193        |
   |            5s              2.000           -0.163        |
   |            4d              2.000           -0.132        |
   |                 Pseudopotential Definition               |
   |        Beta     l      e      Rc     scheme   norm       |
   |          1      0   -2.003   2.105     qc      0         |
   |          2      0   -0.163   2.105     qc      0         |
   |          3      0    0.250   2.105     qc      0         |
   |          4      1   -1.193   2.105     qc      0         |
   |          5      1    0.250   2.105     qc      0         |
   |          6      2   -0.132   2.105     qc      0         |
   |          7      2    0.250   2.105     qc      0         |
   |         loc     3    0.000   2.105     pn      0         |
   | Augmentation charge Rinner = 1.471                       |
   | Partial core correction Rc = 1.471                       |
   | "3|2.1|7|8|9|40U:50:41:42"                               |
   |      Author: Chris J. Pickard, Cambridge University      |

 Atomic calculation performed for Sn:

[...]

 Atomic calculation performed for Sn:

[...]

   | Pseudopotential Report - Date of generation  6-03-2018   |
   | Element: Sn Ionic charge: 14.00 Level of theory: PBE     |
   | Atomic Solver: ZORA (scalar)                             |
   |               Reference Electronic Structure             |
   |         Orbital         Occupation         Energy        |
   |            4d             10.000           -0.950        |
   |            5s              2.000           -0.388        |
   |            5p              2.000           -0.136        |
   |                 Pseudopotential Definition               |
   |        Beta     l      e      Rc     scheme   norm       |
   |          1      0   -0.388   2.199     qc      0         |
   |          2      0    0.250   2.199     qc      0         |
   |          3      1   -0.136   2.199     qc      0         |
   |          4      1    0.250   2.199     qc      0         |
   |          5      2   -0.950   2.199     qc      0         |
   |          6      2    0.250   2.199     qc      0         |
   |         loc     3    0.000   2.199     pn      0         |
   | Augmentation charge Rinner = 1.537                       |
   | Partial core correction Rc = 1.537                       |
   | "3|2.2|7|8|9|50:51:42"                                   |
   |      Author: Chris J. Pickard, Cambridge University      |

 Atomic calculation performed for La:

 Converged in 56 iterations to an ae energy of -230121.495 eV

 Atomic calculation performed for La:

 Exceeded max iterations: converged to 0.000000907 eV

 Warning: ion_atom_descreen_psp: negative charge density encountered
   | Pseudopotential Report - Date of generation  6-03-2018   |
   | Element: La Ionic charge: 11.00 Level of theory: PBE     |
   | Atomic Solver: ZORA (scalar)                             |
   |               Reference Electronic Structure             |
   |         Orbital         Occupation         Energy        |
   |            5s              2.000           -1.430        |
   |            5p              6.000           -0.823        |
   |            6s              2.000           -0.135        |
   |            5d              1.000           -0.114        |
   |                 Pseudopotential Definition               |
   |        Beta     l      e      Rc     scheme   norm       |
   |          1      0   -1.430   2.298     qc      0         |
   |          2      0   -0.135   2.298     qc      0         |
   |          3      0    0.250   2.298     qc      0         |
   |          4      1   -0.823   2.298     qc      0         |
   |          5      1    0.250   2.298     qc      0         |
   |          6      2   -0.114   2.298     qc      0         |
   |          7      2    0.250   2.298     qc      0         |
   |         loc     2    0.000   2.298     pn      0         |
   | Augmentation charge Rinner = 1.606                       |
   | Partial core correction Rc = 1.606                       |
   | "2|2.3|5|6|7|50U:60:51:52(qc=4.5)"                       |
   |      Author: Chris J. Pickard, Cambridge University      |

 Pseudo atomic calculation performed for O 2s2 2p4

 Converged in 39 iterations to a total energy of -432.6554 eV

 Pseudo atomic calculation performed for Zr 4s2 4p6 4d2 5s2

[...]

 Calculation parallelised over 56 processes.
 Data is distributed by G-vector(4-way) and k-point(14-way)

 ************************************ Title ************************************
 nmr testing

 ***************************** General Parameters ******************************

 output verbosity                               : normal  (1)
 write checkpoint data to                       : 005.check
 type of calculation                            : Magnetic Resonance
 stress calculation                             : on
 density difference calculation                 : off
 electron localisation func (ELF) calculation   : off
 Hirshfeld analysis                             : off
 unlimited duration calculation
 timing information                             : on
 write final potential to formatted file        : off
 write final density to formatted file          : off
 write structure in CIF formatted file          : on
 write structure in CELL formatted file         : on
 write BibTeX reference list                    : on
 write OTFG pseudopotential files               : on
 checkpoint writing                             : both castep_bin and check files

 output         length unit                     : A
 output           mass unit                     : amu
 output           time unit                     : ps
 output         charge unit                     : e
 output           spin unit                     : hbar/2
 output         energy unit                     : eV
 output          force unit                     : eV/A
 output       velocity unit                     : A/ps
 output       pressure unit                     : GPa
 output     inv_length unit                     : 1/A
 output      frequency unit                     : cm-1
 output force constant unit                     : eV/A**2
 output         volume unit                     : A**3
 output   IR intensity unit                     : (D/A)**2/amu
 output         dipole unit                     : D
 output         efield unit                     : eV/A/e
 output        entropy unit                     : J/mol/K

 wavefunctions paging                           : none
 random number generator seed                   : randomised (102543053)
 data distribution                              : optimal for this architecture
[...]
  |    O          42      -88.05      95.54      0.20  -3.195E+00   0.10 |
  |    O          43      -84.77      87.91      0.21  -3.203E+00   0.09 |
  |    O          44     -163.06     146.91      0.76   1.062E+00   0.80 |
  |    O          45      -90.13      91.12      0.17  -3.232E+00   0.11 |
  |    O          46     -162.85     148.20      0.78   1.023E+00   0.82 |
  |    O          47     -165.11     155.19      0.79   1.026E+00   0.91 |
  |    O          48      -91.88      91.12      0.18  -3.186E+00   0.11 |
  |    O          49     -165.57     158.17      0.86   1.075E+00   0.86 |
  |    O          50      -90.86      91.74      0.32  -3.112E+00   0.08 |
  |    O          51     -161.87     151.82      0.84   1.064E+00   0.81 |
  |    O          52     -163.64     148.93      0.82   1.070E+00   0.79 |
  |    O          53     -165.25     158.96      0.84   1.063E+00   0.86 |
  |    O          54     -164.58     148.71      0.80   1.041E+00   0.82 |
  |    O          55     -165.95     156.62      0.84   1.014E+00   0.92 |
  |    O          56      -93.39      84.83      0.12  -3.248E+00   0.12 |
  |    Zr          1     1613.73    -119.82      0.09  -3.727E+01   0.05 |
  |    Zr          2     1627.07    -129.24      0.23  -3.789E+01   0.07 |
  |    Zr          3     1622.77    -122.21      0.11  -3.908E+01   0.08 |
  |    Zr          4     1627.15    -127.39      0.12  -3.789E+01   0.12 |
[...]
  |    La          2     4704.14     764.54      0.06  -8.287E+01   0.09 |
  |    La          3     4709.19     759.97      0.04  -8.422E+01   0.09 |
  |    La          4     4704.41     762.73      0.03  -8.263E+01   0.07 |
  |    La          5     4657.87     654.39      0.01  -8.096E+01   0.04 |
  |    La          6     4709.27     759.81      0.04  -8.441E+01   0.08 |
  |    La          7     4750.14     864.66      0.05  -8.442E+01   0.07 |
  |    La          8     4665.28     653.21      0.08  -8.071E+01   0.12 |
  |    La          9     4655.40     623.14      0.01  -7.867E+01   0.04 |
  |    La         10     4752.33     873.27      0.03  -8.511E+01   0.03 |
  |    La         11     4700.08     757.79      0.05  -8.026E+01   0.09 |
  |    La         12     4657.42     628.17      0.01  -7.919E+01   0.04 |
  |    La         13     4706.24     757.15      0.04  -8.188E+01   0.10 |
  |    La         14     4607.76     502.50      0.08  -7.503E+01   0.06 |
  |    La         15     4653.75     667.99      0.10  -7.860E+01   0.14 |
  |    La         16     4661.24     665.80      0.09  -8.009E+01   0.14 |

 *********************** Forces ***********************
 *            Cartesian components (eV/A)             *
 *                   x            y            z      *
 * O         1     -0.00122     -0.00053     -0.00455 *
 * O         2     -0.00970      0.00758     -0.00561 *
 * O         3     -0.00053     -0.00014     -0.00115 *
 * O         4     -0.00207      0.00328      0.00077 *
 * O         5     -0.00622     -0.01227     -0.00489 *
 * O         6      0.00717     -0.00180      0.00545 *
 * O         7     -0.00485     -0.01554     -0.00589 *
 * O         8     -0.00345     -0.00110     -0.00697 *
 * O         9     -0.00207     -0.00109     -0.00123 *
 * O        10     -0.01105     -0.00175      0.00274 *
 * O        11     -0.00780      0.00038      0.00788 *
 * O        12      0.00214     -0.02564     -0.01177 *
 * O        13     -0.00551     -0.00677     -0.00808 *
 * O        14      0.00958      0.00082     -0.00146 *
 * O        15      0.00656      0.00019     -0.00835 *
 * O        16     -0.00843      0.00131     -0.02667 *
 * O        17     -0.02592     -0.02523     -0.00679 *
 * O        18      0.01338     -0.01253     -0.01472 *
 * O        19      0.01300     -0.00951     -0.00504 *
 * O        20      0.00180      0.01921      0.00715 *
 * O        21     -0.01675      0.00058      0.00590 *
 * O        22     -0.00394     -0.00747     -0.00064 *
 * O        23     -0.00925     -0.01248     -0.00858 *
 * O        24     -0.01087      0.01011      0.00072 *
 * O        25     -0.00576      0.00897     -0.02386 *
 * O        26     -0.01069      0.01748      0.00791 *
 * O        27      0.00328     -0.02011     -0.01959 *
 * O        28      0.00267      0.02469     -0.02813 *
 * O        29      0.03331      0.03648     -0.00143 *
 * O        30     -0.02835      0.01867     -0.00659 *
 * O        31      0.01037     -0.01428     -0.00955 *
 * O        32     -0.00615     -0.00121     -0.00451 *
 * O        33      0.00207     -0.01312      0.02246 *
 * O        34     -0.00613      0.02203      0.02532 *
 * O        35      0.00638     -0.00957     -0.01827 *
 * O        36      0.02153     -0.00767      0.02656 *
 * O        37     -0.02808      0.01303      0.00238 *
 * O        38     -0.01429     -0.00367     -0.00783 *
 * O        39     -0.00155     -0.01246      0.00833 *
 * O        40      0.00849      0.00905      0.02208 *
 * O        41     -0.00355     -0.00657     -0.02358 *
 * O        42     -0.01116     -0.02145      0.01752 *
 * O        43     -0.01501     -0.03362      0.00282 *
 * O        44      0.00910     -0.00566     -0.00277 *
 * O        45      0.01154      0.00594      0.00348 *
 * O        46      0.00348     -0.00416      0.00809 *
 * O        47      0.00315     -0.00313     -0.01112 *
 * O        48      0.00087      0.00875      0.00834 *
 * O        49      0.01643      0.01876      0.00826 *
 * O        50     -0.00683     -0.00438     -0.01156 *
 * O        51      0.00563      0.00992      0.00719 *
 * O        52     -0.00774      0.01199      0.01554 *
 * O        53      0.01171      0.00722      0.01424 *
 * O        54      0.00906     -0.00160     -0.01087 *
 * O        55     -0.00563     -0.01061     -0.00006 *
 * O        56      0.00643      0.00994      0.01060 *
 * Zr        1     -0.01626      0.00650     -0.00947 *
 * Zr        2      0.02200      0.00460     -0.03162 *
 * Zr        3     -0.01296      0.00008     -0.00836 *
 * Zr        4     -0.01076     -0.00089     -0.01353 *
[...]
 * La        2      0.01273     -0.00194      0.02124 *
 * La        3      0.00187      0.01743      0.00630 *
 * La        4      0.00458     -0.00547      0.00043 *
 * La        5     -0.00263     -0.00379      0.00609 *
 * La        6      0.00660      0.01754      0.00194 *
 * La        7      0.02211      0.00309      0.01349 *
 * La        8     -0.00019      0.00823     -0.00461 *
 * La        9     -0.01813      0.00185     -0.02266 *
 * La       10      0.00300      0.01472      0.01178 *
 * La       11      0.00383      0.01705      0.02087 *
 * La       12     -0.01173     -0.01821     -0.00048 *
 * La       13      0.01076     -0.01458      0.00444 *
 * La       14     -0.01162      0.00215     -0.00724 *
 * La       15      0.01924      0.01037      0.00605 *
 * La       16     -0.00515      0.00585     -0.00122 *

 ***************** Stress Tensor *****************
 *          Cartesian components (GPa)           *
 *             x             y             z     *
 *  x      0.025795     -0.005059     -0.052009  *
 *  y     -0.005059      0.042814     -0.001761  *
 *  z     -0.052009     -0.001761      0.029598  *
 *  Pressure:   -0.0327                          *

[...]

 Pseudo atomic calculation performed for Sn 4d10 5s2 5p2

[...]

 Pseudo atomic calculation performed for La 5s2 5p6 5d1 6s2

 Converged in 34 iterations to a total energy of -968.0372 eV

Charge spilling parameter for spin component 1 = 0.23%

     Atomic Populations (Mulliken)
Species   Ion     s      p      d      f     Total  Charge (e)
  O        1     1.87   5.00   0.00   0.00   6.87    -0.87
  O        2     1.87   5.00   0.00   0.00   6.87    -0.87
  O        3     1.87   5.00   0.00   0.00   6.87    -0.87
  O        4     1.87   5.00   0.00   0.00   6.87    -0.87
  O        5     1.87   5.00   0.00   0.00   6.87    -0.87
  O        6     1.87   5.00   0.00   0.00   6.87    -0.87
  O        7     1.87   5.00   0.00   0.00   6.87    -0.87
  O        8     1.87   5.00   0.00   0.00   6.87    -0.87
  O        9     1.86   4.94   0.00   0.00   6.80    -0.80
  O       10     1.86   4.94   0.00   0.00   6.80    -0.80
  O       11     1.88   5.02   0.00   0.00   6.91    -0.91
  O       12     1.87   4.99   0.00   0.00   6.85    -0.85
  O       13     1.88   5.02   0.00   0.00   6.91    -0.91
  O       14     1.86   4.95   0.00   0.00   6.80    -0.80
  O       15     1.88   5.02   0.00   0.00   6.91    -0.91
  O       16     1.87   4.99   0.00   0.00   6.85    -0.85
  O       17     1.87   4.98   0.00   0.00   6.85    -0.85
  O       18     1.87   4.99   0.00   0.00   6.86    -0.86
  O       19     1.88   5.02   0.00   0.00   6.91    -0.91
  O       20     1.86   4.94   0.00   0.00   6.80    -0.80
  O       21     1.87   4.99   0.00   0.00   6.86    -0.86
  O       22     1.88   5.02   0.00   0.00   6.90    -0.90
  O       23     1.85   4.94   0.00   0.00   6.80    -0.80
  O       24     1.86   4.95   0.00   0.00   6.80    -0.80
  O       25     1.87   4.99   0.00   0.00   6.85    -0.85
  O       26     1.87   4.99   0.00   0.00   6.85    -0.85
  O       27     1.87   4.99   0.00   0.00   6.85    -0.85
  O       28     1.87   4.99   0.00   0.00   6.85    -0.85
  O       29     1.87   4.99   0.00   0.00   6.85    -0.85
  O       30     1.87   4.99   0.00   0.00   6.85    -0.85
  O       31     1.87   4.99   0.00   0.00   6.85    -0.85
  O       32     1.88   5.02   0.00   0.00   6.91    -0.91
  O       33     1.87   4.99   0.00   0.00   6.85    -0.85
  O       34     1.87   4.99   0.00   0.00   6.85    -0.85
  O       35     1.87   4.98   0.00   0.00   6.85    -0.85
  O       36     1.87   4.99   0.00   0.00   6.85    -0.85
  O       37     1.87   4.99   0.00   0.00   6.85    -0.85
  O       38     1.86   4.94   0.00   0.00   6.80    -0.80
  O       39     1.86   4.95   0.00   0.00   6.80    -0.80
  O       40     1.86   4.94   0.00   0.00   6.80    -0.80
  O       41     1.87   4.98   0.00   0.00   6.85    -0.85
  O       42     1.87   4.99   0.00   0.00   6.85    -0.85
  O       43     1.87   4.99   0.00   0.00   6.86    -0.86
  O       44     1.86   4.94   0.00   0.00   6.80    -0.80
  O       45     1.87   4.99   0.00   0.00   6.86    -0.86
  O       46     1.86   4.94   0.00   0.00   6.80    -0.80
  O       47     1.86   4.94   0.00   0.00   6.80    -0.80
  O       48     1.87   4.99   0.00   0.00   6.86    -0.86
  O       49     1.86   4.95   0.00   0.00   6.80    -0.80
  O       50     1.87   4.98   0.00   0.00   6.85    -0.85
  O       51     1.86   4.95   0.00   0.00   6.80    -0.80
  O       52     1.86   4.95   0.00   0.00   6.80    -0.80
  O       53     1.86   4.95   0.00   0.00   6.80    -0.80
  O       54     1.86   4.95   0.00   0.00   6.80    -0.80
  O       55     1.86   4.94   0.00   0.00   6.80    -0.80
  O       56     1.87   4.99   0.00   0.00   6.86    -0.86
  Zr       1     2.38   6.50   1.92   0.00  10.80     1.20
  Zr       2     2.37   6.49   1.92   0.00  10.78     1.22
  Zr       3     2.37   6.48   1.93   0.00  10.78     1.22
  Zr       4     2.37   6.49   1.92   0.00  10.78     1.22
[...]
  La       2     2.06   6.16   1.19   0.00   9.41     1.59
  La       3     2.05   6.16   1.19   0.00   9.41     1.59
  La       4     2.06   6.16   1.19   0.00   9.41     1.59
  La       5     2.07   6.18   1.19   0.00   9.44     1.56
  La       6     2.05   6.16   1.19   0.00   9.41     1.59
  La       7     2.04   6.14   1.19   0.00   9.38     1.62
  La       8     2.08   6.18   1.19   0.00   9.45     1.55
  La       9     2.09   6.18   1.19   0.00   9.46     1.54
  La      10     2.02   6.15   1.19   0.00   9.36     1.64
  La      11     2.05   6.16   1.19   0.00   9.41     1.59
  La      12     2.07   6.18   1.19   0.00   9.45     1.55
  La      13     2.05   6.16   1.19   0.00   9.41     1.59
  La      14     2.11   6.20   1.19   0.00   9.50     1.50
  La      15     2.07   6.17   1.19   0.00   9.44     1.56
  La      16     2.07   6.18   1.19   0.00   9.43     1.57

            Bond              Population      Length (A)
         O 36 -- Sn 6              0.35        2.09780
         O 45 -- Sn 5              0.35        2.10040
         O 29 -- Sn 4              0.35        2.10272
         O 42 -- Sn 3              0.35        2.10339
         O 16 -- Sn 6              0.35        2.10383
         O 43 -- Sn 4              0.35        2.10408
         O 56 -- Sn 1              0.34        2.10420
         O 18 -- Sn 3              0.35        2.10447
         O 30 -- Sn 3              0.35        2.10454
         O 34 -- Sn 4              0.35        2.10465
         O 48 -- Sn 2              0.34        2.10503
         O 26 -- Sn 6              0.35        2.10514
         O 27 -- Sn 5              0.35        2.10586
         O 33 -- Sn 2              0.34        2.10638
         O 25 -- Sn 3              0.35        2.10715
         O 28 -- Sn 1              0.34        2.10727
         O 12 -- Sn 4              0.35        2.10788
         O 19 -- Sn 5              0.34        2.10934
         O 37 -- Sn 1              0.34        2.10952
         O 41 -- Sn 6              0.35        2.10965
         O 15 -- Sn 5              0.34        2.11019
         O 13 -- Sn 3              0.34        2.11021
         O 15 -- Sn 2              0.34        2.11028
         O 36 -- Zr 3              0.45        2.11038
         O 19 -- Sn 1              0.34        2.11042
         O 17 -- Sn 6              0.34        2.11118
         O 31 -- Sn 5              0.34        2.11145
         O 21 -- Sn 2              0.34        2.11153
         O 53 -- Zr 7              0.42        2.11208
         O 49 -- Zr 4              0.41        2.11238
         O 11 -- Sn 2              0.34        2.11260
         O 29 -- Zr 5              0.45        2.11298
         O 50 -- Sn 3              0.33        2.11339
         O 10 -- Zr 6              0.42        2.11340
         O 11 -- Sn 1              0.34        2.11341
         O 23 -- Zr 8              0.42        2.11362
         O 49 -- Zr 5              0.41        2.11373
         O 13 -- Sn 4              0.33        2.11441
         O 35 -- Sn 5              0.34        2.11447
         O 23 -- Zr 6              0.43        2.11462
         O 17 -- Zr 9              0.46        2.11469
         O 9  -- Zr 10             0.43        2.11507
         O 32 -- Sn 2              0.34        2.11539
         O 55 -- Zr 7              0.42        2.11539
         O 24 -- Zr 9              0.42        2.11559
         O 47 -- Zr 4              0.43        2.11619
         O 32 -- Sn 6              0.33        2.11620
         O 24 -- Zr 10             0.42        2.11642
         O 42 -- Zr 2              0.45        2.11656
         O 22 -- Sn 1              0.34        2.11694
         O 38 -- Zr 2              0.43        2.11718
         O 53 -- Zr 3              0.41        2.11734
         O 30 -- Zr 10             0.45        2.11736
         O 52 -- Zr 1              0.43        2.11793
         O 44 -- Zr 3              0.43        2.11798
         O 40 -- Zr 8              0.43        2.11829
         O 10 -- Zr 9              0.43        2.11852
         O 51 -- Zr 2              0.43        2.11855
         O 38 -- Zr 8              0.42        2.11856
         O 20 -- Zr 8              0.43        2.11874
[...]
         O 45 -- O 50             -0.03        2.82568
         O 14 -- O 30             -0.03        2.82675
         O 18 -- O 21             -0.03        2.82693
         O 48 -- O 50             -0.03        2.82776
         O 33 -- O 40             -0.03        2.82827
         O 34 -- O 39             -0.03        2.82840
         O 27 -- O 40             -0.03        2.82961
         O 20 -- O 27             -0.03        2.82962
         O 20 -- O 28             -0.03        2.83001
         O 25 -- O 39             -0.03        2.83100
         O 14 -- O 29             -0.03        2.83187
         O 37 -- O 41             -0.03        2.83667
         O 16 -- O 31             -0.03        2.83765
         O 12 -- O 21             -0.03        2.83785
         O 35 -- O 43             -0.03        2.84038

Writing analysis data to 005.castep_bin

Writing model to 005.check

 A BibTeX formatted list of references used in this run has been written to
 005.bib

Initialisation time =     53.62 s
Calculation time    =  33876.12 s
Finalisation time   =     62.37 s
Total time          =  33992.11 s

Overall parallel efficiency rating: Good (77%)

Data was distributed by:-
G-vector (4-way); efficiency rating: Good (79%)
k-point (14-way); efficiency rating: Excellent (97%)