 Compiled for linux_x86_64_ifort16 on Sat, 23 Jul 2016 23:44:54 +0100
 from code version
 203e84763863+ Castep161_branch Fri, 04 Mar 2016 19:21:07 +0000
 Compiler: Intel Fortran 16.0.3.210; Optimisation: fast
 MATHLIBS: Intel MKL(11.3.3) (LAPACK version 3.6.0)
 FFT Lib : mkl
 Fundamental constants values: CODATA 2010

 Run started: Fri, 09 Mar 2018 15:53:47 +0000
 |           N   N    M   M    RRRR                |
 |           NN  N    MM MM    R   R               |
 |           N N N    M M M    RRRR                |
 |           N  NN    M   M    R  R                |
 |           N   N    M   M    R   R               |
 | Welcome to Materials Studio CASTEP-NMR          |
 | Authors:                                        |
 | J.R. Yates, C.J. Pickard, F. Mauri              |
 | Contributors:                                   |
 | T.F.G. Green, S.A. Joyce                        |
 | Copyright (c) 2004 - 2015                       |
 | Please cite the appropriate publications in all |
 | work arising from your use of CASTEP NMR.       |
 | For NMR Shielding Tensors cite:                 |
 |    "All-electron magnetic response with         |
 |    pseudopotentials: NMR chemical shifts",      |
 |    C. J. Pickard, F. Mauri;                     |
 |    Physical Review B63 245101 (2001), and       |
 |    "Calculation of NMR Chemical Shifts          |
 |    for extended systems using                   |
 |    Ultrasoft Pseudopotentials",                 |
 |    J. R. Yates, C. J. Pickard and F. Mauri      |
 |    Physical Review B76 024401 (2007)            |
 | For Electric Field Gradients cite:              |
 |   "Accurate First Principles Prediction of 17O  |
 |    NMR Parameters in SiO2: Assignment of the    |
 |    Zeolite Ferrierite Spectrum"                 |
 |    M. Profeta, F. Mauri and C. J. Pickard       |
 |    J. Amer. Chem. Soc. 125 541 (2003)           |
 | For Spin-Spin (J) Couplings cite:               |
 |   "A first principles theory of NMR J-coupling  |
 |   in solid-state systems"                       |
 |   S.A. Joyce, J.R. Yates, C.J. Pickard, F. Mauri|
 |   J. Chem. Phys. 127 204107 (2007)              |
 |   "Relativistic NMR J-coupling with ultrasoft   |
 |   pseudopotentials and the zeroth-order regular |
 |   approximation"                                |
 |   T.F.G. Green and J.R. Yates                   |
 |   J. Chem. Phys. 140 234106 (2014)              |

 Atomic calculation performed for O: 1s2 2s2 2p4

 Converged in 44 iterations to an ae energy of -2040.855 eV

 Atomic calculation performed for O: 1s2 2s2 2p4

 Exceeded max iterations: converged to 0.000000062 eV

   | Pseudopotential Report - Date of generation  9-03-2018   |
   | Element: O Ionic charge:  6.00 Level of theory: PBE      |
   | Atomic Solver: ZORA (scalar)                             |
   |               Reference Electronic Structure             |
   |         Orbital         Occupation         Energy        |
   |            2s              2.000           -0.881        |
   |            2p              4.000           -0.332        |
   |                 Pseudopotential Definition               |
   |        Beta     l      e      Rc     scheme   norm       |
   |          1      0   -0.881   1.100     qc      0         |
   |          2      0    0.250   1.100     qc      0         |
   |          3      1   -0.332   1.100     qc      0         |
   |          4      1    0.250   1.100     qc      0         |
   |         loc     2    0.000   1.100     pn      0         |
   | Augmentation charge Rinner = 0.769                       |
   | Partial core correction Rc = 0.769                       |
   | "2|1.1|15|18|20|20:21(qc=7)"                             |
   |      Author: Chris J. Pickard, Cambridge University      |

 Atomic calculation performed for Zr: 1s2 2s2 2p6 3s2 3p6 3d10 4s2 4p6 4d2 5s2

[...]

 Atomic calculation performed for Zr: 1s2 2s2 2p6 3s2 3p6 3d10 4s2 4p6 4d2 5s2

[...]

 Warning: ion_atom_descreen_psp: negative charge density encountered
   | Pseudopotential Report - Date of generation  9-03-2018   |
   | Element: Zr Ionic charge: 12.00 Level of theory: PBE     |
   | Atomic Solver: ZORA (scalar)                             |
   |               Reference Electronic Structure             |
   |         Orbital         Occupation         Energy        |
   |            4s              2.000           -2.003        |
   |            4p              6.000           -1.193        |
   |            5s              2.000           -0.163        |
   |            4d              2.000           -0.132        |
   |                 Pseudopotential Definition               |
   |        Beta     l      e      Rc     scheme   norm       |
   |          1      0   -2.003   2.105     qc      0         |
   |          2      0   -0.163   2.105     qc      0         |
   |          3      0    0.250   2.105     qc      0         |
   |          4      1   -1.193   2.105     qc      0         |
   |          5      1    0.250   2.105     qc      0         |
   |          6      2   -0.132   2.105     qc      0         |
   |          7      2    0.250   2.105     qc      0         |
   |         loc     3    0.000   2.105     pn      0         |
   | Augmentation charge Rinner = 1.471                       |
   | Partial core correction Rc = 1.471                       |
   | "3|2.1|7|8|9|40U:50:41:42"                               |
   |      Author: Chris J. Pickard, Cambridge University      |

 Atomic calculation performed for Sn:

[...]

 Atomic calculation performed for Sn:

[...]

   | Pseudopotential Report - Date of generation  9-03-2018   |
   | Element: Sn Ionic charge: 14.00 Level of theory: PBE     |
   | Atomic Solver: ZORA (scalar)                             |
   |               Reference Electronic Structure             |
   |         Orbital         Occupation         Energy        |
   |            4d             10.000           -0.950        |
   |            5s              2.000           -0.388        |
   |            5p              2.000           -0.136        |
   |                 Pseudopotential Definition               |
   |        Beta     l      e      Rc     scheme   norm       |
   |          1      0   -0.388   2.199     qc      0         |
   |          2      0    0.250   2.199     qc      0         |
   |          3      1   -0.136   2.199     qc      0         |
   |          4      1    0.250   2.199     qc      0         |
   |          5      2   -0.950   2.199     qc      0         |
   |          6      2    0.250   2.199     qc      0         |
   |         loc     3    0.000   2.199     pn      0         |
   | Augmentation charge Rinner = 1.537                       |
   | Partial core correction Rc = 1.537                       |
   | "3|2.2|7|8|9|50:51:42"                                   |
   |      Author: Chris J. Pickard, Cambridge University      |

 Atomic calculation performed for La:

 Converged in 56 iterations to an ae energy of -230121.495 eV

 Atomic calculation performed for La:

 Exceeded max iterations: converged to 0.000000907 eV

 Warning: ion_atom_descreen_psp: negative charge density encountered
   | Pseudopotential Report - Date of generation  9-03-2018   |
   | Element: La Ionic charge: 11.00 Level of theory: PBE     |
   | Atomic Solver: ZORA (scalar)                             |
   |               Reference Electronic Structure             |
   |         Orbital         Occupation         Energy        |
   |            5s              2.000           -1.430        |
   |            5p              6.000           -0.823        |
   |            6s              2.000           -0.135        |
   |            5d              1.000           -0.114        |
   |                 Pseudopotential Definition               |
   |        Beta     l      e      Rc     scheme   norm       |
   |          1      0   -1.430   2.298     qc      0         |
   |          2      0   -0.135   2.298     qc      0         |
   |          3      0    0.250   2.298     qc      0         |
   |          4      1   -0.823   2.298     qc      0         |
   |          5      1    0.250   2.298     qc      0         |
   |          6      2   -0.114   2.298     qc      0         |
   |          7      2    0.250   2.298     qc      0         |
   |         loc     2    0.000   2.298     pn      0         |
   | Augmentation charge Rinner = 1.606                       |
   | Partial core correction Rc = 1.606                       |
   | "2|2.3|5|6|7|50U:60:51:52(qc=4.5)"                       |
   |      Author: Chris J. Pickard, Cambridge University      |

 Pseudo atomic calculation performed for O 2s2 2p4

 Converged in 39 iterations to a total energy of -432.6554 eV

 Pseudo atomic calculation performed for Zr 4s2 4p6 4d2 5s2

[...]

 Calculation parallelised over 56 processes.
 Data is distributed by G-vector(4-way) and k-point(14-way)

 ************************************ Title ************************************
 nmr testing

 ***************************** General Parameters ******************************

 output verbosity                               : normal  (1)
 write checkpoint data to                       : 013.check
 type of calculation                            : Magnetic Resonance
 stress calculation                             : on
 density difference calculation                 : off
 electron localisation func (ELF) calculation   : off
 Hirshfeld analysis                             : off
 unlimited duration calculation
 timing information                             : on
 write final potential to formatted file        : off
 write final density to formatted file          : off
 write structure in CIF formatted file          : on
 write structure in CELL formatted file         : on
 write BibTeX reference list                    : on
 write OTFG pseudopotential files               : on
 checkpoint writing                             : both castep_bin and check files

 output         length unit                     : A
 output           mass unit                     : amu
 output           time unit                     : ps
 output         charge unit                     : e
 output           spin unit                     : hbar/2
 output         energy unit                     : eV
 output          force unit                     : eV/A
 output       velocity unit                     : A/ps
 output       pressure unit                     : GPa
 output     inv_length unit                     : 1/A
 output      frequency unit                     : cm-1
 output force constant unit                     : eV/A**2
 output         volume unit                     : A**3
 output   IR intensity unit                     : (D/A)**2/amu
 output         dipole unit                     : D
 output         efield unit                     : eV/A/e
 output        entropy unit                     : J/mol/K

 wavefunctions paging                           : none
 random number generator seed                   : randomised (155348704)
 data distribution                              : optimal for this architecture
[...]
  |    O          42      -89.86      86.85      0.08  -3.191E+00   0.09 |
  |    O          43      -89.93      95.51      0.24  -3.188E+00   0.10 |
  |    O          44      -89.48      94.03      0.31  -3.131E+00   0.11 |
  |    O          45      -86.48      94.18      0.25  -3.205E+00   0.10 |
  |    O          46     -161.09     144.35      0.84   1.074E+00   0.74 |
  |    O          47     -163.57     156.42      0.80   1.079E+00   0.86 |
  |    O          48     -161.37     143.99      0.83   1.072E+00   0.72 |
  |    O          49     -164.14     154.94      0.80   1.056E+00   0.89 |
  |    O          50      -87.44      84.95      0.05  -3.173E+00   0.10 |
  |    O          51     -162.62     147.01      0.83   1.047E+00   0.76 |
  |    O          52      -88.76      86.39      0.15  -3.286E+00   0.12 |
  |    O          53      -89.01      76.27      0.12  -3.228E+00   0.11 |
  |    O          54     -165.01     156.36      0.85   1.042E+00   0.90 |
  |    O          55      -89.86      78.72      0.19  -3.254E+00   0.10 |
  |    O          56     -164.57     155.26      0.80   1.019E+00   0.91 |
  |    Zr          1     1627.76    -126.30      0.10  -3.823E+01   0.05 |
  |    Zr          2     1612.23    -119.81      0.05  -3.711E+01   0.06 |
  |    Zr          3     1626.55    -126.19      0.15  -3.794E+01   0.08 |
  |    Zr          4     1632.65    -130.12      0.19  -3.922E+01   0.12 |
[...]
  |    La          2     4700.34     769.51      0.05  -8.119E+01   0.06 |
  |    La          3     4704.82     771.10      0.04  -8.337E+01   0.04 |
  |    La          4     4757.51     854.19      0.04  -8.731E+01   0.08 |
  |    La          5     4602.85     530.83      0.09  -7.552E+01   0.09 |
  |    La          6     4658.07     657.24      0.10  -7.982E+01   0.15 |
  |    La          7     4799.82     958.86      0.01  -8.776E+01   0.02 |
  |    La          8     4708.88     740.67      0.04  -8.244E+01   0.09 |
  |    La          9     4652.73     666.33      0.10  -7.848E+01   0.14 |
  |    La         10     4657.48     656.10      0.09  -7.967E+01   0.13 |
  |    La         11     4650.20     631.52      0.01  -7.714E+01   0.04 |
  |    La         12     4702.25     774.49      0.05  -8.155E+01   0.05 |
  |    La         13     4708.25     787.48      0.11  -8.312E+01   0.10 |
  |    La         14     4713.23     780.18      0.10  -8.430E+01   0.12 |
  |    La         15     4667.35     654.76      0.08  -8.106E+01   0.14 |
  |    La         16     4660.41     662.28      0.09  -7.996E+01   0.11 |

 *********************** Forces ***********************
 *            Cartesian components (eV/A)             *
 *                   x            y            z      *
 * O         1      0.00042     -0.00200     -0.01147 *
 * O         2     -0.00029      0.00371      0.00178 *
 * O         3     -0.00032     -0.00589      0.00119 *
 * O         4      0.00196      0.00509      0.00013 *
 * O         5     -0.00732     -0.00057      0.01055 *
 * O         6     -0.00260      0.00637     -0.00154 *
 * O         7      0.00197     -0.00496     -0.00661 *
 * O         8      0.00509      0.00219     -0.00008 *
 * O         9      0.00421      0.01496      0.01443 *
 * O        10      0.00189      0.00527      0.00004 *
 * O        11     -0.00724      0.00180      0.00098 *
 * O        12      0.00804      0.00670      0.00323 *
 * O        13      0.00713      0.00648     -0.00138 *
 * O        14     -0.02004      0.00419      0.02757 *
 * O        15     -0.00930      0.00395      0.01889 *
 * O        16     -0.02399     -0.00195     -0.02218 *
 * O        17     -0.01997     -0.01725      0.00076 *
 * O        18     -0.00923      0.00601     -0.00992 *
 * O        19     -0.01299      0.01848     -0.00360 *
 * O        20     -0.00649     -0.00147      0.00484 *
 * O        21      0.03031      0.00378     -0.02391 *
 * O        22      0.02455      0.00225      0.02695 *
 * O        23      0.00483     -0.01316     -0.00974 *
 * O        24      0.02125      0.00912     -0.01917 *
 * O        25     -0.00283      0.02388     -0.02850 *
 * O        26     -0.01097     -0.00902     -0.00615 *
 * O        27     -0.00605     -0.01112     -0.01834 *
 * O        28     -0.00103     -0.00126     -0.01338 *
 * O        29      0.02292      0.03782      0.00153 *
 * O        30     -0.00536      0.00046      0.00141 *
 * O        31      0.02026     -0.01597      0.00170 *
 * O        32      0.01996      0.03063     -0.00336 *
 * O        33      0.01157      0.00629      0.00330 *
 * O        34     -0.00250      0.01624      0.01046 *
 * O        35      0.00749     -0.00215     -0.01725 *
 * O        36      0.00833     -0.00973      0.03012 *
 * O        37     -0.00073     -0.01177      0.02085 *
 * O        38     -0.00285     -0.01295     -0.00781 *
 * O        39     -0.00390     -0.00892      0.00814 *
 * O        40      0.00372      0.00867      0.00571 *
 * O        41      0.00609     -0.01245     -0.00795 *
 * O        42     -0.00662     -0.02648      0.02294 *
 * O        43     -0.01911     -0.03076      0.00741 *
 * O        44     -0.01153      0.01807      0.00132 *
 * O        45      0.00807      0.00859      0.01189 *
 * O        46     -0.00963     -0.01179     -0.00112 *
 * O        47     -0.00555      0.00103     -0.01977 *
 * O        48     -0.00197      0.00311      0.00741 *
 * O        49      0.00655      0.01399     -0.01335 *
 * O        50     -0.01113     -0.00356     -0.01856 *
 * O        51      0.00056     -0.00370      0.00218 *
 * O        52     -0.01507     -0.01735     -0.00749 *
 * O        53      0.02506     -0.01688      0.00857 *
 * O        54      0.01356      0.00364     -0.01078 *
 * O        55     -0.03433     -0.01476      0.01913 *
 * O        56     -0.00578      0.01000      0.00137 *
 * Zr        1      0.00919      0.03481     -0.01231 *
 * Zr        2      0.00765      0.01949     -0.01040 *
 * Zr        3      0.00005      0.02009     -0.01853 *
 * Zr        4      0.00969      0.00094     -0.00153 *
[...]
 * La        2      0.00482     -0.01056     -0.01447 *
 * La        3      0.00012      0.01210      0.01132 *
 * La        4     -0.01637     -0.01179     -0.00351 *
 * La        5     -0.00103      0.00289      0.00253 *
 * La        6      0.00484     -0.01211     -0.01493 *
 * La        7     -0.00034     -0.00202      0.01139 *
 * La        8      0.00423      0.00855     -0.01521 *
 * La        9     -0.00095     -0.01045     -0.00640 *
 * La       10     -0.00584      0.01243      0.00993 *
 * La       11      0.00376      0.01044      0.01830 *
 * La       12     -0.00565     -0.01485     -0.00927 *
 * La       13     -0.00616     -0.00426     -0.00361 *
 * La       14     -0.00039     -0.00200     -0.00893 *
 * La       15      0.00878      0.00001      0.00014 *
 * La       16     -0.00672      0.00128      0.00580 *

 ***************** Stress Tensor *****************
 *          Cartesian components (GPa)           *
 *             x             y             z     *
 *  x      0.027115      0.013182     -0.001533  *
 *  y      0.013182      0.029372     -0.026550  *
 *  z     -0.001533     -0.026550      0.026988  *
 *  Pressure:   -0.0278                          *

[...]

 Pseudo atomic calculation performed for Sn 4d10 5s2 5p2

[...]

 Pseudo atomic calculation performed for La 5s2 5p6 5d1 6s2

 Converged in 34 iterations to a total energy of -968.0372 eV

Charge spilling parameter for spin component 1 = 0.23%

     Atomic Populations (Mulliken)
Species   Ion     s      p      d      f     Total  Charge (e)
  O        1     1.87   5.00   0.00   0.00   6.87    -0.87
  O        2     1.87   5.00   0.00   0.00   6.87    -0.87
  O        3     1.87   5.00   0.00   0.00   6.87    -0.87
  O        4     1.87   5.00   0.00   0.00   6.87    -0.87
  O        5     1.87   5.00   0.00   0.00   6.87    -0.87
  O        6     1.87   5.00   0.00   0.00   6.87    -0.87
  O        7     1.87   5.00   0.00   0.00   6.87    -0.87
  O        8     1.87   5.00   0.00   0.00   6.87    -0.87
  O        9     1.87   4.99   0.00   0.00   6.85    -0.85
  O       10     1.86   4.95   0.00   0.00   6.80    -0.80
  O       11     1.86   4.95   0.00   0.00   6.80    -0.80
  O       12     1.88   5.02   0.00   0.00   6.91    -0.91
  O       13     1.88   5.02   0.00   0.00   6.91    -0.91
  O       14     1.87   4.99   0.00   0.00   6.85    -0.85
  O       15     1.87   4.98   0.00   0.00   6.85    -0.85
  O       16     1.87   4.99   0.00   0.00   6.85    -0.85
  O       17     1.87   4.99   0.00   0.00   6.85    -0.85
  O       18     1.88   5.02   0.00   0.00   6.91    -0.91
  O       19     1.87   4.99   0.00   0.00   6.85    -0.85
  O       20     1.86   4.94   0.00   0.00   6.80    -0.80
  O       21     1.87   4.99   0.00   0.00   6.85    -0.85
  O       22     1.87   4.98   0.00   0.00   6.85    -0.85
  O       23     1.86   4.94   0.00   0.00   6.80    -0.80
  O       24     1.87   4.99   0.00   0.00   6.85    -0.85
  O       25     1.87   4.99   0.00   0.00   6.85    -0.85
  O       26     1.88   5.02   0.00   0.00   6.91    -0.91
  O       27     1.87   4.99   0.00   0.00   6.85    -0.85
  O       28     1.86   4.95   0.00   0.00   6.80    -0.80
  O       29     1.87   4.98   0.00   0.00   6.85    -0.85
  O       30     1.88   5.02   0.00   0.00   6.91    -0.91
  O       31     1.87   4.99   0.00   0.00   6.85    -0.85
  O       32     1.87   4.99   0.00   0.00   6.85    -0.85
  O       33     1.86   4.95   0.00   0.00   6.80    -0.80
  O       34     1.87   4.99   0.00   0.00   6.85    -0.85
  O       35     1.87   4.98   0.00   0.00   6.85    -0.85
  O       36     1.87   4.99   0.00   0.00   6.85    -0.85
  O       37     1.86   4.95   0.00   0.00   6.80    -0.80
  O       38     1.86   4.95   0.00   0.00   6.80    -0.80
  O       39     1.86   4.95   0.00   0.00   6.80    -0.80
  O       40     1.86   4.95   0.00   0.00   6.80    -0.80
  O       41     1.87   4.98   0.00   0.00   6.85    -0.85
  O       42     1.87   4.99   0.00   0.00   6.86    -0.86
  O       43     1.87   4.99   0.00   0.00   6.86    -0.86
  O       44     1.87   4.98   0.00   0.00   6.85    -0.85
  O       45     1.87   4.99   0.00   0.00   6.85    -0.85
  O       46     1.86   4.95   0.00   0.00   6.80    -0.80
  O       47     1.86   4.95   0.00   0.00   6.80    -0.80
  O       48     1.86   4.95   0.00   0.00   6.80    -0.80
  O       49     1.86   4.94   0.00   0.00   6.80    -0.80
  O       50     1.87   4.99   0.00   0.00   6.86    -0.86
  O       51     1.86   4.95   0.00   0.00   6.80    -0.80
  O       52     1.87   4.99   0.00   0.00   6.85    -0.85
  O       53     1.87   4.99   0.00   0.00   6.85    -0.85
  O       54     1.86   4.95   0.00   0.00   6.80    -0.80
  O       55     1.87   4.99   0.00   0.00   6.86    -0.86
  O       56     1.86   4.94   0.00   0.00   6.80    -0.80
  Zr       1     2.38   6.49   1.92   0.00  10.79     1.21
  Zr       2     2.37   6.50   1.92   0.00  10.79     1.21
  Zr       3     2.37   6.49   1.92   0.00  10.78     1.22
  Zr       4     2.38   6.48   1.93   0.00  10.78     1.22
[...]
  La       2     2.07   6.16   1.19   0.00   9.42     1.58
  La       3     2.06   6.16   1.19   0.00   9.42     1.58
  La       4     2.04   6.15   1.19   0.00   9.38     1.62
  La       5     2.11   6.19   1.19   0.00   9.49     1.51
  La       6     2.08   6.17   1.19   0.00   9.45     1.55
  La       7     2.00   6.13   1.19   0.00   9.33     1.67
  La       8     2.06   6.17   1.19   0.00   9.42     1.58
  La       9     2.09   6.17   1.19   0.00   9.45     1.55
  La      10     2.08   6.18   1.19   0.00   9.45     1.55
  La      11     2.10   6.17   1.19   0.00   9.47     1.53
  La      12     2.04   6.16   1.19   0.00   9.40     1.60
  La      13     2.04   6.16   1.19   0.00   9.40     1.60
  La      14     2.04   6.17   1.19   0.00   9.40     1.60
  La      15     2.06   6.18   1.19   0.00   9.43     1.57
  La      16     2.06   6.18   1.19   0.00   9.43     1.57

            Bond              Population      Length (A)
         O 52 -- Sn 4              0.35        2.09953
         O 27 -- Sn 5              0.35        2.10142
         O 36 -- Sn 6              0.35        2.10207
         O 9  -- Sn 4              0.35        2.10294
         O 43 -- Sn 3              0.35        2.10325
         O 19 -- Sn 5              0.34        2.10336
         O 24 -- Sn 4              0.35        2.10373
         O 31 -- Sn 5              0.34        2.10376
         O 32 -- Sn 6              0.35        2.10391
         O 55 -- Sn 1              0.35        2.10462
         O 45 -- Sn 5              0.34        2.10481
         O 12 -- Sn 3              0.34        2.10586
         O 42 -- Sn 2              0.35        2.10618
         O 16 -- Sn 6              0.35        2.10646
         O 34 -- Sn 3              0.34        2.10746
         O 15 -- Sn 5              0.34        2.10753
         O 41 -- Sn 6              0.34        2.10768
         O 50 -- Sn 2              0.34        2.10773
         O 53 -- Sn 1              0.34        2.10821
         O 21 -- Sn 1              0.35        2.10843
         O 13 -- Sn 2              0.34        2.10876
         O 14 -- Sn 4              0.34        2.10897
         O 13 -- Sn 3              0.34        2.10993
         O 35 -- Sn 5              0.34        2.11006
         O 17 -- Sn 6              0.34        2.11051
         O 25 -- Sn 2              0.35        2.11069
         O 12 -- Sn 1              0.33        2.11101
         O 18 -- Sn 1              0.34        2.11203
         O 22 -- Sn 3              0.34        2.11217
         O 29 -- Sn 3              0.35        2.11233
         O 44 -- Sn 4              0.34        2.11305
         O 18 -- Sn 2              0.33        2.11315
         O 26 -- Sn 6              0.33        2.11380
         O 47 -- Zr 4              0.42        2.11414
         O 32 -- Zr 10             0.45        2.11424
         O 43 -- Zr 2              0.44        2.11447
         O 28 -- Zr 5              0.42        2.11480
         O 23 -- Zr 7              0.42        2.11495
         O 36 -- Zr 3              0.45        2.11528
         O 49 -- Zr 4              0.42        2.11533
         O 31 -- Zr 6              0.45        2.11545
         O 54 -- Zr 8              0.42        2.11547
         O 30 -- Sn 4              0.33        2.11550
         O 30 -- Sn 2              0.33        2.11558
         O 33 -- Zr 3              0.41        2.11574
         O 19 -- Zr 9              0.45        2.11580
         O 54 -- Zr 1              0.41        2.11600
         O 33 -- Zr 10             0.41        2.11606
         O 20 -- Zr 7              0.42        2.11656
         O 26 -- Sn 1              0.33        2.11665
         O 28 -- Zr 9              0.42        2.11669
         O 37 -- Zr 4              0.42        2.11676
         O 10 -- Zr 6              0.42        2.11720
         O 24 -- Zr 8              0.45        2.11741
         O 56 -- Zr 1              0.43        2.11756
         O 39 -- Zr 8              0.43        2.11777
         O 37 -- Zr 9              0.43        2.11802
         O 47 -- Zr 6              0.43        2.11841
         O 49 -- Zr 5              0.43        2.11876
         O 27 -- Zr 7              0.46        2.11887
[...]
         O 35 -- O 43             -0.03        2.82515
         O 38 -- O 40             -0.03        2.82645
         O 33 -- O 40             -0.03        2.82650
         O 29 -- O 46             -0.03        2.82672
         O 51 -- O 55             -0.03        2.82713
         O 34 -- O 39             -0.03        2.82833
         O 25 -- O 39             -0.03        2.82854
         O 11 -- O 21             -0.03        2.82894
         O 16 -- O 51             -0.03        2.82914
         O 46 -- O 53             -0.03        2.83148
         O 11 -- O 22             -0.03        2.83153
         O 38 -- O 42             -0.03        2.83192
         O 48 -- O 50             -0.03        2.83603
         O 17 -- O 25             -0.03        2.83605
         O 14 -- O 29             -0.03        2.83630

Writing analysis data to 013.castep_bin

Writing model to 013.check

 A BibTeX formatted list of references used in this run has been written to
 013.bib

Initialisation time =     54.02 s
Calculation time    =  33419.41 s
Finalisation time   =     54.05 s
Total time          =  33527.49 s

Overall parallel efficiency rating: Good (77%)

Data was distributed by:-
G-vector (4-way); efficiency rating: Good (78%)
k-point (14-way); efficiency rating: Excellent (99%)