 Compiled for linux_x86_64_ifort16 on Sat, 23 Jul 2016 23:44:54 +0100
 from code version
 203e84763863+ Castep161_branch Fri, 04 Mar 2016 19:21:07 +0000
 Compiler: Intel Fortran 16.0.3.210; Optimisation: fast
 MATHLIBS: Intel MKL(11.3.3) (LAPACK version 3.6.0)
 FFT Lib : mkl
 Fundamental constants values: CODATA 2010

 Run started: Sat, 10 Mar 2018 10:35:00 +0000
 |           N   N    M   M    RRRR                |
 |           NN  N    MM MM    R   R               |
 |           N N N    M M M    RRRR                |
 |           N  NN    M   M    R  R                |
 |           N   N    M   M    R   R               |
 | Welcome to Materials Studio CASTEP-NMR          |
 | Authors:                                        |
 | J.R. Yates, C.J. Pickard, F. Mauri              |
 | Contributors:                                   |
 | T.F.G. Green, S.A. Joyce                        |
 | Copyright (c) 2004 - 2015                       |
 | Please cite the appropriate publications in all |
 | work arising from your use of CASTEP NMR.       |
 | For NMR Shielding Tensors cite:                 |
 |    "All-electron magnetic response with         |
 |    pseudopotentials: NMR chemical shifts",      |
 |    C. J. Pickard, F. Mauri;                     |
 |    Physical Review B63 245101 (2001), and       |
 |    "Calculation of NMR Chemical Shifts          |
 |    for extended systems using                   |
 |    Ultrasoft Pseudopotentials",                 |
 |    J. R. Yates, C. J. Pickard and F. Mauri      |
 |    Physical Review B76 024401 (2007)            |
 | For Electric Field Gradients cite:              |
 |   "Accurate First Principles Prediction of 17O  |
 |    NMR Parameters in SiO2: Assignment of the    |
 |    Zeolite Ferrierite Spectrum"                 |
 |    M. Profeta, F. Mauri and C. J. Pickard       |
 |    J. Amer. Chem. Soc. 125 541 (2003)           |
 | For Spin-Spin (J) Couplings cite:               |
 |   "A first principles theory of NMR J-coupling  |
 |   in solid-state systems"                       |
 |   S.A. Joyce, J.R. Yates, C.J. Pickard, F. Mauri|
 |   J. Chem. Phys. 127 204107 (2007)              |
 |   "Relativistic NMR J-coupling with ultrasoft   |
 |   pseudopotentials and the zeroth-order regular |
 |   approximation"                                |
 |   T.F.G. Green and J.R. Yates                   |
 |   J. Chem. Phys. 140 234106 (2014)              |

 Atomic calculation performed for O: 1s2 2s2 2p4

 Converged in 44 iterations to an ae energy of -2040.855 eV

 Atomic calculation performed for O: 1s2 2s2 2p4

 Exceeded max iterations: converged to 0.000000062 eV

   | Pseudopotential Report - Date of generation 10-03-2018   |
   | Element: O Ionic charge:  6.00 Level of theory: PBE      |
   | Atomic Solver: ZORA (scalar)                             |
   |               Reference Electronic Structure             |
   |         Orbital         Occupation         Energy        |
   |            2s              2.000           -0.881        |
   |            2p              4.000           -0.332        |
   |                 Pseudopotential Definition               |
   |        Beta     l      e      Rc     scheme   norm       |
   |          1      0   -0.881   1.100     qc      0         |
   |          2      0    0.250   1.100     qc      0         |
   |          3      1   -0.332   1.100     qc      0         |
   |          4      1    0.250   1.100     qc      0         |
   |         loc     2    0.000   1.100     pn      0         |
   | Augmentation charge Rinner = 0.769                       |
   | Partial core correction Rc = 0.769                       |
   | "2|1.1|15|18|20|20:21(qc=7)"                             |
   |      Author: Chris J. Pickard, Cambridge University      |

 Atomic calculation performed for Zr: 1s2 2s2 2p6 3s2 3p6 3d10 4s2 4p6 4d2 5s2

[...]

 Atomic calculation performed for Zr: 1s2 2s2 2p6 3s2 3p6 3d10 4s2 4p6 4d2 5s2

[...]

 Warning: ion_atom_descreen_psp: negative charge density encountered
   | Pseudopotential Report - Date of generation 10-03-2018   |
   | Element: Zr Ionic charge: 12.00 Level of theory: PBE     |
   | Atomic Solver: ZORA (scalar)                             |
   |               Reference Electronic Structure             |
   |         Orbital         Occupation         Energy        |
   |            4s              2.000           -2.003        |
   |            4p              6.000           -1.193        |
   |            5s              2.000           -0.163        |
   |            4d              2.000           -0.132        |
   |                 Pseudopotential Definition               |
   |        Beta     l      e      Rc     scheme   norm       |
   |          1      0   -2.003   2.105     qc      0         |
   |          2      0   -0.163   2.105     qc      0         |
   |          3      0    0.250   2.105     qc      0         |
   |          4      1   -1.193   2.105     qc      0         |
   |          5      1    0.250   2.105     qc      0         |
   |          6      2   -0.132   2.105     qc      0         |
   |          7      2    0.250   2.105     qc      0         |
   |         loc     3    0.000   2.105     pn      0         |
   | Augmentation charge Rinner = 1.471                       |
   | Partial core correction Rc = 1.471                       |
   | "3|2.1|7|8|9|40U:50:41:42"                               |
   |      Author: Chris J. Pickard, Cambridge University      |

 Atomic calculation performed for Sn:

[...]

 Atomic calculation performed for Sn:

[...]

   | Pseudopotential Report - Date of generation 10-03-2018   |
   | Element: Sn Ionic charge: 14.00 Level of theory: PBE     |
   | Atomic Solver: ZORA (scalar)                             |
   |               Reference Electronic Structure             |
   |         Orbital         Occupation         Energy        |
   |            4d             10.000           -0.950        |
   |            5s              2.000           -0.388        |
   |            5p              2.000           -0.136        |
   |                 Pseudopotential Definition               |
   |        Beta     l      e      Rc     scheme   norm       |
   |          1      0   -0.388   2.199     qc      0         |
   |          2      0    0.250   2.199     qc      0         |
   |          3      1   -0.136   2.199     qc      0         |
   |          4      1    0.250   2.199     qc      0         |
   |          5      2   -0.950   2.199     qc      0         |
   |          6      2    0.250   2.199     qc      0         |
   |         loc     3    0.000   2.199     pn      0         |
   | Augmentation charge Rinner = 1.537                       |
   | Partial core correction Rc = 1.537                       |
   | "3|2.2|7|8|9|50:51:42"                                   |
   |      Author: Chris J. Pickard, Cambridge University      |

 Atomic calculation performed for La:

 Converged in 56 iterations to an ae energy of -230121.495 eV

 Atomic calculation performed for La:

 Exceeded max iterations: converged to 0.000000907 eV

 Warning: ion_atom_descreen_psp: negative charge density encountered
   | Pseudopotential Report - Date of generation 10-03-2018   |
   | Element: La Ionic charge: 11.00 Level of theory: PBE     |
   | Atomic Solver: ZORA (scalar)                             |
   |               Reference Electronic Structure             |
   |         Orbital         Occupation         Energy        |
   |            5s              2.000           -1.430        |
   |            5p              6.000           -0.823        |
   |            6s              2.000           -0.135        |
   |            5d              1.000           -0.114        |
   |                 Pseudopotential Definition               |
   |        Beta     l      e      Rc     scheme   norm       |
   |          1      0   -1.430   2.298     qc      0         |
   |          2      0   -0.135   2.298     qc      0         |
   |          3      0    0.250   2.298     qc      0         |
   |          4      1   -0.823   2.298     qc      0         |
   |          5      1    0.250   2.298     qc      0         |
   |          6      2   -0.114   2.298     qc      0         |
   |          7      2    0.250   2.298     qc      0         |
   |         loc     2    0.000   2.298     pn      0         |
   | Augmentation charge Rinner = 1.606                       |
   | Partial core correction Rc = 1.606                       |
   | "2|2.3|5|6|7|50U:60:51:52(qc=4.5)"                       |
   |      Author: Chris J. Pickard, Cambridge University      |

 Pseudo atomic calculation performed for O 2s2 2p4

 Converged in 39 iterations to a total energy of -432.6554 eV

 Pseudo atomic calculation performed for Zr 4s2 4p6 4d2 5s2

[...]

 Calculation parallelised over 56 processes.
 Data is distributed by G-vector(4-way) and k-point(14-way)

 ************************************ Title ************************************
 nmr testing

 ***************************** General Parameters ******************************

 output verbosity                               : normal  (1)
 write checkpoint data to                       : 015.check
 type of calculation                            : Magnetic Resonance
 stress calculation                             : on
 density difference calculation                 : off
 electron localisation func (ELF) calculation   : off
 Hirshfeld analysis                             : off
 unlimited duration calculation
 timing information                             : on
 write final potential to formatted file        : off
 write final density to formatted file          : off
 write structure in CIF formatted file          : on
 write structure in CELL formatted file         : on
 write BibTeX reference list                    : on
 write OTFG pseudopotential files               : on
 checkpoint writing                             : both castep_bin and check files

 output         length unit                     : A
 output           mass unit                     : amu
 output           time unit                     : ps
 output         charge unit                     : e
 output           spin unit                     : hbar/2
 output         energy unit                     : eV
 output          force unit                     : eV/A
 output       velocity unit                     : A/ps
 output       pressure unit                     : GPa
 output     inv_length unit                     : 1/A
 output      frequency unit                     : cm-1
 output force constant unit                     : eV/A**2
 output         volume unit                     : A**3
 output   IR intensity unit                     : (D/A)**2/amu
 output         dipole unit                     : D
 output         efield unit                     : eV/A/e
 output        entropy unit                     : J/mol/K

 wavefunctions paging                           : none
 random number generator seed                   : randomised (103502400)
 data distribution                              : optimal for this architecture
[...]
  |    O          42      -90.48      92.09      0.17  -3.207E+00   0.11 |
  |    O          43      -89.11      94.60      0.22  -3.209E+00   0.10 |
  |    O          44     -165.15     148.12      0.74   1.026E+00   0.82 |
  |    O          45      -87.62      94.40      0.19  -3.224E+00   0.10 |
  |    O          46     -162.30     142.67      0.78   1.047E+00   0.73 |
  |    O          47     -164.19     155.16      0.80   1.054E+00   0.88 |
  |    O          48      -87.11      84.00      0.17  -3.175E+00   0.11 |
  |    O          49     -164.39     158.47      0.81   1.093E+00   0.85 |
  |    O          50      -84.99      82.32      0.26  -3.098E+00   0.09 |
  |    O          51     -161.89     144.08      0.84   1.058E+00   0.73 |
  |    O          52     -163.58     157.65      0.81   1.080E+00   0.85 |
  |    O          53      -91.09      81.02      0.19  -3.220E+00   0.11 |
  |    O          54     -164.72     154.60      0.81   1.014E+00   0.93 |
  |    O          55      -91.62      76.35      0.15  -3.237E+00   0.11 |
  |    O          56     -167.27     159.40      0.83  -1.009E+00   1.00 |
  |    Zr          1     1627.83    -129.58      0.22  -3.807E+01   0.08 |
  |    Zr          2     1613.16    -119.70      0.10  -3.702E+01   0.10 |
  |    Zr          3     1609.13    -116.07      0.07  -3.796E+01   0.06 |
  |    Zr          4     1632.68    -131.29      0.18  -3.895E+01   0.13 |
[...]
  |    La          2     4750.07     870.85      0.05  -8.501E+01   0.08 |
  |    La          3     4704.55     765.60      0.03  -8.260E+01   0.05 |
  |    La          4     4707.82     757.59      0.05  -8.466E+01   0.11 |
  |    La          5     4610.81     527.92      0.07  -7.668E+01   0.11 |
  |    La          6     4657.39     627.53      0.01  -7.853E+01   0.03 |
  |    La          7     4797.16     968.24      0.01  -8.702E+01   0.02 |
  |    La          8     4662.58     617.35      0.00  -7.983E+01   0.03 |
  |    La          9     4658.13     658.75      0.09  -7.972E+01   0.13 |
  |    La         10     4704.36     752.43      0.03  -8.152E+01   0.07 |
  |    La         11     4701.50     762.68      0.04  -8.039E+01   0.10 |
  |    La         12     4652.09     634.79      0.01  -7.726E+01   0.04 |
  |    La         13     4704.68     754.18      0.04  -8.201E+01   0.09 |
  |    La         14     4663.07     651.92      0.08  -8.151E+01   0.15 |
  |    La         15     4659.42     665.62      0.10  -8.086E+01   0.16 |
  |    La         16     4706.26     770.81      0.03  -8.341E+01   0.06 |

 *********************** Forces ***********************
 *            Cartesian components (eV/A)             *
 *                   x            y            z      *
 * O         1      0.00800     -0.00248     -0.00624 *
 * O         2      0.00151      0.00439     -0.00246 *
 * O         3      0.00837     -0.00532      0.00013 *
 * O         4      0.00599     -0.00189     -0.00263 *
 * O         5     -0.01490     -0.00174      0.00265 *
 * O         6     -0.00437      0.00575     -0.00037 *
 * O         7     -0.00448     -0.00311     -0.00532 *
 * O         8     -0.00819      0.00491     -0.00424 *
 * O         9      0.00783      0.00373      0.00036 *
 * O        10     -0.00842      0.00390      0.00079 *
 * O        11     -0.00013      0.02080     -0.01416 *
 * O        12      0.00281      0.00113      0.00740 *
 * O        13     -0.00468     -0.00110     -0.00720 *
 * O        14     -0.00220      0.00364      0.00273 *
 * O        15     -0.00072      0.00231      0.00066 *
 * O        16     -0.01427     -0.00665     -0.02493 *
 * O        17     -0.02329     -0.01846     -0.00539 *
 * O        18     -0.01338      0.00769     -0.00575 *
 * O        19     -0.01623      0.01388     -0.00908 *
 * O        20     -0.00441      0.00853      0.00965 *
 * O        21      0.00737      0.00291     -0.00875 *
 * O        22      0.01416      0.00169      0.01157 *
 * O        23      0.00589     -0.01557     -0.00397 *
 * O        24      0.00236      0.01866     -0.00290 *
 * O        25     -0.00929      0.01124     -0.01900 *
 * O        26     -0.00377     -0.00387     -0.00862 *
 * O        27      0.00121     -0.01274     -0.01256 *
 * O        28      0.00871      0.00496     -0.01157 *
 * O        29      0.02517      0.02879      0.00864 *
 * O        30     -0.01131      0.01129     -0.00551 *
 * O        31      0.01699     -0.01969     -0.01055 *
 * O        32     -0.00368      0.00163     -0.00436 *
 * O        33      0.00995     -0.01495      0.02070 *
 * O        34     -0.00034      0.00985      0.01414 *
 * O        35      0.00669     -0.00389     -0.01104 *
 * O        36      0.01760     -0.00802      0.03071 *
 * O        37     -0.00787     -0.00979      0.00502 *
 * O        38     -0.00890     -0.00511     -0.00787 *
 * O        39     -0.00166     -0.01080      0.01124 *
 * O        40      0.00578      0.00384      0.01280 *
 * O        41     -0.00389     -0.01037     -0.01753 *
 * O        42     -0.01277     -0.01524      0.00357 *
 * O        43     -0.00702     -0.02186      0.00809 *
 * O        44      0.00696      0.00611     -0.00023 *
 * O        45      0.00816      0.00927      0.01361 *
 * O        46      0.00354     -0.00496      0.00604 *
 * O        47     -0.00045      0.00078     -0.01718 *
 * O        48      0.00256      0.01143     -0.00031 *
 * O        49      0.00852      0.01537     -0.00314 *
 * O        50     -0.00495      0.00278     -0.01479 *
 * O        51      0.00480     -0.00232      0.00613 *
 * O        52     -0.00670      0.00440      0.01067 *
 * O        53      0.02566     -0.01442      0.00834 *
 * O        54      0.00919      0.00070     -0.01341 *
 * O        55     -0.01985     -0.00820      0.01357 *
 * O        56     -0.01104      0.01534     -0.00650 *
 * Zr        1     -0.01667      0.02272     -0.01436 *
 * Zr        2      0.00364      0.01094     -0.00890 *
 * Zr        3     -0.00166      0.00131     -0.01014 *
 * Zr        4      0.00159     -0.00113     -0.00030 *
[...]
 * La        2      0.01505     -0.01447      0.00476 *
 * La        3     -0.00517      0.00487      0.01047 *
 * La        4      0.00356     -0.00360      0.00703 *
 * La        5     -0.00191      0.00049      0.00160 *
 * La        6      0.01495      0.00986     -0.00152 *
 * La        7      0.00210     -0.01708      0.01535 *
 * La        8      0.00213      0.00576     -0.01174 *
 * La        9     -0.00436     -0.00159     -0.00774 *
 * La       10     -0.00722      0.00143      0.00680 *
 * La       11     -0.00185      0.01426      0.00994 *
 * La       12     -0.01425     -0.01094     -0.00562 *
 * La       13      0.01138     -0.01339      0.00206 *
 * La       14     -0.01140     -0.00488     -0.00859 *
 * La       15      0.01329      0.01505      0.00170 *
 * La       16     -0.01319      0.00737      0.00201 *

 ***************** Stress Tensor *****************
 *          Cartesian components (GPa)           *
 *             x             y             z     *
 *  x      0.024829      0.000100      0.002133  *
 *  y      0.000100      0.049753     -0.057408  *
 *  z      0.002133     -0.057408      0.011311  *
 *  Pressure:   -0.0286                          *

[...]

 Pseudo atomic calculation performed for Sn 4d10 5s2 5p2

[...]

 Pseudo atomic calculation performed for La 5s2 5p6 5d1 6s2

 Converged in 34 iterations to a total energy of -968.0372 eV

Charge spilling parameter for spin component 1 = 0.23%

     Atomic Populations (Mulliken)
Species   Ion     s      p      d      f     Total  Charge (e)
  O        1     1.87   5.00   0.00   0.00   6.87    -0.87
  O        2     1.87   5.00   0.00   0.00   6.87    -0.87
  O        3     1.87   5.00   0.00   0.00   6.87    -0.87
  O        4     1.87   5.00   0.00   0.00   6.87    -0.87
  O        5     1.87   5.00   0.00   0.00   6.87    -0.87
  O        6     1.87   5.00   0.00   0.00   6.87    -0.87
  O        7     1.87   5.00   0.00   0.00   6.87    -0.87
  O        8     1.87   5.00   0.00   0.00   6.87    -0.87
  O        9     1.86   4.94   0.00   0.00   6.80    -0.80
  O       10     1.86   4.94   0.00   0.00   6.80    -0.80
  O       11     1.87   4.99   0.00   0.00   6.86    -0.86
  O       12     1.88   5.02   0.00   0.00   6.91    -0.91
  O       13     1.88   5.02   0.00   0.00   6.91    -0.91
  O       14     1.86   4.94   0.00   0.00   6.80    -0.80
  O       15     1.88   5.02   0.00   0.00   6.91    -0.91
  O       16     1.87   4.99   0.00   0.00   6.85    -0.85
  O       17     1.87   4.98   0.00   0.00   6.85    -0.85
  O       18     1.88   5.02   0.00   0.00   6.91    -0.91
  O       19     1.87   4.99   0.00   0.00   6.85    -0.85
  O       20     1.86   4.94   0.00   0.00   6.80    -0.80
  O       21     1.88   5.02   0.00   0.00   6.91    -0.91
  O       22     1.87   4.99   0.00   0.00   6.85    -0.85
  O       23     1.86   4.94   0.00   0.00   6.80    -0.80
  O       24     1.86   4.95   0.00   0.00   6.80    -0.80
  O       25     1.87   4.99   0.00   0.00   6.85    -0.85
  O       26     1.88   5.02   0.00   0.00   6.91    -0.91
  O       27     1.87   4.99   0.00   0.00   6.85    -0.85
  O       28     1.86   4.94   0.00   0.00   6.80    -0.80
  O       29     1.87   4.99   0.00   0.00   6.85    -0.85
  O       30     1.87   4.99   0.00   0.00   6.85    -0.85
  O       31     1.87   4.99   0.00   0.00   6.85    -0.85
  O       32     1.88   5.02   0.00   0.00   6.91    -0.91
  O       33     1.87   4.99   0.00   0.00   6.86    -0.86
  O       34     1.87   4.98   0.00   0.00   6.85    -0.85
  O       35     1.87   4.98   0.00   0.00   6.85    -0.85
  O       36     1.87   4.99   0.00   0.00   6.86    -0.86
  O       37     1.86   4.95   0.00   0.00   6.80    -0.80
  O       38     1.86   4.95   0.00   0.00   6.80    -0.80
  O       39     1.86   4.95   0.00   0.00   6.80    -0.80
  O       40     1.86   4.95   0.00   0.00   6.80    -0.80
  O       41     1.87   4.99   0.00   0.00   6.85    -0.85
  O       42     1.87   4.99   0.00   0.00   6.86    -0.86
  O       43     1.87   4.99   0.00   0.00   6.86    -0.86
  O       44     1.86   4.94   0.00   0.00   6.80    -0.80
  O       45     1.87   4.99   0.00   0.00   6.86    -0.86
  O       46     1.86   4.94   0.00   0.00   6.80    -0.80
  O       47     1.86   4.94   0.00   0.00   6.80    -0.80
  O       48     1.87   4.99   0.00   0.00   6.86    -0.86
  O       49     1.86   4.95   0.00   0.00   6.80    -0.80
  O       50     1.87   4.99   0.00   0.00   6.85    -0.85
  O       51     1.86   4.95   0.00   0.00   6.80    -0.80
  O       52     1.86   4.95   0.00   0.00   6.80    -0.80
  O       53     1.87   4.99   0.00   0.00   6.86    -0.86
  O       54     1.86   4.94   0.00   0.00   6.80    -0.80
  O       55     1.87   4.99   0.00   0.00   6.86    -0.86
  O       56     1.86   4.94   0.00   0.00   6.80    -0.80
  Zr       1     2.38   6.49   1.92   0.00  10.79     1.21
  Zr       2     2.37   6.50   1.92   0.00  10.79     1.21
  Zr       3     2.37   6.49   1.92   0.00  10.78     1.22
  Zr       4     2.37   6.48   1.93   0.00  10.78     1.22
[...]
  La       2     2.04   6.14   1.19   0.00   9.38     1.62
  La       3     2.06   6.16   1.19   0.00   9.42     1.58
  La       4     2.05   6.16   1.19   0.00   9.41     1.59
  La       5     2.10   6.19   1.19   0.00   9.49     1.51
  La       6     2.09   6.18   1.19   0.00   9.46     1.54
  La       7     2.00   6.13   1.20   0.00   9.32     1.68
  La       8     2.08   6.19   1.19   0.00   9.46     1.54
  La       9     2.09   6.17   1.19   0.00   9.45     1.55
  La      10     2.07   6.16   1.19   0.00   9.42     1.58
  La      11     2.06   6.16   1.19   0.00   9.41     1.59
  La      12     2.08   6.18   1.19   0.00   9.45     1.55
  La      13     2.05   6.16   1.19   0.00   9.41     1.59
  La      14     2.08   6.18   1.19   0.00   9.45     1.55
  La      15     2.07   6.18   1.19   0.00   9.44     1.56
  La      16     2.04   6.16   1.19   0.00   9.40     1.60

            Bond              Population      Length (A)
         O 36 -- Sn 6              0.35        2.09922
         O 45 -- Sn 5              0.35        2.10033
         O 27 -- Sn 5              0.35        2.10074
         O 43 -- Sn 4              0.35        2.10086
         O 33 -- Sn 2              0.35        2.10266
         O 42 -- Sn 3              0.35        2.10286
         O 19 -- Sn 5              0.35        2.10298
         O 53 -- Sn 1              0.34        2.10516
         O 13 -- Sn 3              0.34        2.10533
         O 55 -- Sn 1              0.35        2.10719
         O 29 -- Sn 4              0.35        2.10724
         O 13 -- Sn 4              0.34        2.10734
         O 31 -- Sn 5              0.34        2.10758
         O 48 -- Sn 2              0.34        2.10775
         O 30 -- Sn 3              0.34        2.10812
         O 16 -- Sn 6              0.35        2.10858
         O 41 -- Sn 6              0.34        2.10865
         O 32 -- Sn 2              0.34        2.10867
         O 11 -- Sn 2              0.35        2.10881
         O 34 -- Sn 4              0.34        2.10959
         O 36 -- Zr 3              0.44        2.10976
         O 26 -- Sn 6              0.34        2.11023
         O 32 -- Sn 6              0.34        2.11025
         O 25 -- Sn 3              0.35        2.11116
         O 12 -- Sn 4              0.34        2.11126
         O 50 -- Sn 3              0.34        2.11135
         O 18 -- Sn 3              0.34        2.11212
         O 49 -- Zr 4              0.42        2.11218
         O 17 -- Sn 6              0.34        2.11239
         O 12 -- Sn 1              0.33        2.11255
         O 26 -- Sn 1              0.33        2.11265
         O 10 -- Zr 6              0.43        2.11274
         O 22 -- Sn 4              0.34        2.11294
         O 24 -- Zr 8              0.42        2.11383
         O 47 -- Zr 4              0.43        2.11403
         O 18 -- Sn 1              0.34        2.11409
         O 56 -- Zr 9              0.42        2.11430
         O 52 -- Zr 1              0.43        2.11439
         O 49 -- Zr 5              0.42        2.11442
         O 52 -- Zr 10             0.42        2.11512
         O 39 -- Zr 8              0.42        2.11518
         O 23 -- Zr 7              0.42        2.11543
         O 35 -- Sn 5              0.33        2.11545
         O 23 -- Zr 6              0.43        2.11554
         O 43 -- Zr 2              0.44        2.11555
         O 20 -- Zr 7              0.43        2.11559
         O 15 -- Sn 5              0.33        2.11561
         O 21 -- Sn 1              0.34        2.11566
         O 9  -- Zr 10             0.43        2.11599
         O 28 -- Zr 5              0.42        2.11606
         O 15 -- Sn 2              0.33        2.11633
         O 14 -- Zr 5              0.43        2.11663
         O 21 -- Sn 2              0.33        2.11690
         O 24 -- Zr 10             0.42        2.11700
         O 14 -- Zr 10             0.43        2.11709
         O 45 -- Zr 1              0.44        2.11716
         O 56 -- Zr 1              0.42        2.11727
         O 29 -- Zr 5              0.46        2.11740
         O 19 -- Zr 9              0.45        2.11761
         O 28 -- Zr 9              0.43        2.11774
[...]
         O 34 -- O 39             -0.03        2.82762
         O 27 -- O 40             -0.03        2.82779
         O 16 -- O 51             -0.03        2.82837
         O 51 -- O 55             -0.03        2.82904
         O 33 -- O 40             -0.03        2.82932
         O 37 -- O 41             -0.03        2.82961
         O 11 -- O 37             -0.03        2.82966
         O 14 -- O 29             -0.03        2.82982
         O 14 -- O 30             -0.03        2.83060
         O 25 -- O 39             -0.03        2.83104
         O 46 -- O 53             -0.03        2.83301
         O 16 -- O 31             -0.03        2.83628
         O 17 -- O 25             -0.03        2.83804
         O 11 -- O 22             -0.03        2.83965
         O 48 -- O 50             -0.03        2.84210

Writing analysis data to 015.castep_bin

Writing model to 015.check

 A BibTeX formatted list of references used in this run has been written to
 015.bib

Initialisation time =     54.12 s
Calculation time    =  33475.72 s
Finalisation time   =     47.04 s
Total time          =  33576.88 s

Overall parallel efficiency rating: Good (79%)

Data was distributed by:-
G-vector (4-way); efficiency rating: Good (79%)
k-point (14-way); efficiency rating: Excellent (99%)