 Compiled for linux_x86_64_ifort16 on Sat, 23 Jul 2016 23:44:54 +0100
 from code version
 203e84763863+ Castep161_branch Fri, 04 Mar 2016 19:21:07 +0000
 Compiler: Intel Fortran 16.0.3.210; Optimisation: fast
 MATHLIBS: Intel MKL(11.3.3) (LAPACK version 3.6.0)
 FFT Lib : mkl
 Fundamental constants values: CODATA 2010

 Run started: Sun, 11 Mar 2018 14:31:32 +0000
 |           N   N    M   M    RRRR                |
 |           NN  N    MM MM    R   R               |
 |           N N N    M M M    RRRR                |
 |           N  NN    M   M    R  R                |
 |           N   N    M   M    R   R               |
 | Welcome to Materials Studio CASTEP-NMR          |
 | Authors:                                        |
 | J.R. Yates, C.J. Pickard, F. Mauri              |
 | Contributors:                                   |
 | T.F.G. Green, S.A. Joyce                        |
 | Copyright (c) 2004 - 2015                       |
 | Please cite the appropriate publications in all |
 | work arising from your use of CASTEP NMR.       |
 | For NMR Shielding Tensors cite:                 |
 |    "All-electron magnetic response with         |
 |    pseudopotentials: NMR chemical shifts",      |
 |    C. J. Pickard, F. Mauri;                     |
 |    Physical Review B63 245101 (2001), and       |
 |    "Calculation of NMR Chemical Shifts          |
 |    for extended systems using                   |
 |    Ultrasoft Pseudopotentials",                 |
 |    J. R. Yates, C. J. Pickard and F. Mauri      |
 |    Physical Review B76 024401 (2007)            |
 | For Electric Field Gradients cite:              |
 |   "Accurate First Principles Prediction of 17O  |
 |    NMR Parameters in SiO2: Assignment of the    |
 |    Zeolite Ferrierite Spectrum"                 |
 |    M. Profeta, F. Mauri and C. J. Pickard       |
 |    J. Amer. Chem. Soc. 125 541 (2003)           |
 | For Spin-Spin (J) Couplings cite:               |
 |   "A first principles theory of NMR J-coupling  |
 |   in solid-state systems"                       |
 |   S.A. Joyce, J.R. Yates, C.J. Pickard, F. Mauri|
 |   J. Chem. Phys. 127 204107 (2007)              |
 |   "Relativistic NMR J-coupling with ultrasoft   |
 |   pseudopotentials and the zeroth-order regular |
 |   approximation"                                |
 |   T.F.G. Green and J.R. Yates                   |
 |   J. Chem. Phys. 140 234106 (2014)              |

 Atomic calculation performed for O: 1s2 2s2 2p4

 Converged in 44 iterations to an ae energy of -2040.855 eV

 Atomic calculation performed for O: 1s2 2s2 2p4

 Exceeded max iterations: converged to 0.000000062 eV

   | Pseudopotential Report - Date of generation 11-03-2018   |
   | Element: O Ionic charge:  6.00 Level of theory: PBE      |
   | Atomic Solver: ZORA (scalar)                             |
   |               Reference Electronic Structure             |
   |         Orbital         Occupation         Energy        |
   |            2s              2.000           -0.881        |
   |            2p              4.000           -0.332        |
   |                 Pseudopotential Definition               |
   |        Beta     l      e      Rc     scheme   norm       |
   |          1      0   -0.881   1.100     qc      0         |
   |          2      0    0.250   1.100     qc      0         |
   |          3      1   -0.332   1.100     qc      0         |
   |          4      1    0.250   1.100     qc      0         |
   |         loc     2    0.000   1.100     pn      0         |
   | Augmentation charge Rinner = 0.769                       |
   | Partial core correction Rc = 0.769                       |
   | "2|1.1|15|18|20|20:21(qc=7)"                             |
   |      Author: Chris J. Pickard, Cambridge University      |

 Atomic calculation performed for Zr: 1s2 2s2 2p6 3s2 3p6 3d10 4s2 4p6 4d2 5s2

[...]

 Atomic calculation performed for Zr: 1s2 2s2 2p6 3s2 3p6 3d10 4s2 4p6 4d2 5s2

[...]

 Warning: ion_atom_descreen_psp: negative charge density encountered
   | Pseudopotential Report - Date of generation 11-03-2018   |
   | Element: Zr Ionic charge: 12.00 Level of theory: PBE     |
   | Atomic Solver: ZORA (scalar)                             |
   |               Reference Electronic Structure             |
   |         Orbital         Occupation         Energy        |
   |            4s              2.000           -2.003        |
   |            4p              6.000           -1.193        |
   |            5s              2.000           -0.163        |
   |            4d              2.000           -0.132        |
   |                 Pseudopotential Definition               |
   |        Beta     l      e      Rc     scheme   norm       |
   |          1      0   -2.003   2.105     qc      0         |
   |          2      0   -0.163   2.105     qc      0         |
   |          3      0    0.250   2.105     qc      0         |
   |          4      1   -1.193   2.105     qc      0         |
   |          5      1    0.250   2.105     qc      0         |
   |          6      2   -0.132   2.105     qc      0         |
   |          7      2    0.250   2.105     qc      0         |
   |         loc     3    0.000   2.105     pn      0         |
   | Augmentation charge Rinner = 1.471                       |
   | Partial core correction Rc = 1.471                       |
   | "3|2.1|7|8|9|40U:50:41:42"                               |
   |      Author: Chris J. Pickard, Cambridge University      |

 Atomic calculation performed for Sn:

[...]

 Atomic calculation performed for Sn:

[...]

   | Pseudopotential Report - Date of generation 11-03-2018   |
   | Element: Sn Ionic charge: 14.00 Level of theory: PBE     |
   | Atomic Solver: ZORA (scalar)                             |
   |               Reference Electronic Structure             |
   |         Orbital         Occupation         Energy        |
   |            4d             10.000           -0.950        |
   |            5s              2.000           -0.388        |
   |            5p              2.000           -0.136        |
   |                 Pseudopotential Definition               |
   |        Beta     l      e      Rc     scheme   norm       |
   |          1      0   -0.388   2.199     qc      0         |
   |          2      0    0.250   2.199     qc      0         |
   |          3      1   -0.136   2.199     qc      0         |
   |          4      1    0.250   2.199     qc      0         |
   |          5      2   -0.950   2.199     qc      0         |
   |          6      2    0.250   2.199     qc      0         |
   |         loc     3    0.000   2.199     pn      0         |
   | Augmentation charge Rinner = 1.537                       |
   | Partial core correction Rc = 1.537                       |
   | "3|2.2|7|8|9|50:51:42"                                   |
   |      Author: Chris J. Pickard, Cambridge University      |

 Atomic calculation performed for La:

 Converged in 56 iterations to an ae energy of -230121.495 eV

 Atomic calculation performed for La:

 Exceeded max iterations: converged to 0.000000907 eV

 Warning: ion_atom_descreen_psp: negative charge density encountered
   | Pseudopotential Report - Date of generation 11-03-2018   |
   | Element: La Ionic charge: 11.00 Level of theory: PBE     |
   | Atomic Solver: ZORA (scalar)                             |
   |               Reference Electronic Structure             |
   |         Orbital         Occupation         Energy        |
   |            5s              2.000           -1.430        |
   |            5p              6.000           -0.823        |
   |            6s              2.000           -0.135        |
   |            5d              1.000           -0.114        |
   |                 Pseudopotential Definition               |
   |        Beta     l      e      Rc     scheme   norm       |
   |          1      0   -1.430   2.298     qc      0         |
   |          2      0   -0.135   2.298     qc      0         |
   |          3      0    0.250   2.298     qc      0         |
   |          4      1   -0.823   2.298     qc      0         |
   |          5      1    0.250   2.298     qc      0         |
   |          6      2   -0.114   2.298     qc      0         |
   |          7      2    0.250   2.298     qc      0         |
   |         loc     2    0.000   2.298     pn      0         |
   | Augmentation charge Rinner = 1.606                       |
   | Partial core correction Rc = 1.606                       |
   | "2|2.3|5|6|7|50U:60:51:52(qc=4.5)"                       |
   |      Author: Chris J. Pickard, Cambridge University      |

 Pseudo atomic calculation performed for O 2s2 2p4

 Converged in 39 iterations to a total energy of -432.6554 eV

 Pseudo atomic calculation performed for Zr 4s2 4p6 4d2 5s2

[...]

 Calculation parallelised over 56 processes.
 Data is distributed by G-vector(4-way) and k-point(14-way)

 ************************************ Title ************************************
 nmr testing

 ***************************** General Parameters ******************************

 output verbosity                               : normal  (1)
 write checkpoint data to                       : 018.check
 type of calculation                            : Magnetic Resonance
 stress calculation                             : on
 density difference calculation                 : off
 electron localisation func (ELF) calculation   : off
 Hirshfeld analysis                             : off
 unlimited duration calculation
 timing information                             : on
 write final potential to formatted file        : off
 write final density to formatted file          : off
 write structure in CIF formatted file          : on
 write structure in CELL formatted file         : on
 write BibTeX reference list                    : on
 write OTFG pseudopotential files               : on
 checkpoint writing                             : both castep_bin and check files

 output         length unit                     : A
 output           mass unit                     : amu
 output           time unit                     : ps
 output         charge unit                     : e
 output           spin unit                     : hbar/2
 output         energy unit                     : eV
 output          force unit                     : eV/A
 output       velocity unit                     : A/ps
 output       pressure unit                     : GPa
 output     inv_length unit                     : 1/A
 output      frequency unit                     : cm-1
 output force constant unit                     : eV/A**2
 output         volume unit                     : A**3
 output   IR intensity unit                     : (D/A)**2/amu
 output         dipole unit                     : D
 output         efield unit                     : eV/A/e
 output        entropy unit                     : J/mol/K

 wavefunctions paging                           : none
 random number generator seed                   : randomised (143134472)
 data distribution                              : optimal for this architecture
[...]
  |    O          41      -89.70      91.57      0.26  -3.139E+00   0.11 |
  |    O          42      -90.46      82.33      0.20  -3.227E+00   0.11 |
  |    O          43      -91.18      86.96      0.19  -3.218E+00   0.10 |
  |    O          44      -90.36      94.36      0.25  -3.133E+00   0.11 |
  |    O          45     -163.79     158.25      0.80   1.080E+00   0.84 |
  |    O          46     -161.08     144.45      0.84   1.073E+00   0.72 |
  |    O          47     -163.88     158.56      0.79   1.080E+00   0.84 |
  |    O          48     -160.95     145.46      0.83   1.076E+00   0.72 |
  |    O          49     -165.11     156.75      0.84   1.042E+00   0.89 |
  |    O          50      -88.64      76.05      0.09  -3.231E+00   0.12 |
  |    O          51     -162.40     145.76      0.77   1.058E+00   0.72 |
  |    O          52      -86.84      94.50      0.27  -3.217E+00   0.10 |
  |    O          53      -88.35      74.31      0.11  -3.232E+00   0.12 |
  |    O          54     -165.02     155.62      0.85   1.037E+00   0.90 |
  |    O          55      -90.45      83.14      0.21  -3.224E+00   0.11 |
  |    O          56      -90.07      93.30      0.26  -3.133E+00   0.11 |
  |    Zr          1     1628.07    -126.42      0.16  -3.797E+01   0.11 |
  |    Zr          2     1608.89    -116.69      0.00  -3.770E+01   0.01 |
  |    Zr          3     1627.71    -126.42      0.17  -3.795E+01   0.12 |
  |    Zr          4     1627.70    -126.51      0.16  -3.796E+01   0.11 |
[...]
  |    La          2     4650.94     658.98      0.00  -7.962E+01   0.00 |
  |    La          3     4753.57     863.10      0.05  -8.645E+01   0.09 |
  |    La          4     4752.63     861.13      0.05  -8.632E+01   0.09 |
  |    La          5     4649.82     632.34      0.01  -7.749E+01   0.03 |
  |    La          6     4664.00     651.33      0.09  -8.094E+01   0.14 |
  |    La          7     4752.18     871.87      0.04  -8.502E+01   0.04 |
  |    La          8     4663.91     649.77      0.09  -8.077E+01   0.14 |
  |    La          9     4649.28     630.52      0.01  -7.737E+01   0.03 |
  |    La         10     4658.43     659.79      0.09  -7.994E+01   0.13 |
  |    La         11     4649.27     631.07      0.01  -7.741E+01   0.03 |
  |    La         12     4752.26     872.65      0.04  -8.506E+01   0.04 |
  |    La         13     4752.51     873.93      0.04  -8.515E+01   0.04 |
  |    La         14     4659.96     664.20      0.09  -8.015E+01   0.14 |
  |    La         15     4663.69     650.31      0.09  -8.090E+01   0.14 |
  |    La         16     4659.01     661.26      0.10  -7.998E+01   0.14 |

 *********************** Forces ***********************
 *            Cartesian components (eV/A)             *
 *                   x            y            z      *
 * O         1      0.00013     -0.00133     -0.00239 *
 * O         2     -0.00035     -0.00128      0.00082 *
 * O         3      0.00230     -0.00080     -0.00160 *
 * O         4     -0.00025      0.00511      0.00304 *
 * O         5     -0.00121     -0.00273     -0.00130 *
 * O         6     -0.00184      0.00489      0.00397 *
 * O         7      0.00256     -0.00316      0.00415 *
 * O         8      0.00287      0.00298     -0.00561 *
 * O         9     -0.00770     -0.00490     -0.00703 *
 * O        10     -0.00620      0.00014     -0.00997 *
 * O        11      0.01484     -0.00084     -0.00111 *
 * O        12     -0.00769      0.00602      0.00005 *
 * O        13      0.00738     -0.00813      0.00324 *
 * O        14     -0.00044      0.01472      0.00707 *
 * O        15      0.00620     -0.00631      0.00024 *
 * O        16     -0.00064     -0.00741     -0.00712 *
 * O        17      0.00214      0.00606     -0.01735 *
 * O        18      0.00340      0.00372      0.00539 *
 * O        19      0.00301      0.00126      0.00648 *
 * O        20     -0.00740     -0.00215      0.01230 *
 * O        21      0.00866     -0.01118      0.00169 *
 * O        22     -0.00725      0.00755     -0.00120 *
 * O        23      0.00649     -0.00909      0.00414 *
 * O        24      0.00718     -0.00453     -0.00849 *
 * O        25     -0.01185     -0.00106     -0.01110 *
 * O        26      0.00734      0.00147      0.00105 *
 * O        27     -0.00687      0.00837      0.00728 *
 * O        28     -0.00312     -0.00100      0.00427 *
 * O        29     -0.00877      0.00212      0.01639 *
 * O        30      0.00299     -0.00759     -0.00646 *
 * O        31      0.00223     -0.00057      0.00141 *
 * O        32      0.00354      0.00455      0.00359 *
 * O        33      0.01052      0.00604      0.00083 *
 * O        34      0.00316      0.00020      0.00123 *
 * O        35     -0.01315     -0.00690      0.00343 *
 * O        36     -0.00367      0.00425      0.00249 *
 * O        37     -0.00512     -0.00083      0.00017 *
 * O        38     -0.00081     -0.00768      0.00466 *
 * O        39      0.00745      0.00082     -0.00115 *
 * O        40     -0.00864      0.01001     -0.00396 *
 * O        41     -0.00323      0.00247      0.00253 *
 * O        42     -0.00153      0.00198      0.00448 *
 * O        43      0.00121     -0.00517      0.00048 *
 * O        44     -0.00061      0.00364      0.00352 *
 * O        45      0.00905     -0.00084     -0.00383 *
 * O        46      0.00288      0.00292      0.00065 *
 * O        47      0.00183     -0.00348     -0.00550 *
 * O        48      0.00600      0.00739     -0.00435 *
 * O        49     -0.00531      0.00928      0.00981 *
 * O        50      0.00297      0.00322     -0.00724 *
 * O        51     -0.00831     -0.00622      0.00821 *
 * O        52      0.00099     -0.00990     -0.00802 *
 * O        53      0.00015      0.00821     -0.00078 *
 * O        54      0.00300     -0.00086     -0.01309 *
 * O        55     -0.00670      0.00104     -0.00506 *
 * O        56      0.00312     -0.00304     -0.00335 *
 * Zr        1     -0.00718     -0.00317      0.00519 *
 * Zr        2     -0.02442     -0.02633     -0.00169 *
 * Zr        3      0.00265     -0.00509      0.00945 *
 * Zr        4      0.00005      0.00735      0.00301 *
[...]
 * La        2     -0.00192     -0.00234      0.01591 *
 * La        3     -0.01257     -0.00403      0.00788 *
 * La        4     -0.01865     -0.01069     -0.00074 *
 * La        5     -0.01821     -0.00221     -0.01262 *
 * La        6      0.00891      0.00037     -0.00872 *
 * La        7      0.01526      0.00809      0.00338 *
 * La        8      0.00039      0.01343      0.00351 *
 * La        9      0.01563     -0.01244     -0.00614 *
 * La       10     -0.00264      0.00030      0.01419 *
 * La       11      0.00786      0.01627      0.00661 *
 * La       12      0.00708      0.00113     -0.01209 *
 * La       13     -0.00105      0.01427     -0.00348 *
 * La       14     -0.00843     -0.00794     -0.00845 *
 * La       15      0.01312      0.00833      0.00706 *
 * La       16      0.00112     -0.00827     -0.00328 *

 ***************** Stress Tensor *****************
 *          Cartesian components (GPa)           *
 *             x             y             z     *
 *  x      0.006700     -0.001456      0.000998  *
 *  y     -0.001456      0.006381      0.001073  *
 *  z      0.000998      0.001073     -0.013307  *
 *  Pressure:    0.0001                          *

[...]

 Pseudo atomic calculation performed for Sn 4d10 5s2 5p2

[...]

 Pseudo atomic calculation performed for La 5s2 5p6 5d1 6s2

 Converged in 34 iterations to a total energy of -968.0372 eV

Charge spilling parameter for spin component 1 = 0.23%

     Atomic Populations (Mulliken)
Species   Ion     s      p      d      f     Total  Charge (e)
  O        1     1.87   5.00   0.00   0.00   6.87    -0.87
  O        2     1.87   5.00   0.00   0.00   6.87    -0.87
  O        3     1.87   5.00   0.00   0.00   6.87    -0.87
  O        4     1.87   5.00   0.00   0.00   6.87    -0.87
  O        5     1.87   5.00   0.00   0.00   6.87    -0.87
  O        6     1.87   5.00   0.00   0.00   6.87    -0.87
  O        7     1.87   5.00   0.00   0.00   6.87    -0.87
  O        8     1.87   5.00   0.00   0.00   6.87    -0.87
  O        9     1.87   4.99   0.00   0.00   6.85    -0.85
  O       10     1.86   4.94   0.00   0.00   6.80    -0.80
  O       11     1.87   4.99   0.00   0.00   6.85    -0.85
  O       12     1.88   5.02   0.00   0.00   6.91    -0.91
  O       13     1.88   5.02   0.00   0.00   6.91    -0.91
  O       14     1.87   4.99   0.00   0.00   6.85    -0.85
  O       15     1.86   4.94   0.00   0.00   6.80    -0.80
  O       16     1.87   4.99   0.00   0.00   6.85    -0.85
  O       17     1.87   4.99   0.00   0.00   6.85    -0.85
  O       18     1.88   5.02   0.00   0.00   6.91    -0.91
  O       19     1.87   4.99   0.00   0.00   6.85    -0.85
  O       20     1.86   4.94   0.00   0.00   6.80    -0.80
  O       21     1.87   4.99   0.00   0.00   6.86    -0.86
  O       22     1.88   5.02   0.00   0.00   6.91    -0.91
  O       23     1.86   4.94   0.00   0.00   6.80    -0.80
  O       24     1.87   4.99   0.00   0.00   6.85    -0.85
  O       25     1.87   4.99   0.00   0.00   6.86    -0.86
  O       26     1.88   5.02   0.00   0.00   6.91    -0.91
  O       27     1.86   4.94   0.00   0.00   6.80    -0.80
  O       28     1.87   4.99   0.00   0.00   6.85    -0.85
  O       29     1.87   4.99   0.00   0.00   6.86    -0.86
  O       30     1.88   5.02   0.00   0.00   6.91    -0.91
  O       31     1.86   4.94   0.00   0.00   6.80    -0.80
  O       32     1.87   4.99   0.00   0.00   6.85    -0.85
  O       33     1.86   4.95   0.00   0.00   6.80    -0.80
  O       34     1.87   4.99   0.00   0.00   6.86    -0.86
  O       35     1.86   4.94   0.00   0.00   6.80    -0.80
  O       36     1.87   4.99   0.00   0.00   6.86    -0.86
  O       37     1.87   4.99   0.00   0.00   6.86    -0.86
  O       38     1.86   4.94   0.00   0.00   6.80    -0.80
  O       39     1.86   4.95   0.00   0.00   6.80    -0.80
  O       40     1.86   4.95   0.00   0.00   6.80    -0.80
  O       41     1.87   4.98   0.00   0.00   6.85    -0.85
  O       42     1.87   4.99   0.00   0.00   6.86    -0.86
  O       43     1.87   4.99   0.00   0.00   6.86    -0.86
  O       44     1.87   4.98   0.00   0.00   6.85    -0.85
  O       45     1.86   4.95   0.00   0.00   6.80    -0.80
  O       46     1.86   4.95   0.00   0.00   6.80    -0.80
  O       47     1.86   4.95   0.00   0.00   6.80    -0.80
  O       48     1.86   4.95   0.00   0.00   6.80    -0.80
  O       49     1.86   4.95   0.00   0.00   6.80    -0.80
  O       50     1.87   4.99   0.00   0.00   6.86    -0.86
  O       51     1.86   4.94   0.00   0.00   6.80    -0.80
  O       52     1.87   4.99   0.00   0.00   6.85    -0.85
  O       53     1.87   4.99   0.00   0.00   6.86    -0.86
  O       54     1.86   4.95   0.00   0.00   6.80    -0.80
  O       55     1.87   4.99   0.00   0.00   6.86    -0.86
  O       56     1.87   4.98   0.00   0.00   6.85    -0.85
  Zr       1     2.38   6.49   1.92   0.00  10.79     1.21
  Zr       2     2.37   6.49   1.92   0.00  10.78     1.22
  Zr       3     2.38   6.49   1.92   0.00  10.79     1.21
  Zr       4     2.38   6.49   1.92   0.00  10.79     1.21
[...]
  La       2     2.08   6.17   1.19   0.00   9.45     1.55
  La       3     2.04   6.15   1.19   0.00   9.38     1.62
  La       4     2.04   6.15   1.19   0.00   9.38     1.62
  La       5     2.10   6.17   1.19   0.00   9.47     1.53
  La       6     2.08   6.18   1.19   0.00   9.45     1.55
  La       7     2.02   6.15   1.19   0.00   9.36     1.64
  La       8     2.08   6.18   1.19   0.00   9.45     1.55
  La       9     2.10   6.17   1.19   0.00   9.47     1.53
  La      10     2.06   6.18   1.19   0.00   9.44     1.56
  La      11     2.10   6.17   1.19   0.00   9.47     1.53
  La      12     2.02   6.15   1.19   0.00   9.36     1.64
  La      13     2.02   6.15   1.19   0.00   9.36     1.64
  La      14     2.06   6.18   1.19   0.00   9.43     1.57
  La      15     2.08   6.18   1.19   0.00   9.45     1.55
  La      16     2.06   6.18   1.19   0.00   9.44     1.56

            Bond              Population      Length (A)
         O 36 -- Sn 6              0.35        2.09863
         O 37 -- Sn 2              0.35        2.09937
         O 9  -- Sn 5              0.35        2.09964
         O 52 -- Sn 5              0.35        2.10018
         O 16 -- Sn 6              0.35        2.10061
         O 19 -- Sn 2              0.35        2.10066
         O 55 -- Sn 1              0.35        2.10160
         O 42 -- Sn 3              0.35        2.10191
         O 43 -- Sn 4              0.35        2.10216
         O 28 -- Sn 2              0.35        2.10303
         O 24 -- Sn 5              0.35        2.10335
         O 32 -- Sn 6              0.35        2.10372
         O 53 -- Sn 1              0.35        2.10533
         O 34 -- Sn 4              0.34        2.10566
         O 50 -- Sn 3              0.34        2.10579
         O 29 -- Sn 4              0.35        2.10613
         O 25 -- Sn 3              0.35        2.10732
         O 21 -- Sn 1              0.35        2.10759
         O 17 -- Sn 6              0.35        2.10771
         O 11 -- Sn 2              0.34        2.10863
         O 14 -- Sn 5              0.34        2.10876
         O 12 -- Sn 4              0.34        2.10921
         O 13 -- Sn 3              0.34        2.11016
         O 18 -- Sn 1              0.34        2.11028
         O 41 -- Sn 6              0.34        2.11081
         O 56 -- Sn 2              0.34        2.11097
         O 44 -- Sn 5              0.34        2.11147
         O 47 -- Zr 4              0.43        2.11205
         O 49 -- Zr 4              0.42        2.11270
         O 31 -- Zr 6              0.43        2.11350
         O 13 -- Sn 4              0.33        2.11372
         O 33 -- Zr 3              0.42        2.11397
         O 12 -- Sn 1              0.33        2.11430
         O 18 -- Sn 3              0.33        2.11444
         O 40 -- Zr 3              0.43        2.11450
         O 45 -- Zr 1              0.43        2.11473
         O 43 -- Zr 2              0.44        2.11474
         O 23 -- Zr 7              0.43        2.11477
         O 30 -- Sn 5              0.33        2.11504
         O 26 -- Sn 6              0.33        2.11508
         O 22 -- Sn 2              0.33        2.11546
         O 45 -- Zr 10             0.42        2.11548
         O 27 -- Zr 10             0.43        2.11562
         O 32 -- Zr 9              0.45        2.11574
         O 22 -- Sn 4              0.33        2.11575
         O 30 -- Sn 3              0.33        2.11580
         O 10 -- Zr 6              0.42        2.11594
         O 26 -- Sn 1              0.33        2.11605
         O 16 -- Zr 6              0.45        2.11623
         O 15 -- Zr 9              0.43        2.11657
         O 54 -- Zr 8              0.42        2.11660
         O 10 -- Zr 8              0.43        2.11669
         O 54 -- Zr 1              0.41        2.11671
         O 20 -- Zr 5              0.43        2.11689
         O 52 -- Zr 1              0.44        2.11708
         O 36 -- Zr 3              0.44        2.11726
         O 24 -- Zr 8              0.45        2.11729
         O 28 -- Zr 5              0.45        2.11779
         O 33 -- Zr 9              0.42        2.11781
         O 15 -- Zr 10             0.42        2.11785
[...]
         O 21 -- O 48             -0.03        2.82764
         O 16 -- O 51             -0.03        2.82775
         O 25 -- O 39             -0.03        2.82785
         O 29 -- O 46             -0.03        2.82803
         O 19 -- O 35             -0.03        2.82836
         O 9  -- O 38             -0.03        2.82943
         O 34 -- O 39             -0.03        2.83089
         O 38 -- O 42             -0.03        2.83094
         O 46 -- O 53             -0.03        2.83146
         O 48 -- O 50             -0.03        2.83151
         O 51 -- O 55             -0.03        2.83189
         O 35 -- O 43             -0.03        2.83202
         O 11 -- O 21             -0.03        2.83935
         O 17 -- O 25             -0.03        2.83969
         O 14 -- O 29             -0.03        2.83984

Writing analysis data to 018.castep_bin

Writing model to 018.check

 A BibTeX formatted list of references used in this run has been written to
 018.bib

Initialisation time =     54.25 s
Calculation time    =  33564.74 s
Finalisation time   =     47.50 s
Total time          =  33666.49 s

Overall parallel efficiency rating: Good (78%)

Data was distributed by:-
G-vector (4-way); efficiency rating: Good (78%)
k-point (14-way); efficiency rating: Ideal (100%)