 Compiled for linux_x86_64_ifort16 on Sat, 23 Jul 2016 23:44:54 +0100
 from code version
 203e84763863+ Castep161_branch Fri, 04 Mar 2016 19:21:07 +0000
 Compiler: Intel Fortran 16.0.3.210; Optimisation: fast
 MATHLIBS: Intel MKL(11.3.3) (LAPACK version 3.6.0)
 FFT Lib : mkl
 Fundamental constants values: CODATA 2010

 Run started: Fri, 09 Mar 2018 23:44:40 +0000
 |           N   N    M   M    RRRR                |
 |           NN  N    MM MM    R   R               |
 |           N N N    M M M    RRRR                |
 |           N  NN    M   M    R  R                |
 |           N   N    M   M    R   R               |
 | Welcome to Materials Studio CASTEP-NMR          |
 | Authors:                                        |
 | J.R. Yates, C.J. Pickard, F. Mauri              |
 | Contributors:                                   |
 | T.F.G. Green, S.A. Joyce                        |
 | Copyright (c) 2004 - 2015                       |
 | Please cite the appropriate publications in all |
 | work arising from your use of CASTEP NMR.       |
 | For NMR Shielding Tensors cite:                 |
 |    "All-electron magnetic response with         |
 |    pseudopotentials: NMR chemical shifts",      |
 |    C. J. Pickard, F. Mauri;                     |
 |    Physical Review B63 245101 (2001), and       |
 |    "Calculation of NMR Chemical Shifts          |
 |    for extended systems using                   |
 |    Ultrasoft Pseudopotentials",                 |
 |    J. R. Yates, C. J. Pickard and F. Mauri      |
 |    Physical Review B76 024401 (2007)            |
 | For Electric Field Gradients cite:              |
 |   "Accurate First Principles Prediction of 17O  |
 |    NMR Parameters in SiO2: Assignment of the    |
 |    Zeolite Ferrierite Spectrum"                 |
 |    M. Profeta, F. Mauri and C. J. Pickard       |
 |    J. Amer. Chem. Soc. 125 541 (2003)           |
 | For Spin-Spin (J) Couplings cite:               |
 |   "A first principles theory of NMR J-coupling  |
 |   in solid-state systems"                       |
 |   S.A. Joyce, J.R. Yates, C.J. Pickard, F. Mauri|
 |   J. Chem. Phys. 127 204107 (2007)              |
 |   "Relativistic NMR J-coupling with ultrasoft   |
 |   pseudopotentials and the zeroth-order regular |
 |   approximation"                                |
 |   T.F.G. Green and J.R. Yates                   |
 |   J. Chem. Phys. 140 234106 (2014)              |

 Atomic calculation performed for O: 1s2 2s2 2p4

 Converged in 44 iterations to an ae energy of -2040.855 eV

 Atomic calculation performed for O: 1s2 2s2 2p4

 Exceeded max iterations: converged to 0.000000062 eV

   | Pseudopotential Report - Date of generation  9-03-2018   |
   | Element: O Ionic charge:  6.00 Level of theory: PBE      |
   | Atomic Solver: ZORA (scalar)                             |
   |               Reference Electronic Structure             |
   |         Orbital         Occupation         Energy        |
   |            2s              2.000           -0.881        |
   |            2p              4.000           -0.332        |
   |                 Pseudopotential Definition               |
   |        Beta     l      e      Rc     scheme   norm       |
   |          1      0   -0.881   1.100     qc      0         |
   |          2      0    0.250   1.100     qc      0         |
   |          3      1   -0.332   1.100     qc      0         |
   |          4      1    0.250   1.100     qc      0         |
   |         loc     2    0.000   1.100     pn      0         |
   | Augmentation charge Rinner = 0.769                       |
   | Partial core correction Rc = 0.769                       |
   | "2|1.1|15|18|20|20:21(qc=7)"                             |
   |      Author: Chris J. Pickard, Cambridge University      |

 Atomic calculation performed for Zr: 1s2 2s2 2p6 3s2 3p6 3d10 4s2 4p6 4d2 5s2

[...]

 Atomic calculation performed for Zr: 1s2 2s2 2p6 3s2 3p6 3d10 4s2 4p6 4d2 5s2

[...]

 Warning: ion_atom_descreen_psp: negative charge density encountered
   | Pseudopotential Report - Date of generation  9-03-2018   |
   | Element: Zr Ionic charge: 12.00 Level of theory: PBE     |
   | Atomic Solver: ZORA (scalar)                             |
   |               Reference Electronic Structure             |
   |         Orbital         Occupation         Energy        |
   |            4s              2.000           -2.003        |
   |            4p              6.000           -1.193        |
   |            5s              2.000           -0.163        |
   |            4d              2.000           -0.132        |
   |                 Pseudopotential Definition               |
   |        Beta     l      e      Rc     scheme   norm       |
   |          1      0   -2.003   2.105     qc      0         |
   |          2      0   -0.163   2.105     qc      0         |
   |          3      0    0.250   2.105     qc      0         |
   |          4      1   -1.193   2.105     qc      0         |
   |          5      1    0.250   2.105     qc      0         |
   |          6      2   -0.132   2.105     qc      0         |
   |          7      2    0.250   2.105     qc      0         |
   |         loc     3    0.000   2.105     pn      0         |
   | Augmentation charge Rinner = 1.471                       |
   | Partial core correction Rc = 1.471                       |
   | "3|2.1|7|8|9|40U:50:41:42"                               |
   |      Author: Chris J. Pickard, Cambridge University      |

 Atomic calculation performed for Sn:

[...]

 Atomic calculation performed for Sn:

[...]

   | Pseudopotential Report - Date of generation  9-03-2018   |
   | Element: Sn Ionic charge: 14.00 Level of theory: PBE     |
   | Atomic Solver: ZORA (scalar)                             |
   |               Reference Electronic Structure             |
   |         Orbital         Occupation         Energy        |
   |            4d             10.000           -0.950        |
   |            5s              2.000           -0.388        |
   |            5p              2.000           -0.136        |
   |                 Pseudopotential Definition               |
   |        Beta     l      e      Rc     scheme   norm       |
   |          1      0   -0.388   2.199     qc      0         |
   |          2      0    0.250   2.199     qc      0         |
   |          3      1   -0.136   2.199     qc      0         |
   |          4      1    0.250   2.199     qc      0         |
   |          5      2   -0.950   2.199     qc      0         |
   |          6      2    0.250   2.199     qc      0         |
   |         loc     3    0.000   2.199     pn      0         |
   | Augmentation charge Rinner = 1.537                       |
   | Partial core correction Rc = 1.537                       |
   | "3|2.2|7|8|9|50:51:42"                                   |
   |      Author: Chris J. Pickard, Cambridge University      |

 Atomic calculation performed for La:

 Converged in 56 iterations to an ae energy of -230121.495 eV

 Atomic calculation performed for La:

 Exceeded max iterations: converged to 0.000000907 eV

 Warning: ion_atom_descreen_psp: negative charge density encountered
   | Pseudopotential Report - Date of generation  9-03-2018   |
   | Element: La Ionic charge: 11.00 Level of theory: PBE     |
   | Atomic Solver: ZORA (scalar)                             |
   |               Reference Electronic Structure             |
   |         Orbital         Occupation         Energy        |
   |            5s              2.000           -1.430        |
   |            5p              6.000           -0.823        |
   |            6s              2.000           -0.135        |
   |            5d              1.000           -0.114        |
   |                 Pseudopotential Definition               |
   |        Beta     l      e      Rc     scheme   norm       |
   |          1      0   -1.430   2.298     qc      0         |
   |          2      0   -0.135   2.298     qc      0         |
   |          3      0    0.250   2.298     qc      0         |
   |          4      1   -0.823   2.298     qc      0         |
   |          5      1    0.250   2.298     qc      0         |
   |          6      2   -0.114   2.298     qc      0         |
   |          7      2    0.250   2.298     qc      0         |
   |         loc     2    0.000   2.298     pn      0         |
   | Augmentation charge Rinner = 1.606                       |
   | Partial core correction Rc = 1.606                       |
   | "2|2.3|5|6|7|50U:60:51:52(qc=4.5)"                       |
   |      Author: Chris J. Pickard, Cambridge University      |

 Pseudo atomic calculation performed for O 2s2 2p4

 Converged in 39 iterations to a total energy of -432.6554 eV

 Pseudo atomic calculation performed for Zr 4s2 4p6 4d2 5s2

[...]

 Calculation parallelised over 56 processes.
 Data is distributed by G-vector(4-way) and k-point(14-way)

 ************************************ Title ************************************
 nmr testing

 ***************************** General Parameters ******************************

 output verbosity                               : normal  (1)
 write checkpoint data to                       : 022.check
 type of calculation                            : Magnetic Resonance
 stress calculation                             : on
 density difference calculation                 : off
 electron localisation func (ELF) calculation   : off
 Hirshfeld analysis                             : off
 unlimited duration calculation
 timing information                             : on
 write final potential to formatted file        : off
 write final density to formatted file          : off
 write structure in CIF formatted file          : on
 write structure in CELL formatted file         : on
 write BibTeX reference list                    : on
 write OTFG pseudopotential files               : on
 checkpoint writing                             : both castep_bin and check files

 output         length unit                     : A
 output           mass unit                     : amu
 output           time unit                     : ps
 output         charge unit                     : e
 output           spin unit                     : hbar/2
 output         energy unit                     : eV
 output          force unit                     : eV/A
 output       velocity unit                     : A/ps
 output       pressure unit                     : GPa
 output     inv_length unit                     : 1/A
 output      frequency unit                     : cm-1
 output force constant unit                     : eV/A**2
 output         volume unit                     : A**3
 output   IR intensity unit                     : (D/A)**2/amu
 output         dipole unit                     : D
 output         efield unit                     : eV/A/e
 output        entropy unit                     : J/mol/K

 wavefunctions paging                           : none
 random number generator seed                   : randomised (234442849)
 data distribution                              : optimal for this architecture
[...]
  |    O          41      -87.56      82.79      0.29  -3.172E+00   0.10 |
  |    O          42     -164.91     155.83      0.87   1.073E+00   0.86 |
  |    O          43      -87.78      88.68      0.24  -3.240E+00   0.10 |
  |    O          44      -88.16      91.11      0.31  -3.127E+00   0.08 |
  |    O          45     -166.17     161.76      0.83   1.071E+00   0.92 |
  |    O          46     -162.87     144.74      0.83   1.035E+00   0.75 |
  |    O          47     -164.50     155.20      0.81   1.052E+00   0.88 |
  |    O          48      -87.40      83.97      0.11  -3.183E+00   0.11 |
  |    O          49     -164.43     154.75      0.85   1.060E+00   0.87 |
  |    O          50     -162.59     150.38      0.82   1.038E+00   0.81 |
  |    O          51     -161.10     145.89      0.77   1.082E+00   0.71 |
  |    O          52      -84.51      93.73      0.34  -3.146E+00   0.09 |
  |    O          53      -89.45      77.50      0.13  -3.275E+00   0.11 |
  |    O          54     -164.17     153.50      0.81   1.012E+00   0.92 |
  |    O          55      -89.70      82.98      0.13  -3.200E+00   0.12 |
  |    O          56      -90.80      92.78      0.19  -3.168E+00   0.12 |
  |    Zr          1     1627.38    -126.75      0.15  -3.800E+01   0.07 |
  |    Zr          2     1622.80    -122.85      0.13  -3.870E+01   0.06 |
  |    Zr          3     1612.82    -119.47      0.11  -3.709E+01   0.10 |
  |    Zr          4     1627.59    -126.91      0.07  -3.801E+01   0.12 |
[...]
  |    La          2     4657.50     655.11      0.01  -8.106E+01   0.04 |
  |    La          3     4750.42     869.04      0.05  -8.466E+01   0.07 |
  |    La          4     4752.80     860.97      0.03  -8.643E+01   0.07 |
  |    La          5     4702.93     751.99      0.05  -8.200E+01   0.11 |
  |    La          6     4610.59     525.00      0.07  -7.630E+01   0.09 |
  |    La          7     4752.32     867.40      0.03  -8.456E+01   0.04 |
  |    La          8     4661.95     614.59      0.01  -7.936E+01   0.02 |
  |    La          9     4654.79     619.30      0.01  -7.825E+01   0.02 |
  |    La         10     4654.59     669.07      0.10  -7.863E+01   0.13 |
  |    La         11     4701.75     772.87      0.05  -8.146E+01   0.06 |
  |    La         12     4704.21     753.02      0.03  -8.155E+01   0.09 |
  |    La         13     4706.38     771.11      0.04  -8.345E+01   0.05 |
  |    La         14     4610.75     512.72      0.08  -7.583E+01   0.07 |
  |    La         15     4710.16     778.00      0.09  -8.443E+01   0.11 |
  |    La         16     4706.44     772.05      0.04  -8.343E+01   0.06 |

 *********************** Forces ***********************
 *            Cartesian components (eV/A)             *
 *                   x            y            z      *
 * O         1      0.00295      0.00395     -0.00403 *
 * O         2      0.00134      0.00114      0.00412 *
 * O         3      0.01492     -0.00402      0.00209 *
 * O         4      0.00251      0.00349      0.00088 *
 * O         5     -0.00299      0.00024     -0.00143 *
 * O         6     -0.00649      0.00774      0.00168 *
 * O         7     -0.00778      0.00309     -0.00269 *
 * O         8     -0.00515     -0.00078      0.00234 *
 * O         9      0.00005      0.01540      0.01028 *
 * O        10     -0.01067      0.00491     -0.00352 *
 * O        11     -0.00482      0.00777      0.00012 *
 * O        12      0.01002      0.00391      0.00052 *
 * O        13     -0.01458      0.00375     -0.02347 *
 * O        14     -0.01372      0.00891      0.01198 *
 * O        15      0.01383     -0.00090     -0.01410 *
 * O        16     -0.02348     -0.00968     -0.03613 *
 * O        17     -0.01768     -0.02220     -0.00516 *
 * O        18     -0.01588      0.02221      0.00148 *
 * O        19      0.01138     -0.01622     -0.00323 *
 * O        20      0.00474      0.01125      0.01441 *
 * O        21      0.00579      0.00946     -0.00015 *
 * O        22      0.00449     -0.00466      0.00667 *
 * O        23      0.00093     -0.00796     -0.00196 *
 * O        24      0.01620     -0.00290     -0.01141 *
 * O        25      0.00894     -0.00193     -0.00716 *
 * O        26      0.00099      0.00166      0.00314 *
 * O        27     -0.00701     -0.00628     -0.00934 *
 * O        28      0.00008      0.01378     -0.00373 *
 * O        29      0.02083      0.02083      0.00515 *
 * O        30      0.00645     -0.01065     -0.00252 *
 * O        31      0.00550     -0.01110     -0.00447 *
 * O        32     -0.00067      0.00211     -0.00044 *
 * O        33      0.00656     -0.00543      0.01543 *
 * O        34     -0.00409      0.01793      0.01473 *
 * O        35     -0.00378     -0.00541     -0.01198 *
 * O        36      0.01575     -0.00567      0.01725 *
 * O        37     -0.01172      0.00797      0.00410 *
 * O        38     -0.00175     -0.01023     -0.00431 *
 * O        39      0.00568     -0.00969      0.01635 *
 * O        40      0.00817      0.00887      0.01482 *
 * O        41      0.00043     -0.00602     -0.01100 *
 * O        42     -0.02286     -0.00615     -0.00019 *
 * O        43     -0.02058     -0.03606     -0.00405 *
 * O        44     -0.00664      0.00960      0.00462 *
 * O        45      0.01134     -0.01444     -0.00913 *
 * O        46     -0.00184      0.00240      0.00573 *
 * O        47     -0.00890      0.01432     -0.01224 *
 * O        48      0.00502      0.01284     -0.00171 *
 * O        49      0.00544      0.02218      0.00432 *
 * O        50      0.00156     -0.00688      0.00021 *
 * O        51     -0.00571      0.00154      0.00639 *
 * O        52     -0.00230     -0.01175     -0.01047 *
 * O        53      0.02325     -0.01026      0.01049 *
 * O        54      0.00601      0.00634     -0.01042 *
 * O        55     -0.02411     -0.00278      0.01485 *
 * O        56     -0.00048      0.00673      0.00458 *
 * Zr        1      0.01543     -0.01576     -0.02882 *
 * Zr        2      0.00684      0.01462     -0.00784 *
 * Zr        3     -0.00286      0.01038     -0.00562 *
 * Zr        4     -0.01414     -0.00099     -0.00272 *
[...]
 * La        2      0.00434      0.00900      0.01065 *
 * La        3     -0.01616     -0.00214      0.00809 *
 * La        4      0.00739      0.00548      0.00115 *
 * La        5     -0.02661      0.01090     -0.01005 *
 * La        6     -0.00204      0.00345      0.00361 *
 * La        7      0.00918      0.00044      0.01267 *
 * La        8     -0.00704      0.01184      0.00395 *
 * La        9      0.00373     -0.00481     -0.00787 *
 * La       10      0.01097      0.00584     -0.00301 *
 * La       11      0.02609     -0.00900      0.01161 *
 * La       12      0.00266     -0.01177     -0.00673 *
 * La       13      0.00584      0.00402     -0.00654 *
 * La       14     -0.00996      0.00037     -0.00759 *
 * La       15      0.00474      0.00285      0.00923 *
 * La       16      0.01530     -0.00563      0.00019 *

 ***************** Stress Tensor *****************
 *          Cartesian components (GPa)           *
 *             x             y             z     *
 *  x      0.035280     -0.003595      0.002099  *
 *  y     -0.003595      0.017341     -0.052600  *
 *  z      0.002099     -0.052600      0.029995  *
 *  Pressure:   -0.0275                          *

[...]

 Pseudo atomic calculation performed for Sn 4d10 5s2 5p2

[...]

 Pseudo atomic calculation performed for La 5s2 5p6 5d1 6s2

 Converged in 34 iterations to a total energy of -968.0372 eV

Charge spilling parameter for spin component 1 = 0.23%

     Atomic Populations (Mulliken)
Species   Ion     s      p      d      f     Total  Charge (e)
  O        1     1.87   5.00   0.00   0.00   6.87    -0.87
  O        2     1.87   5.00   0.00   0.00   6.87    -0.87
  O        3     1.87   5.00   0.00   0.00   6.87    -0.87
  O        4     1.87   5.00   0.00   0.00   6.87    -0.87
  O        5     1.87   5.00   0.00   0.00   6.87    -0.87
  O        6     1.87   5.00   0.00   0.00   6.87    -0.87
  O        7     1.87   5.00   0.00   0.00   6.87    -0.87
  O        8     1.87   5.00   0.00   0.00   6.87    -0.87
  O        9     1.87   4.99   0.00   0.00   6.85    -0.85
  O       10     1.86   4.95   0.00   0.00   6.80    -0.80
  O       11     1.88   5.02   0.00   0.00   6.90    -0.90
  O       12     1.88   5.02   0.00   0.00   6.90    -0.90
  O       13     1.87   4.99   0.00   0.00   6.85    -0.85
  O       14     1.87   4.99   0.00   0.00   6.85    -0.85
  O       15     1.87   4.99   0.00   0.00   6.85    -0.85
  O       16     1.87   4.99   0.00   0.00   6.85    -0.85
  O       17     1.87   4.99   0.00   0.00   6.85    -0.85
  O       18     1.87   4.99   0.00   0.00   6.85    -0.85
  O       19     1.87   4.99   0.00   0.00   6.85    -0.85
  O       20     1.86   4.94   0.00   0.00   6.80    -0.80
  O       21     1.88   5.02   0.00   0.00   6.91    -0.91
  O       22     1.88   5.02   0.00   0.00   6.90    -0.90
  O       23     1.86   4.94   0.00   0.00   6.80    -0.80
  O       24     1.87   4.99   0.00   0.00   6.85    -0.85
  O       25     1.86   4.95   0.00   0.00   6.80    -0.80
  O       26     1.88   5.02   0.00   0.00   6.91    -0.91
  O       27     1.86   4.95   0.00   0.00   6.80    -0.80
  O       28     1.87   4.99   0.00   0.00   6.85    -0.85
  O       29     1.87   4.99   0.00   0.00   6.85    -0.85
  O       30     1.87   4.99   0.00   0.00   6.85    -0.85
  O       31     1.86   4.94   0.00   0.00   6.80    -0.80
  O       32     1.88   5.02   0.00   0.00   6.91    -0.91
  O       33     1.87   4.99   0.00   0.00   6.86    -0.86
  O       34     1.87   4.99   0.00   0.00   6.85    -0.85
  O       35     1.86   4.94   0.00   0.00   6.80    -0.80
  O       36     1.87   4.99   0.00   0.00   6.86    -0.86
  O       37     1.87   4.99   0.00   0.00   6.86    -0.86
  O       38     1.86   4.94   0.00   0.00   6.80    -0.80
  O       39     1.86   4.95   0.00   0.00   6.80    -0.80
  O       40     1.86   4.95   0.00   0.00   6.80    -0.80
  O       41     1.87   4.98   0.00   0.00   6.85    -0.85
  O       42     1.86   4.95   0.00   0.00   6.80    -0.80
  O       43     1.87   4.99   0.00   0.00   6.85    -0.85
  O       44     1.87   4.98   0.00   0.00   6.85    -0.85
  O       45     1.85   4.95   0.00   0.00   6.80    -0.80
  O       46     1.86   4.95   0.00   0.00   6.80    -0.80
  O       47     1.86   4.94   0.00   0.00   6.80    -0.80
  O       48     1.87   4.99   0.00   0.00   6.86    -0.86
  O       49     1.86   4.95   0.00   0.00   6.80    -0.80
  O       50     1.86   4.95   0.00   0.00   6.80    -0.80
  O       51     1.86   4.95   0.00   0.00   6.80    -0.80
  O       52     1.87   4.99   0.00   0.00   6.85    -0.85
  O       53     1.87   4.99   0.00   0.00   6.86    -0.86
  O       54     1.86   4.94   0.00   0.00   6.80    -0.80
  O       55     1.87   4.99   0.00   0.00   6.85    -0.85
  O       56     1.87   4.99   0.00   0.00   6.85    -0.85
  Zr       1     2.38   6.49   1.92   0.00  10.79     1.21
  Zr       2     2.37   6.48   1.93   0.00  10.77     1.23
  Zr       3     2.37   6.50   1.92   0.00  10.80     1.20
  Zr       4     2.38   6.49   1.92   0.00  10.79     1.21
[...]
  La       2     2.07   6.18   1.19   0.00   9.44     1.56
  La       3     2.04   6.14   1.19   0.00   9.38     1.62
  La       4     2.04   6.15   1.19   0.00   9.38     1.62
  La       5     2.07   6.16   1.19   0.00   9.42     1.58
  La       6     2.10   6.19   1.19   0.00   9.49     1.51
  La       7     2.02   6.15   1.19   0.00   9.36     1.64
  La       8     2.08   6.19   1.19   0.00   9.46     1.54
  La       9     2.09   6.18   1.19   0.00   9.46     1.54
  La      10     2.07   6.17   1.19   0.00   9.44     1.56
  La      11     2.05   6.16   1.19   0.00   9.39     1.61
  La      12     2.07   6.16   1.19   0.00   9.43     1.57
  La      13     2.04   6.16   1.19   0.00   9.39     1.61
  La      14     2.09   6.20   1.19   0.00   9.48     1.52
  La      15     2.06   6.16   1.19   0.00   9.42     1.58
  La      16     2.04   6.16   1.19   0.00   9.40     1.60

            Bond              Population      Length (A)
         O 9  -- Sn 5              0.35        2.09859
         O 36 -- Sn 6              0.35        2.10072
         O 19 -- Sn 2              0.35        2.10080
         O 43 -- Sn 4              0.35        2.10092
         O 29 -- Sn 4              0.35        2.10241
         O 53 -- Sn 1              0.35        2.10296
         O 37 -- Sn 2              0.35        2.10340
         O 52 -- Sn 5              0.34        2.10374
         O 24 -- Sn 5              0.34        2.10464
         O 15 -- Sn 3              0.34        2.10545
         O 14 -- Sn 5              0.34        2.10602
         O 34 -- Sn 4              0.34        2.10612
         O 56 -- Sn 2              0.34        2.10620
         O 48 -- Sn 3              0.34        2.10628
         O 18 -- Sn 1              0.35        2.10639
         O 16 -- Sn 6              0.35        2.10653
         O 55 -- Sn 1              0.34        2.10667
         O 45 -- Zr 10             0.42        2.10682
         O 26 -- Sn 6              0.34        2.10730
         O 33 -- Sn 3              0.34        2.10741
         O 30 -- Sn 5              0.34        2.10769
         O 13 -- Sn 4              0.34        2.10795
         O 32 -- Sn 3              0.34        2.10807
         O 28 -- Sn 2              0.34        2.10849
         O 44 -- Sn 5              0.34        2.11012
         O 32 -- Sn 6              0.34        2.11053
         O 26 -- Sn 1              0.33        2.11085
         O 17 -- Sn 6              0.34        2.11160
         O 41 -- Sn 6              0.34        2.11203
         O 21 -- Sn 3              0.34        2.11258
         O 43 -- Zr 2              0.45        2.11273
         O 10 -- Zr 8              0.42        2.11349
         O 21 -- Sn 1              0.34        2.11373
         O 42 -- Zr 9              0.41        2.11398
         O 45 -- Zr 1              0.42        2.11439
         O 42 -- Zr 2              0.41        2.11460
         O 13 -- Zr 9              0.45        2.11475
         O 49 -- Zr 4              0.42        2.11479
         O 10 -- Zr 6              0.42        2.11503
         O 24 -- Zr 8              0.45        2.11592
         O 22 -- Sn 2              0.33        2.11604
         O 36 -- Zr 3              0.44        2.11604
         O 47 -- Zr 4              0.43        2.11614
         O 16 -- Zr 6              0.46        2.11633
         O 20 -- Zr 5              0.43        2.11670
         O 9  -- Zr 7              0.45        2.11713
         O 47 -- Zr 6              0.42        2.11731
         O 22 -- Sn 4              0.33        2.11735
         O 12 -- Sn 4              0.33        2.11736
         O 28 -- Zr 5              0.45        2.11739
         O 23 -- Zr 7              0.43        2.11747
         O 40 -- Zr 3              0.43        2.11755
         O 14 -- Zr 5              0.45        2.11805
         O 33 -- Zr 3              0.44        2.11818
         O 39 -- Zr 4              0.42        2.11819
         O 54 -- Zr 1              0.43        2.11820
         O 20 -- Zr 7              0.42        2.11844
         O 52 -- Zr 1              0.45        2.11856
         O 49 -- Zr 5              0.42        2.11896
         O 19 -- Zr 10             0.45        2.11929
[...]
         O 16 -- O 51             -0.03        2.82706
         O 46 -- O 53             -0.03        2.82729
         O 48 -- O 52             -0.03        2.82742
         O 19 -- O 35             -0.03        2.82747
         O 29 -- O 46             -0.03        2.82804
         O 52 -- O 56             -0.03        2.82847
         O 15 -- O 31             -0.03        2.82898
         O 14 -- O 28             -0.03        2.82917
         O 18 -- O 25             -0.03        2.82965
         O 35 -- O 43             -0.03        2.82986
         O 16 -- O 31             -0.03        2.83114
         O 48 -- O 50             -0.03        2.83270
         O 17 -- O 25             -0.03        2.83285
         O 37 -- O 41             -0.03        2.83562
         O 51 -- O 55             -0.03        2.83583

Writing analysis data to 022.castep_bin

Writing model to 022.check

 A BibTeX formatted list of references used in this run has been written to
 022.bib

Initialisation time =     54.50 s
Calculation time    =  33553.64 s
Finalisation time   =     30.63 s
Total time          =  33638.78 s

Overall parallel efficiency rating: Good (78%)

Data was distributed by:-
G-vector (4-way); efficiency rating: Good (78%)
k-point (14-way); efficiency rating: Ideal (100%)