 Compiled for linux_x86_64_ifort16 on Sat, 23 Jul 2016 23:44:54 +0100
 from code version
 203e84763863+ Castep161_branch Fri, 04 Mar 2016 19:21:07 +0000
 Compiler: Intel Fortran 16.0.3.210; Optimisation: fast
 MATHLIBS: Intel MKL(11.3.3) (LAPACK version 3.6.0)
 FFT Lib : mkl
 Fundamental constants values: CODATA 2010

 Run started: Mon, 12 Mar 2018 18:27:25 +0000
 |           N   N    M   M    RRRR                |
 |           NN  N    MM MM    R   R               |
 |           N N N    M M M    RRRR                |
 |           N  NN    M   M    R  R                |
 |           N   N    M   M    R   R               |
 | Welcome to Materials Studio CASTEP-NMR          |
 | Authors:                                        |
 | J.R. Yates, C.J. Pickard, F. Mauri              |
 | Contributors:                                   |
 | T.F.G. Green, S.A. Joyce                        |
 | Copyright (c) 2004 - 2015                       |
 | Please cite the appropriate publications in all |
 | work arising from your use of CASTEP NMR.       |
 | For NMR Shielding Tensors cite:                 |
 |    "All-electron magnetic response with         |
 |    pseudopotentials: NMR chemical shifts",      |
 |    C. J. Pickard, F. Mauri;                     |
 |    Physical Review B63 245101 (2001), and       |
 |    "Calculation of NMR Chemical Shifts          |
 |    for extended systems using                   |
 |    Ultrasoft Pseudopotentials",                 |
 |    J. R. Yates, C. J. Pickard and F. Mauri      |
 |    Physical Review B76 024401 (2007)            |
 | For Electric Field Gradients cite:              |
 |   "Accurate First Principles Prediction of 17O  |
 |    NMR Parameters in SiO2: Assignment of the    |
 |    Zeolite Ferrierite Spectrum"                 |
 |    M. Profeta, F. Mauri and C. J. Pickard       |
 |    J. Amer. Chem. Soc. 125 541 (2003)           |
 | For Spin-Spin (J) Couplings cite:               |
 |   "A first principles theory of NMR J-coupling  |
 |   in solid-state systems"                       |
 |   S.A. Joyce, J.R. Yates, C.J. Pickard, F. Mauri|
 |   J. Chem. Phys. 127 204107 (2007)              |
 |   "Relativistic NMR J-coupling with ultrasoft   |
 |   pseudopotentials and the zeroth-order regular |
 |   approximation"                                |
 |   T.F.G. Green and J.R. Yates                   |
 |   J. Chem. Phys. 140 234106 (2014)              |

 Atomic calculation performed for O: 1s2 2s2 2p4

 Converged in 44 iterations to an ae energy of -2040.855 eV

 Atomic calculation performed for O: 1s2 2s2 2p4

 Exceeded max iterations: converged to 0.000000062 eV

   | Pseudopotential Report - Date of generation 12-03-2018   |
   | Element: O Ionic charge:  6.00 Level of theory: PBE      |
   | Atomic Solver: ZORA (scalar)                             |
   |               Reference Electronic Structure             |
   |         Orbital         Occupation         Energy        |
   |            2s              2.000           -0.881        |
   |            2p              4.000           -0.332        |
   |                 Pseudopotential Definition               |
   |        Beta     l      e      Rc     scheme   norm       |
   |          1      0   -0.881   1.100     qc      0         |
   |          2      0    0.250   1.100     qc      0         |
   |          3      1   -0.332   1.100     qc      0         |
   |          4      1    0.250   1.100     qc      0         |
   |         loc     2    0.000   1.100     pn      0         |
   | Augmentation charge Rinner = 0.769                       |
   | Partial core correction Rc = 0.769                       |
   | "2|1.1|15|18|20|20:21(qc=7)"                             |
   |      Author: Chris J. Pickard, Cambridge University      |

 Atomic calculation performed for Zr: 1s2 2s2 2p6 3s2 3p6 3d10 4s2 4p6 4d2 5s2

[...]

 Atomic calculation performed for Zr: 1s2 2s2 2p6 3s2 3p6 3d10 4s2 4p6 4d2 5s2

[...]

 Warning: ion_atom_descreen_psp: negative charge density encountered
   | Pseudopotential Report - Date of generation 12-03-2018   |
   | Element: Zr Ionic charge: 12.00 Level of theory: PBE     |
   | Atomic Solver: ZORA (scalar)                             |
   |               Reference Electronic Structure             |
   |         Orbital         Occupation         Energy        |
   |            4s              2.000           -2.003        |
   |            4p              6.000           -1.193        |
   |            5s              2.000           -0.163        |
   |            4d              2.000           -0.132        |
   |                 Pseudopotential Definition               |
   |        Beta     l      e      Rc     scheme   norm       |
   |          1      0   -2.003   2.105     qc      0         |
   |          2      0   -0.163   2.105     qc      0         |
   |          3      0    0.250   2.105     qc      0         |
   |          4      1   -1.193   2.105     qc      0         |
   |          5      1    0.250   2.105     qc      0         |
   |          6      2   -0.132   2.105     qc      0         |
   |          7      2    0.250   2.105     qc      0         |
   |         loc     3    0.000   2.105     pn      0         |
   | Augmentation charge Rinner = 1.471                       |
   | Partial core correction Rc = 1.471                       |
   | "3|2.1|7|8|9|40U:50:41:42"                               |
   |      Author: Chris J. Pickard, Cambridge University      |

 Atomic calculation performed for Sn:

[...]

 Atomic calculation performed for Sn:

[...]

   | Pseudopotential Report - Date of generation 12-03-2018   |
   | Element: Sn Ionic charge: 14.00 Level of theory: PBE     |
   | Atomic Solver: ZORA (scalar)                             |
   |               Reference Electronic Structure             |
   |         Orbital         Occupation         Energy        |
   |            4d             10.000           -0.950        |
   |            5s              2.000           -0.388        |
   |            5p              2.000           -0.136        |
   |                 Pseudopotential Definition               |
   |        Beta     l      e      Rc     scheme   norm       |
   |          1      0   -0.388   2.199     qc      0         |
   |          2      0    0.250   2.199     qc      0         |
   |          3      1   -0.136   2.199     qc      0         |
   |          4      1    0.250   2.199     qc      0         |
   |          5      2   -0.950   2.199     qc      0         |
   |          6      2    0.250   2.199     qc      0         |
   |         loc     3    0.000   2.199     pn      0         |
   | Augmentation charge Rinner = 1.537                       |
   | Partial core correction Rc = 1.537                       |
   | "3|2.2|7|8|9|50:51:42"                                   |
   |      Author: Chris J. Pickard, Cambridge University      |

 Atomic calculation performed for La:

 Converged in 56 iterations to an ae energy of -230121.495 eV

 Atomic calculation performed for La:

 Exceeded max iterations: converged to 0.000000907 eV

 Warning: ion_atom_descreen_psp: negative charge density encountered
   | Pseudopotential Report - Date of generation 12-03-2018   |
   | Element: La Ionic charge: 11.00 Level of theory: PBE     |
   | Atomic Solver: ZORA (scalar)                             |
   |               Reference Electronic Structure             |
   |         Orbital         Occupation         Energy        |
   |            5s              2.000           -1.430        |
   |            5p              6.000           -0.823        |
   |            6s              2.000           -0.135        |
   |            5d              1.000           -0.114        |
   |                 Pseudopotential Definition               |
   |        Beta     l      e      Rc     scheme   norm       |
   |          1      0   -1.430   2.298     qc      0         |
   |          2      0   -0.135   2.298     qc      0         |
   |          3      0    0.250   2.298     qc      0         |
   |          4      1   -0.823   2.298     qc      0         |
   |          5      1    0.250   2.298     qc      0         |
   |          6      2   -0.114   2.298     qc      0         |
   |          7      2    0.250   2.298     qc      0         |
   |         loc     2    0.000   2.298     pn      0         |
   | Augmentation charge Rinner = 1.606                       |
   | Partial core correction Rc = 1.606                       |
   | "2|2.3|5|6|7|50U:60:51:52(qc=4.5)"                       |
   |      Author: Chris J. Pickard, Cambridge University      |

 Pseudo atomic calculation performed for O 2s2 2p4

 Converged in 39 iterations to a total energy of -432.6554 eV

 Pseudo atomic calculation performed for Zr 4s2 4p6 4d2 5s2

[...]

 Calculation parallelised over 56 processes.
 Data is distributed by G-vector(4-way) and k-point(14-way)

 ************************************ Title ************************************
 nmr testing

 ***************************** General Parameters ******************************

 output verbosity                               : normal  (1)
 write checkpoint data to                       : 032.check
 type of calculation                            : Magnetic Resonance
 stress calculation                             : on
 density difference calculation                 : off
 electron localisation func (ELF) calculation   : off
 Hirshfeld analysis                             : off
 unlimited duration calculation
 timing information                             : on
 write final potential to formatted file        : off
 write final density to formatted file          : off
 write structure in CIF formatted file          : on
 write structure in CELL formatted file         : on
 write BibTeX reference list                    : on
 write OTFG pseudopotential files               : on
 checkpoint writing                             : both castep_bin and check files

 output         length unit                     : A
 output           mass unit                     : amu
 output           time unit                     : ps
 output         charge unit                     : e
 output           spin unit                     : hbar/2
 output         energy unit                     : eV
 output          force unit                     : eV/A
 output       velocity unit                     : A/ps
 output       pressure unit                     : GPa
 output     inv_length unit                     : 1/A
 output      frequency unit                     : cm-1
 output force constant unit                     : eV/A**2
 output         volume unit                     : A**3
 output   IR intensity unit                     : (D/A)**2/amu
 output         dipole unit                     : D
 output         efield unit                     : eV/A/e
 output        entropy unit                     : J/mol/K

 wavefunctions paging                           : none
 random number generator seed                   : randomised (182726501)
 data distribution                              : optimal for this architecture
[...]
  |    O          42      -89.00      93.33      0.26  -3.188E+00   0.11 |
  |    O          43     -161.66     153.07      0.87   1.087E+00   0.78 |
  |    O          44     -162.29     147.24      0.78   1.048E+00   0.80 |
  |    O          45      -89.11      90.87      0.29  -3.147E+00   0.09 |
  |    O          46     -164.63     155.15      0.74   1.029E+00   0.90 |
  |    O          47     -165.85     155.86      0.80  -1.017E+00   1.00 |
  |    O          48      -89.97      85.32      0.24  -3.207E+00   0.09 |
  |    O          49     -165.67     159.69      0.80   1.053E+00   0.96 |
  |    O          50      -88.90      84.83      0.25  -3.156E+00   0.07 |
  |    O          51     -164.34     155.47      0.78   1.040E+00   0.88 |
  |    O          52     -165.38     154.82      0.84   1.064E+00   0.80 |
  |    O          53      -91.73      92.77      0.17  -3.212E+00   0.13 |
  |    O          54      -89.74      91.53      0.28  -3.156E+00   0.08 |
  |    O          55      -92.03      85.84      0.11  -3.232E+00   0.13 |
  |    O          56      -90.65      91.81      0.19  -3.205E+00   0.10 |
  |    Zr          1     1607.33    -118.93      0.09  -3.623E+01   0.10 |
  |    Zr          2     1627.15    -126.64      0.15  -3.807E+01   0.11 |
  |    Zr          3     1622.43    -122.65      0.16  -3.907E+01   0.03 |
  |    Zr          4     1633.39    -127.62      0.02  -3.900E+01   0.02 |
[...]
  |    La          2     4753.27     866.81      0.04  -8.691E+01   0.07 |
  |    La          3     4709.86     765.38      0.03  -8.460E+01   0.02 |
  |    La          4     4709.66     756.85      0.04  -8.411E+01   0.06 |
  |    La          5     4664.40     653.57      0.08  -8.095E+01   0.11 |
  |    La          6     4708.31     747.28      0.02  -8.321E+01   0.05 |
  |    La          7     4706.77     768.72      0.03  -8.319E+01   0.03 |
  |    La          8     4550.37     386.31      0.08  -7.092E+01   0.12 |
  |    La          9     4659.96     659.71      0.10  -8.013E+01   0.14 |
  |    La         10     4706.58     765.41      0.06  -8.272E+01   0.08 |
  |    La         11     4752.02     866.70      0.05  -8.446E+01   0.07 |
  |    La         12     4705.13     750.40      0.05  -8.176E+01   0.10 |
  |    La         13     4651.84     663.92      0.10  -7.838E+01   0.15 |
  |    La         14     4708.51     745.80      0.04  -8.299E+01   0.09 |
  |    La         15     4705.04     755.47      0.04  -8.196E+01   0.07 |
  |    La         16     4652.42     666.33      0.10  -7.846E+01   0.15 |

 *********************** Forces ***********************
 *            Cartesian components (eV/A)             *
 *                   x            y            z      *
 * O         1     -0.00895     -0.00252     -0.01186 *
 * O         2      0.00056     -0.00030     -0.00839 *
 * O         3     -0.00195      0.00058      0.00296 *
 * O         4     -0.00450     -0.01117     -0.00222 *
 * O         5     -0.00658     -0.00818     -0.00762 *
 * O         6      0.01253      0.01166      0.00035 *
 * O         7     -0.00468     -0.00268      0.00128 *
 * O         8      0.00046      0.00409     -0.00215 *
 * O         9      0.00084      0.02612      0.01501 *
 * O        10     -0.00352      0.01353     -0.01735 *
 * O        11     -0.01188      0.00877     -0.00361 *
 * O        12      0.00278      0.01994      0.02154 *
 * O        13      0.02190     -0.00200      0.02037 *
 * O        14     -0.00060     -0.00294      0.00893 *
 * O        15      0.00453     -0.00538     -0.00340 *
 * O        16     -0.00191      0.01123      0.00582 *
 * O        17      0.01700      0.01297     -0.00967 *
 * O        18     -0.00236     -0.00509     -0.01072 *
 * O        19     -0.00272     -0.00308     -0.00790 *
 * O        20      0.01587      0.01940      0.00449 *
 * O        21     -0.00440      0.00506      0.00173 *
 * O        22     -0.02321      0.00332     -0.01959 *
 * O        23     -0.01938     -0.00807     -0.01193 *
 * O        24     -0.01567      0.01630      0.01105 *
 * O        25      0.00140     -0.00311     -0.00956 *
 * O        26     -0.00727     -0.01482     -0.03064 *
 * O        27      0.00701     -0.02806     -0.03713 *
 * O        28      0.00098      0.01911     -0.02263 *
 * O        29      0.00594     -0.00108     -0.00618 *
 * O        30     -0.02107      0.01149      0.00904 *
 * O        31      0.02133     -0.01911     -0.00697 *
 * O        32     -0.02619     -0.02660     -0.00288 *
 * O        33      0.01074     -0.01886      0.02054 *
 * O        34     -0.00881     -0.01121      0.00160 *
 * O        35      0.00923     -0.00693     -0.01553 *
 * O        36      0.00564     -0.00817      0.00668 *
 * O        37     -0.02765      0.01081     -0.00517 *
 * O        38     -0.02702     -0.01701     -0.01598 *
 * O        39      0.02150     -0.00254     -0.01444 *
 * O        40      0.02093      0.01251      0.02449 *
 * O        41      0.00397      0.00554      0.00050 *
 * O        42     -0.01362     -0.01968      0.00925 *
 * O        43     -0.00017     -0.00104      0.01114 *
 * O        44      0.00921      0.01013     -0.00609 *
 * O        45      0.01120      0.01043      0.01722 *
 * O        46     -0.00157     -0.00089      0.00375 *
 * O        47     -0.00419     -0.00195     -0.02389 *
 * O        48      0.01189      0.01915      0.00638 *
 * O        49      0.01325      0.02249      0.00232 *
 * O        50     -0.01126     -0.00555     -0.01752 *
 * O        51      0.01167      0.00222      0.00702 *
 * O        52     -0.00837      0.00511      0.01188 *
 * O        53      0.02846     -0.00880      0.00929 *
 * O        54     -0.01369     -0.01258     -0.00806 *
 * O        55     -0.01906     -0.01075      0.00679 *
 * O        56      0.01206      0.00942      0.01120 *
 * Zr        1     -0.01991      0.02615     -0.00555 *
 * Zr        2      0.01141     -0.00053      0.00034 *
 * Zr        3     -0.01996     -0.01991     -0.00486 *
 * Zr        4      0.00061      0.00023     -0.00316 *
[...]
 * La        2      0.00292      0.01253      0.01142 *
 * La        3      0.00526      0.00799     -0.01575 *
 * La        4      0.00518      0.00595     -0.00526 *
 * La        5     -0.00669     -0.00708     -0.00319 *
 * La        6      0.01612      0.02400      0.00573 *
 * La        7      0.00623     -0.01064      0.01113 *
 * La        8      0.00302     -0.00203     -0.00059 *
 * La        9     -0.01475      0.00664     -0.00591 *
 * La       10     -0.00353      0.00134      0.00724 *
 * La       11      0.01100     -0.00271      0.01164 *
 * La       12     -0.03229     -0.01736      0.01486 *
 * La       13     -0.00657     -0.00326      0.00305 *
 * La       14     -0.01594     -0.01298     -0.01288 *
 * La       15      0.02251      0.01485      0.01371 *
 * La       16     -0.00048      0.00963     -0.01043 *

 ***************** Stress Tensor *****************
 *          Cartesian components (GPa)           *
 *             x             y             z     *
 *  x      0.028277      0.018503      0.024750  *
 *  y      0.018503      0.037264      0.021702  *
 *  z      0.024750      0.021702      0.032874  *
 *  Pressure:   -0.0328                          *

[...]

 Pseudo atomic calculation performed for Sn 4d10 5s2 5p2

[...]

 Pseudo atomic calculation performed for La 5s2 5p6 5d1 6s2

 Converged in 34 iterations to a total energy of -968.0372 eV

Charge spilling parameter for spin component 1 = 0.23%

     Atomic Populations (Mulliken)
Species   Ion     s      p      d      f     Total  Charge (e)
  O        1     1.87   5.00   0.00   0.00   6.87    -0.87
  O        2     1.87   5.00   0.00   0.00   6.87    -0.87
  O        3     1.87   5.00   0.00   0.00   6.87    -0.87
  O        4     1.87   5.00   0.00   0.00   6.87    -0.87
  O        5     1.87   5.00   0.00   0.00   6.87    -0.87
  O        6     1.87   5.00   0.00   0.00   6.87    -0.87
  O        7     1.87   5.00   0.00   0.00   6.87    -0.87
  O        8     1.87   5.00   0.00   0.00   6.87    -0.87
  O        9     1.86   4.94   0.00   0.00   6.80    -0.80
  O       10     1.87   4.99   0.00   0.00   6.85    -0.85
  O       11     1.88   5.02   0.00   0.00   6.91    -0.91
  O       12     1.87   4.99   0.00   0.00   6.85    -0.85
  O       13     1.87   4.99   0.00   0.00   6.85    -0.85
  O       14     1.86   4.94   0.00   0.00   6.80    -0.80
  O       15     1.88   5.02   0.00   0.00   6.91    -0.91
  O       16     1.86   4.95   0.00   0.00   6.80    -0.80
  O       17     1.87   4.98   0.00   0.00   6.85    -0.85
  O       18     1.88   5.02   0.00   0.00   6.90    -0.90
  O       19     1.88   5.02   0.00   0.00   6.91    -0.91
  O       20     1.86   4.94   0.00   0.00   6.80    -0.80
  O       21     1.88   5.02   0.00   0.00   6.90    -0.90
  O       22     1.87   4.98   0.00   0.00   6.85    -0.85
  O       23     1.86   4.95   0.00   0.00   6.80    -0.80
  O       24     1.87   4.99   0.00   0.00   6.85    -0.85
  O       25     1.88   5.02   0.00   0.00   6.91    -0.91
  O       26     1.87   4.99   0.00   0.00   6.85    -0.85
  O       27     1.87   4.99   0.00   0.00   6.85    -0.85
  O       28     1.87   4.99   0.00   0.00   6.85    -0.85
  O       29     1.86   4.95   0.00   0.00   6.80    -0.80
  O       30     1.87   4.99   0.00   0.00   6.85    -0.85
  O       31     1.87   4.99   0.00   0.00   6.85    -0.85
  O       32     1.87   4.99   0.00   0.00   6.85    -0.85
  O       33     1.87   4.99   0.00   0.00   6.85    -0.85
  O       34     1.86   4.94   0.00   0.00   6.80    -0.80
  O       35     1.87   4.98   0.00   0.00   6.85    -0.85
  O       36     1.86   4.95   0.00   0.00   6.80    -0.80
  O       37     1.87   4.99   0.00   0.00   6.85    -0.85
  O       38     1.86   4.95   0.00   0.00   6.80    -0.80
  O       39     1.87   4.99   0.00   0.00   6.85    -0.85
  O       40     1.86   4.94   0.00   0.00   6.80    -0.80
  O       41     1.86   4.95   0.00   0.00   6.80    -0.80
  O       42     1.87   4.99   0.00   0.00   6.85    -0.85
  O       43     1.86   4.95   0.00   0.00   6.80    -0.80
  O       44     1.86   4.94   0.00   0.00   6.80    -0.80
  O       45     1.87   4.99   0.00   0.00   6.86    -0.86
  O       46     1.86   4.94   0.00   0.00   6.80    -0.80
  O       47     1.86   4.94   0.00   0.00   6.80    -0.80
  O       48     1.87   4.99   0.00   0.00   6.86    -0.86
  O       49     1.85   4.94   0.00   0.00   6.80    -0.80
  O       50     1.87   4.99   0.00   0.00   6.85    -0.85
  O       51     1.86   4.94   0.00   0.00   6.80    -0.80
  O       52     1.86   4.95   0.00   0.00   6.80    -0.80
  O       53     1.87   4.99   0.00   0.00   6.85    -0.85
  O       54     1.87   4.99   0.00   0.00   6.85    -0.85
  O       55     1.87   4.99   0.00   0.00   6.85    -0.85
  O       56     1.87   4.99   0.00   0.00   6.86    -0.86
  Zr       1     2.37   6.51   1.92   0.00  10.80     1.20
  Zr       2     2.38   6.49   1.92   0.00  10.79     1.21
  Zr       3     2.37   6.48   1.93   0.00  10.78     1.22
  Zr       4     2.37   6.48   1.93   0.00  10.78     1.22
[...]
  La       2     2.04   6.15   1.19   0.00   9.38     1.62
  La       3     2.06   6.17   1.19   0.00   9.42     1.58
  La       4     2.05   6.16   1.19   0.00   9.41     1.59
  La       5     2.08   6.18   1.19   0.00   9.45     1.55
  La       6     2.06   6.17   1.19   0.00   9.42     1.58
  La       7     2.04   6.16   1.19   0.00   9.40     1.60
  La       8     2.14   6.21   1.19   0.00   9.54     1.46
  La       9     2.06   6.18   1.19   0.00   9.43     1.57
  La      10     2.04   6.16   1.19   0.00   9.39     1.61
  La      11     2.02   6.14   1.19   0.00   9.36     1.64
  La      12     2.05   6.16   1.19   0.00   9.40     1.60
  La      13     2.09   6.17   1.19   0.00   9.45     1.55
  La      14     2.06   6.17   1.19   0.00   9.42     1.58
  La      15     2.05   6.17   1.19   0.00   9.41     1.59
  La      16     2.09   6.17   1.19   0.00   9.46     1.54

            Bond              Population      Length (A)
         O 24 -- Sn 2              0.35        2.09765
         O 53 -- Sn 1              0.34        2.10322
         O 30 -- Sn 5              0.34        2.10398
         O 33 -- Sn 4              0.34        2.10417
         O 39 -- Sn 2              0.35        2.10449
         O 19 -- Sn 3              0.34        2.10463
         O 45 -- Sn 6              0.35        2.10502
         O 42 -- Sn 5              0.34        2.10562
         O 13 -- Sn 5              0.35        2.10575
         O 19 -- Sn 6              0.34        2.10579
         O 56 -- Sn 3              0.35        2.10583
         O 55 -- Sn 1              0.34        2.10596
         O 26 -- Sn 1              0.35        2.10679
         O 12 -- Sn 1              0.35        2.10745
         O 28 -- Sn 3              0.34        2.10768
         O 15 -- Sn 6              0.34        2.10769
         O 11 -- Sn 4              0.34        2.10831
         O 48 -- Sn 4              0.35        2.10849
         O 54 -- Sn 2              0.34        2.10851
         O 37 -- Sn 3              0.34        2.10881
         O 36 -- Zr 3              0.42        2.10887
         O 11 -- Sn 3              0.34        2.10895
         O 32 -- Sn 4              0.35        2.10899
         O 10 -- Sn 2              0.34        2.10916
         O 27 -- Sn 6              0.35        2.10945
         O 31 -- Sn 6              0.34        2.10948
         O 17 -- Sn 2              0.34        2.11077
         O 50 -- Sn 5              0.35        2.11098
         O 15 -- Sn 4              0.33        2.11120
         O 25 -- Sn 5              0.34        2.11129
         O 25 -- Sn 2              0.33        2.11259
         O 35 -- Sn 6              0.34        2.11291
         O 49 -- Zr 5              0.42        2.11320
         O 36 -- Zr 10             0.41        2.11389
         O 22 -- Sn 3              0.35        2.11453
         O 18 -- Sn 1              0.33        2.11463
         O 29 -- Zr 5              0.42        2.11477
         O 53 -- Zr 3              0.45        2.11481
         O 23 -- Zr 6              0.42        2.11501
         O 49 -- Zr 4              0.43        2.11536
         O 30 -- Zr 9              0.45        2.11537
         O 29 -- Zr 8              0.42        2.11558
         O 43 -- Zr 2              0.41        2.11576
         O 18 -- Sn 5              0.33        2.11593
         O 52 -- Zr 1              0.42        2.11596
         O 23 -- Zr 7              0.42        2.11615
         O 43 -- Zr 8              0.41        2.11634
         O 24 -- Zr 9              0.45        2.11640
         O 52 -- Zr 9              0.42        2.11685
         O 51 -- Zr 2              0.43        2.11729
         O 21 -- Sn 1              0.33        2.11741
         O 20 -- Zr 7              0.43        2.11757
         O 46 -- Zr 3              0.44        2.11775
         O 10 -- Zr 6              0.45        2.11778
         O 34 -- Zr 8              0.43        2.11793
         O 38 -- Zr 7              0.42        2.11799
         O 47 -- Zr 4              0.43        2.11803
         O 16 -- Zr 10             0.42        2.11810
         O 41 -- Zr 10             0.43        2.11817
         O 14 -- Zr 5              0.43        2.11870
[...]
         O 27 -- O 40             -0.03        2.82576
         O 14 -- O 29             -0.03        2.82598
         O 10 -- O 31             -0.03        2.82679
         O 16 -- O 32             -0.03        2.82808
         O 22 -- O 43             -0.03        2.82842
         O 20 -- O 27             -0.03        2.82886
         O 20 -- O 28             -0.03        2.83097
         O 35 -- O 43             -0.03        2.83124
         O 12 -- O 22             -0.03        2.83183
         O 16 -- O 31             -0.03        2.83271
         O 34 -- O 39             -0.03        2.83306
         O 17 -- O 26             -0.03        2.83309
         O 33 -- O 40             -0.03        2.83318
         O 48 -- O 50             -0.03        2.83429
         O 37 -- O 41             -0.03        2.83517

Writing analysis data to 032.castep_bin

Writing model to 032.check

 A BibTeX formatted list of references used in this run has been written to
 032.bib

Initialisation time =     54.24 s
Calculation time    =  33457.67 s
Finalisation time   =     50.23 s
Total time          =  33562.13 s

Overall parallel efficiency rating: Good (77%)

Data was distributed by:-
G-vector (4-way); efficiency rating: Good (78%)
k-point (14-way); efficiency rating: Excellent (99%)