 Compiled for linux_x86_64_ifort16 on Sat, 23 Jul 2016 23:44:54 +0100
 from code version
 203e84763863+ Castep161_branch Fri, 04 Mar 2016 19:21:07 +0000
 Compiler: Intel Fortran 16.0.3.210; Optimisation: fast
 MATHLIBS: Intel MKL(11.3.3) (LAPACK version 3.6.0)
 FFT Lib : mkl
 Fundamental constants values: CODATA 2010

 Run started: Fri, 16 Mar 2018 15:27:28 +0000
 |           N   N    M   M    RRRR                |
 |           NN  N    MM MM    R   R               |
 |           N N N    M M M    RRRR                |
 |           N  NN    M   M    R  R                |
 |           N   N    M   M    R   R               |
 | Welcome to Materials Studio CASTEP-NMR          |
 | Authors:                                        |
 | J.R. Yates, C.J. Pickard, F. Mauri              |
 | Contributors:                                   |
 | T.F.G. Green, S.A. Joyce                        |
 | Copyright (c) 2004 - 2015                       |
 | Please cite the appropriate publications in all |
 | work arising from your use of CASTEP NMR.       |
 | For NMR Shielding Tensors cite:                 |
 |    "All-electron magnetic response with         |
 |    pseudopotentials: NMR chemical shifts",      |
 |    C. J. Pickard, F. Mauri;                     |
 |    Physical Review B63 245101 (2001), and       |
 |    "Calculation of NMR Chemical Shifts          |
 |    for extended systems using                   |
 |    Ultrasoft Pseudopotentials",                 |
 |    J. R. Yates, C. J. Pickard and F. Mauri      |
 |    Physical Review B76 024401 (2007)            |
 | For Electric Field Gradients cite:              |
 |   "Accurate First Principles Prediction of 17O  |
 |    NMR Parameters in SiO2: Assignment of the    |
 |    Zeolite Ferrierite Spectrum"                 |
 |    M. Profeta, F. Mauri and C. J. Pickard       |
 |    J. Amer. Chem. Soc. 125 541 (2003)           |
 | For Spin-Spin (J) Couplings cite:               |
 |   "A first principles theory of NMR J-coupling  |
 |   in solid-state systems"                       |
 |   S.A. Joyce, J.R. Yates, C.J. Pickard, F. Mauri|
 |   J. Chem. Phys. 127 204107 (2007)              |
 |   "Relativistic NMR J-coupling with ultrasoft   |
 |   pseudopotentials and the zeroth-order regular |
 |   approximation"                                |
 |   T.F.G. Green and J.R. Yates                   |
 |   J. Chem. Phys. 140 234106 (2014)              |

 Atomic calculation performed for O: 1s2 2s2 2p4

 Converged in 44 iterations to an ae energy of -2040.855 eV

 Atomic calculation performed for O: 1s2 2s2 2p4

 Exceeded max iterations: converged to 0.000000062 eV

   | Pseudopotential Report - Date of generation 16-03-2018   |
   | Element: O Ionic charge:  6.00 Level of theory: PBE      |
   | Atomic Solver: ZORA (scalar)                             |
   |               Reference Electronic Structure             |
   |         Orbital         Occupation         Energy        |
   |            2s              2.000           -0.881        |
   |            2p              4.000           -0.332        |
   |                 Pseudopotential Definition               |
   |        Beta     l      e      Rc     scheme   norm       |
   |          1      0   -0.881   1.100     qc      0         |
   |          2      0    0.250   1.100     qc      0         |
   |          3      1   -0.332   1.100     qc      0         |
   |          4      1    0.250   1.100     qc      0         |
   |         loc     2    0.000   1.100     pn      0         |
   | Augmentation charge Rinner = 0.769                       |
   | Partial core correction Rc = 0.769                       |
   | "2|1.1|15|18|20|20:21(qc=7)"                             |
   |      Author: Chris J. Pickard, Cambridge University      |

 Atomic calculation performed for Zr: 1s2 2s2 2p6 3s2 3p6 3d10 4s2 4p6 4d2 5s2

[...]

 Atomic calculation performed for Zr: 1s2 2s2 2p6 3s2 3p6 3d10 4s2 4p6 4d2 5s2

[...]

 Warning: ion_atom_descreen_psp: negative charge density encountered
   | Pseudopotential Report - Date of generation 16-03-2018   |
   | Element: Zr Ionic charge: 12.00 Level of theory: PBE     |
   | Atomic Solver: ZORA (scalar)                             |
   |               Reference Electronic Structure             |
   |         Orbital         Occupation         Energy        |
   |            4s              2.000           -2.003        |
   |            4p              6.000           -1.193        |
   |            5s              2.000           -0.163        |
   |            4d              2.000           -0.132        |
   |                 Pseudopotential Definition               |
   |        Beta     l      e      Rc     scheme   norm       |
   |          1      0   -2.003   2.105     qc      0         |
   |          2      0   -0.163   2.105     qc      0         |
   |          3      0    0.250   2.105     qc      0         |
   |          4      1   -1.193   2.105     qc      0         |
   |          5      1    0.250   2.105     qc      0         |
   |          6      2   -0.132   2.105     qc      0         |
   |          7      2    0.250   2.105     qc      0         |
   |         loc     3    0.000   2.105     pn      0         |
   | Augmentation charge Rinner = 1.471                       |
   | Partial core correction Rc = 1.471                       |
   | "3|2.1|7|8|9|40U:50:41:42"                               |
   |      Author: Chris J. Pickard, Cambridge University      |

 Atomic calculation performed for Sn:

[...]

 Atomic calculation performed for Sn:

[...]

   | Pseudopotential Report - Date of generation 16-03-2018   |
   | Element: Sn Ionic charge: 14.00 Level of theory: PBE     |
   | Atomic Solver: ZORA (scalar)                             |
   |               Reference Electronic Structure             |
   |         Orbital         Occupation         Energy        |
   |            4d             10.000           -0.950        |
   |            5s              2.000           -0.388        |
   |            5p              2.000           -0.136        |
   |                 Pseudopotential Definition               |
   |        Beta     l      e      Rc     scheme   norm       |
   |          1      0   -0.388   2.199     qc      0         |
   |          2      0    0.250   2.199     qc      0         |
   |          3      1   -0.136   2.199     qc      0         |
   |          4      1    0.250   2.199     qc      0         |
   |          5      2   -0.950   2.199     qc      0         |
   |          6      2    0.250   2.199     qc      0         |
   |         loc     3    0.000   2.199     pn      0         |
   | Augmentation charge Rinner = 1.537                       |
   | Partial core correction Rc = 1.537                       |
   | "3|2.2|7|8|9|50:51:42"                                   |
   |      Author: Chris J. Pickard, Cambridge University      |

 Atomic calculation performed for La:

 Converged in 56 iterations to an ae energy of -230121.495 eV

 Atomic calculation performed for La:

 Exceeded max iterations: converged to 0.000000907 eV

 Warning: ion_atom_descreen_psp: negative charge density encountered
   | Pseudopotential Report - Date of generation 16-03-2018   |
   | Element: La Ionic charge: 11.00 Level of theory: PBE     |
   | Atomic Solver: ZORA (scalar)                             |
   |               Reference Electronic Structure             |
   |         Orbital         Occupation         Energy        |
   |            5s              2.000           -1.430        |
   |            5p              6.000           -0.823        |
   |            6s              2.000           -0.135        |
   |            5d              1.000           -0.114        |
   |                 Pseudopotential Definition               |
   |        Beta     l      e      Rc     scheme   norm       |
   |          1      0   -1.430   2.298     qc      0         |
   |          2      0   -0.135   2.298     qc      0         |
   |          3      0    0.250   2.298     qc      0         |
   |          4      1   -0.823   2.298     qc      0         |
   |          5      1    0.250   2.298     qc      0         |
   |          6      2   -0.114   2.298     qc      0         |
   |          7      2    0.250   2.298     qc      0         |
   |         loc     2    0.000   2.298     pn      0         |
   | Augmentation charge Rinner = 1.606                       |
   | Partial core correction Rc = 1.606                       |
   | "2|2.3|5|6|7|50U:60:51:52(qc=4.5)"                       |
   |      Author: Chris J. Pickard, Cambridge University      |

 Pseudo atomic calculation performed for O 2s2 2p4

 Converged in 39 iterations to a total energy of -432.6554 eV

 Pseudo atomic calculation performed for Zr 4s2 4p6 4d2 5s2

[...]

 Calculation parallelised over 56 processes.
 Data is distributed by G-vector(4-way) and k-point(14-way)

 ************************************ Title ************************************
 nmr testing

 ***************************** General Parameters ******************************

 output verbosity                               : normal  (1)
 write checkpoint data to                       : 049.check
 type of calculation                            : Magnetic Resonance
 stress calculation                             : on
 density difference calculation                 : off
 electron localisation func (ELF) calculation   : off
 Hirshfeld analysis                             : off
 unlimited duration calculation
 timing information                             : on
 write final potential to formatted file        : off
 write final density to formatted file          : off
 write structure in CIF formatted file          : on
 write structure in CELL formatted file         : on
 write BibTeX reference list                    : on
 write OTFG pseudopotential files               : on
 checkpoint writing                             : both castep_bin and check files

 output         length unit                     : A
 output           mass unit                     : amu
 output           time unit                     : ps
 output         charge unit                     : e
 output           spin unit                     : hbar/2
 output         energy unit                     : eV
 output          force unit                     : eV/A
 output       velocity unit                     : A/ps
 output       pressure unit                     : GPa
 output     inv_length unit                     : 1/A
 output      frequency unit                     : cm-1
 output force constant unit                     : eV/A**2
 output         volume unit                     : A**3
 output   IR intensity unit                     : (D/A)**2/amu
 output         dipole unit                     : D
 output         efield unit                     : eV/A/e
 output        entropy unit                     : J/mol/K

 wavefunctions paging                           : none
 random number generator seed                   : randomised (152730216)
 data distribution                              : optimal for this architecture
[...]
  |    O          42      -92.57      89.70      0.08  -3.256E+00   0.12 |
  |    O          43      -89.98      86.30      0.10  -3.247E+00   0.10 |
  |    O          44     -164.99     147.89      0.74   1.020E+00   0.83 |
  |    O          45     -162.79     159.46      0.80   1.118E+00   0.83 |
  |    O          46     -161.29     135.76      0.78   1.065E+00   0.64 |
  |    O          47      -86.97      81.77      0.05  -3.239E+00   0.11 |
  |    O          48      -85.61      85.06      0.26  -3.135E+00   0.11 |
  |    O          49      -86.97      81.77      0.05  -3.239E+00   0.11 |
  |    O          50      -85.61      85.06      0.26  -3.135E+00   0.11 |
  |    O          51     -161.29     135.76      0.78   1.065E+00   0.64 |
  |    O          52     -162.79     159.46      0.80   1.118E+00   0.83 |
  |    O          53      -90.73      80.38      0.10  -3.217E+00   0.11 |
  |    O          54     -164.92     155.68      0.80   1.014E+00   0.93 |
  |    O          55      -90.73      80.38      0.10  -3.217E+00   0.11 |
  |    O          56     -164.92     155.67      0.80   1.014E+00   0.93 |
  |    Zr          1     1632.88    -128.60      0.20  -3.897E+01   0.17 |
  |    Zr          2     1609.26    -115.48      0.03  -3.799E+01   0.04 |
  |    Zr          3     1609.26    -115.48      0.03  -3.799E+01   0.04 |
  |    Zr          4     1624.13    -122.82      0.12  -3.888E+01   0.04 |
[...]
  |    La          2     4703.19     749.06      0.04  -8.138E+01   0.07 |
  |    La          3     4703.19     749.06      0.04  -8.138E+01   0.07 |
  |    La          4     4704.68     766.11      0.05  -8.357E+01   0.12 |
  |    La          5     4657.73     629.27      0.01  -7.861E+01   0.03 |
  |    La          6     4657.73     629.26      0.01  -7.861E+01   0.03 |
  |    La          7     4796.83     970.04      0.01  -8.737E+01   0.03 |
  |    La          8     4617.48     518.29      0.07  -7.815E+01   0.11 |
  |    La          9     4704.31     750.68      0.03  -8.160E+01   0.07 |
  |    La         10     4704.30     750.67      0.03  -8.160E+01   0.07 |
  |    La         11     4652.45     633.96      0.01  -7.736E+01   0.02 |
  |    La         12     4652.44     633.96      0.01  -7.736E+01   0.02 |
  |    La         13     4751.35     874.73      0.05  -8.566E+01   0.09 |
  |    La         14     4663.62     654.75      0.09  -8.169E+01   0.16 |
  |    La         15     4663.62     654.74      0.09  -8.169E+01   0.16 |
  |    La         16     4751.35     874.74      0.05  -8.566E+01   0.09 |

 *********************** Forces ***********************
 *            Cartesian components (eV/A)             *
 *                   x            y            z      *
 * O         1      0.00820     -0.00123      0.00043 *
 * O         2     -0.00027      0.00446     -0.00170 *
 * O         3      0.01481      0.00186      0.00301 *
 * O         4      0.00489     -0.00214     -0.00581 *
 * O         5     -0.01477     -0.00302     -0.00186 *
 * O         6     -0.00819     -0.00039      0.00123 *
 * O         7      0.00032      0.00168     -0.00438 *
 * O         8     -0.00489      0.00578      0.00213 *
 * O         9      0.01517      0.00646      0.00525 *
 * O        10     -0.02078      0.00174     -0.00619 *
 * O        11      0.00577      0.01589     -0.00939 *
 * O        12      0.00358     -0.00039      0.00209 *
 * O        13     -0.00495      0.00574     -0.00860 *
 * O        14     -0.00049      0.00777      0.00116 *
 * O        15      0.00533      0.00337     -0.01639 *
 * O        16     -0.02397     -0.00192     -0.02884 *
 * O        17     -0.02012     -0.01676      0.00293 *
 * O        18     -0.00713      0.01266     -0.00489 *
 * O        19     -0.00224     -0.00199     -0.01730 *
 * O        20      0.00106      0.01349      0.01194 *
 * O        21      0.00711      0.00491     -0.01263 *
 * O        22      0.02008     -0.00292      0.01676 *
 * O        23     -0.00105     -0.01196     -0.01347 *
 * O        24      0.00224      0.01735      0.00197 *
 * O        25     -0.00578      0.00938     -0.01586 *
 * O        26     -0.00358     -0.00206      0.00042 *
 * O        27     -0.01516     -0.00523     -0.00643 *
 * O        28      0.02074      0.00619     -0.00171 *
 * O        29      0.02389      0.02878      0.00190 *
 * O        30     -0.00529      0.01639     -0.00337 *
 * O        31      0.00050     -0.00120     -0.00776 *
 * O        32      0.00496      0.00862     -0.00575 *
 * O        33      0.01559     -0.00638      0.01853 *
 * O        34     -0.00065      0.00276      0.00535 *
 * O        35     -0.00206      0.00028     -0.00302 *
 * O        36      0.02194     -0.00402      0.02958 *
 * O        37      0.01408     -0.01581      0.00532 *
 * O        38     -0.01008     -0.00993     -0.00822 *
 * O        39     -0.01407     -0.00532      0.01577 *
 * O        40      0.01009      0.00822      0.00994 *
 * O        41      0.00064     -0.00537     -0.00279 *
 * O        42     -0.01558     -0.01850      0.00636 *
 * O        43     -0.02190     -0.02952      0.00402 *
 * O        44      0.00210      0.00303     -0.00029 *
 * O        45      0.01228     -0.00767     -0.00322 *
 * O        46      0.00382      0.00268      0.00837 *
 * O        47     -0.01846      0.01186     -0.01341 *
 * O        48      0.00352      0.01148     -0.00253 *
 * O        49      0.01844      0.01341     -0.01188 *
 * O        50     -0.00356      0.00254     -0.01152 *
 * O        51     -0.00384     -0.00838     -0.00266 *
 * O        52     -0.01228      0.00321      0.00764 *
 * O        53      0.01921     -0.01811      0.01193 *
 * O        54      0.00354     -0.00463     -0.01352 *
 * O        55     -0.01920     -0.01192      0.01809 *
 * O        56     -0.00357      0.01353      0.00462 *
 * Zr        1      0.00005      0.01224     -0.01216 *
 * Zr        2      0.00180      0.01360     -0.00781 *
 * Zr        3     -0.00178      0.00784     -0.01362 *
 * Zr        4      0.00478     -0.01842      0.01321 *
[...]
 * La        2      0.01901     -0.00553      0.01376 *
 * La        3     -0.01902     -0.01372      0.00552 *
 * La        4      0.00000     -0.00189      0.00193 *
 * La        5     -0.01247     -0.01117     -0.01834 *
 * La        6      0.01251      0.01834      0.01116 *
 * La        7     -0.00004     -0.01861      0.01860 *
 * La        8      0.00000     -0.00126      0.00127 *
 * La        9     -0.00029      0.00958      0.01001 *
 * La       10      0.00039     -0.01000     -0.00954 *
 * La       11      0.00228     -0.00175     -0.00311 *
 * La       12     -0.00220      0.00303      0.00185 *
 * La       13      0.02071     -0.01144     -0.00411 *
 * La       14     -0.01085     -0.00414     -0.01161 *
 * La       15      0.01077      0.01169      0.00411 *
 * La       16     -0.02081      0.00409      0.01141 *

 ***************** Stress Tensor *****************
 *          Cartesian components (GPa)           *
 *             x             y             z     *
 *  x      0.075025     -0.001892     -0.001957  *
 *  y     -0.001892      0.024454     -0.048444  *
 *  z     -0.001957     -0.048444      0.024484  *
 *  Pressure:   -0.0413                          *

[...]

 Pseudo atomic calculation performed for Sn 4d10 5s2 5p2

[...]

 Pseudo atomic calculation performed for La 5s2 5p6 5d1 6s2

 Converged in 34 iterations to a total energy of -968.0372 eV

Charge spilling parameter for spin component 1 = 0.23%

     Atomic Populations (Mulliken)
Species   Ion     s      p      d      f     Total  Charge (e)
  O        1     1.87   5.00   0.00   0.00   6.87    -0.87
  O        2     1.87   5.00   0.00   0.00   6.87    -0.87
  O        3     1.87   5.00   0.00   0.00   6.87    -0.87
  O        4     1.87   5.00   0.00   0.00   6.87    -0.87
  O        5     1.87   5.00   0.00   0.00   6.87    -0.87
  O        6     1.87   5.00   0.00   0.00   6.87    -0.87
  O        7     1.87   5.00   0.00   0.00   6.87    -0.87
  O        8     1.87   5.00   0.00   0.00   6.87    -0.87
  O        9     1.86   4.94   0.00   0.00   6.80    -0.80
  O       10     1.86   4.94   0.00   0.00   6.80    -0.80
  O       11     1.87   4.98   0.00   0.00   6.85    -0.85
  O       12     1.88   5.02   0.00   0.00   6.91    -0.91
  O       13     1.88   5.02   0.00   0.00   6.91    -0.91
  O       14     1.86   4.94   0.00   0.00   6.80    -0.80
  O       15     1.87   4.99   0.00   0.00   6.85    -0.85
  O       16     1.87   4.99   0.00   0.00   6.85    -0.85
  O       17     1.87   4.99   0.00   0.00   6.85    -0.85
  O       18     1.88   5.02   0.00   0.00   6.91    -0.91
  O       19     1.86   4.94   0.00   0.00   6.80    -0.80
  O       20     1.86   4.94   0.00   0.00   6.80    -0.80
  O       21     1.88   5.02   0.00   0.00   6.91    -0.91
  O       22     1.87   4.99   0.00   0.00   6.85    -0.85
  O       23     1.86   4.94   0.00   0.00   6.80    -0.80
  O       24     1.86   4.94   0.00   0.00   6.80    -0.80
  O       25     1.87   4.99   0.00   0.00   6.85    -0.85
  O       26     1.88   5.02   0.00   0.00   6.91    -0.91
  O       27     1.86   4.94   0.00   0.00   6.80    -0.80
  O       28     1.86   4.94   0.00   0.00   6.80    -0.80
  O       29     1.87   4.99   0.00   0.00   6.85    -0.85
  O       30     1.87   4.99   0.00   0.00   6.85    -0.85
  O       31     1.86   4.94   0.00   0.00   6.80    -0.80
  O       32     1.88   5.02   0.00   0.00   6.91    -0.91
  O       33     1.87   4.99   0.00   0.00   6.86    -0.86
  O       34     1.88   5.02   0.00   0.00   6.91    -0.91
  O       35     1.86   4.94   0.00   0.00   6.80    -0.80
  O       36     1.87   4.99   0.00   0.00   6.86    -0.86
  O       37     1.87   4.99   0.00   0.00   6.85    -0.85
  O       38     1.86   4.94   0.00   0.00   6.80    -0.80
  O       39     1.87   4.99   0.00   0.00   6.85    -0.85
  O       40     1.86   4.94   0.00   0.00   6.80    -0.80
  O       41     1.88   5.02   0.00   0.00   6.91    -0.91
  O       42     1.87   4.99   0.00   0.00   6.86    -0.86
  O       43     1.87   4.99   0.00   0.00   6.86    -0.86
  O       44     1.86   4.94   0.00   0.00   6.80    -0.80
  O       45     1.85   4.95   0.00   0.00   6.80    -0.80
  O       46     1.86   4.95   0.00   0.00   6.80    -0.80
  O       47     1.87   4.99   0.00   0.00   6.86    -0.86
  O       48     1.87   4.99   0.00   0.00   6.85    -0.85
  O       49     1.87   4.99   0.00   0.00   6.86    -0.86
  O       50     1.87   4.99   0.00   0.00   6.85    -0.85
  O       51     1.86   4.94   0.00   0.00   6.80    -0.80
  O       52     1.85   4.95   0.00   0.00   6.80    -0.80
  O       53     1.87   4.99   0.00   0.00   6.86    -0.86
  O       54     1.86   4.94   0.00   0.00   6.80    -0.80
  O       55     1.87   4.99   0.00   0.00   6.86    -0.86
  O       56     1.86   4.94   0.00   0.00   6.80    -0.80
  Zr       1     2.37   6.48   1.93   0.00  10.78     1.22
  Zr       2     2.37   6.49   1.92   0.00  10.78     1.22
  Zr       3     2.37   6.49   1.92   0.00  10.78     1.22
  Zr       4     2.37   6.48   1.93   0.00  10.77     1.23
[...]
  La       2     2.07   6.16   1.19   0.00   9.43     1.57
  La       3     2.07   6.16   1.19   0.00   9.43     1.57
  La       4     2.04   6.16   1.19   0.00   9.39     1.61
  La       5     2.09   6.18   1.19   0.00   9.46     1.54
  La       6     2.09   6.18   1.19   0.00   9.46     1.54
  La       7     2.00   6.13   1.20   0.00   9.33     1.67
  La       8     2.10   6.20   1.19   0.00   9.49     1.51
  La       9     2.07   6.16   1.19   0.00   9.42     1.58
  La      10     2.07   6.16   1.19   0.00   9.42     1.58
  La      11     2.08   6.18   1.19   0.00   9.45     1.55
  La      12     2.08   6.18   1.19   0.00   9.45     1.55
  La      13     2.02   6.14   1.19   0.00   9.36     1.64
  La      14     2.08   6.18   1.19   0.00   9.45     1.55
  La      15     2.08   6.18   1.19   0.00   9.45     1.55
  La      16     2.02   6.14   1.19   0.00   9.36     1.64

            Bond              Population      Length (A)
         O 42 -- Sn 4              0.35        2.09995
         O 33 -- Sn 3              0.35        2.09995
         O 43 -- Sn 5              0.35        2.10064
         O 36 -- Sn 6              0.35        2.10065
         O 47 -- Sn 1              0.35        2.10199
         O 49 -- Sn 1              0.35        2.10199
         O 29 -- Sn 5              0.35        2.10454
         O 16 -- Sn 6              0.35        2.10454
         O 37 -- Sn 1              0.35        2.10500
         O 39 -- Sn 1              0.35        2.10500
         O 55 -- Sn 2              0.34        2.10516
         O 53 -- Sn 2              0.34        2.10516
         O 15 -- Sn 3              0.34        2.10764
         O 30 -- Sn 4              0.34        2.10765
         O 22 -- Sn 5              0.34        2.10946
         O 17 -- Sn 6              0.34        2.10946
         O 32 -- Sn 3              0.34        2.10973
         O 13 -- Sn 4              0.34        2.10973
         O 13 -- Sn 5              0.34        2.11033
         O 32 -- Sn 6              0.34        2.11034
         O 48 -- Sn 3              0.34        2.11051
         O 50 -- Sn 4              0.34        2.11051
         O 45 -- Zr 10             0.42        2.11118
         O 52 -- Zr 9              0.42        2.11118
         O 28 -- Zr 4              0.42        2.11132
         O 10 -- Zr 5              0.42        2.11132
         O 18 -- Sn 4              0.34        2.11200
         O 21 -- Sn 3              0.34        2.11200
         O 52 -- Zr 1              0.42        2.11215
         O 45 -- Zr 1              0.42        2.11215
         O 25 -- Sn 4              0.35        2.11270
         O 11 -- Sn 3              0.35        2.11270
         O 36 -- Zr 3              0.44        2.11354
         O 43 -- Zr 2              0.44        2.11355
         O 18 -- Sn 2              0.34        2.11418
         O 21 -- Sn 2              0.34        2.11419
         O 26 -- Sn 2              0.33        2.11451
         O 12 -- Sn 2              0.33        2.11451
         O 28 -- Zr 8              0.42        2.11507
         O 10 -- Zr 7              0.42        2.11508
         O 27 -- Zr 10             0.43        2.11518
         O 9  -- Zr 9              0.43        2.11518
         O 9  -- Zr 6              0.43        2.11545
         O 27 -- Zr 6              0.43        2.11546
         O 19 -- Zr 8              0.43        2.11549
         O 24 -- Zr 7              0.43        2.11549
         O 33 -- Zr 3              0.44        2.11598
         O 42 -- Zr 2              0.44        2.11598
         O 12 -- Sn 5              0.33        2.11607
         O 26 -- Sn 6              0.33        2.11607
         O 16 -- Zr 5              0.45        2.11714
         O 29 -- Zr 4              0.45        2.11714
         O 41 -- Sn 6              0.33        2.11789
         O 34 -- Sn 5              0.33        2.11789
         O 31 -- Zr 5              0.43        2.11881
         O 14 -- Zr 4              0.43        2.11881
         O 54 -- Zr 7              0.43        2.11892
         O 56 -- Zr 8              0.43        2.11893
         O 20 -- Zr 6              0.43        2.11911
         O 23 -- Zr 6              0.43        2.11911
[...]
         O 16 -- O 51             -0.03        2.82814
         O 29 -- O 46             -0.03        2.82814
         O 16 -- O 31             -0.03        2.82836
         O 14 -- O 29             -0.03        2.82837
         O 47 -- O 51             -0.03        2.82957
         O 46 -- O 49             -0.03        2.82957
         O 46 -- O 53             -0.03        2.82970
         O 51 -- O 55             -0.03        2.82971
         O 15 -- O 31             -0.03        2.83309
         O 14 -- O 30             -0.03        2.83309
         O 11 -- O 37             -0.03        2.83703
         O 25 -- O 39             -0.03        2.83704
         O 17 -- O 25             -0.03        2.83900
         O 11 -- O 22             -0.03        2.83900
         O 48 -- O 50             -0.03        2.84128

Writing analysis data to 049.castep_bin

Writing model to 049.check

 A BibTeX formatted list of references used in this run has been written to
 049.bib

Initialisation time =     54.27 s
Calculation time    =  33701.73 s
Finalisation time   =     38.47 s
Total time          =  33794.47 s

Overall parallel efficiency rating: Good (78%)

Data was distributed by:-
G-vector (4-way); efficiency rating: Very good (80%)
k-point (14-way); efficiency rating: Excellent (98%)