 Compiled for linux_x86_64_ifort16 on Sat, 23 Jul 2016 23:44:54 +0100
 from code version
 203e84763863+ Castep161_branch Fri, 04 Mar 2016 19:21:07 +0000
 Compiler: Intel Fortran 16.0.3.210; Optimisation: fast
 MATHLIBS: Intel MKL(11.3.3) (LAPACK version 3.6.0)
 FFT Lib : mkl
 Fundamental constants values: CODATA 2010

 Run started: Thu, 15 Mar 2018 02:01:51 +0000
 |           N   N    M   M    RRRR                |
 |           NN  N    MM MM    R   R               |
 |           N N N    M M M    RRRR                |
 |           N  NN    M   M    R  R                |
 |           N   N    M   M    R   R               |
 | Welcome to Materials Studio CASTEP-NMR          |
 | Authors:                                        |
 | J.R. Yates, C.J. Pickard, F. Mauri              |
 | Contributors:                                   |
 | T.F.G. Green, S.A. Joyce                        |
 | Copyright (c) 2004 - 2015                       |
 | Please cite the appropriate publications in all |
 | work arising from your use of CASTEP NMR.       |
 | For NMR Shielding Tensors cite:                 |
 |    "All-electron magnetic response with         |
 |    pseudopotentials: NMR chemical shifts",      |
 |    C. J. Pickard, F. Mauri;                     |
 |    Physical Review B63 245101 (2001), and       |
 |    "Calculation of NMR Chemical Shifts          |
 |    for extended systems using                   |
 |    Ultrasoft Pseudopotentials",                 |
 |    J. R. Yates, C. J. Pickard and F. Mauri      |
 |    Physical Review B76 024401 (2007)            |
 | For Electric Field Gradients cite:              |
 |   "Accurate First Principles Prediction of 17O  |
 |    NMR Parameters in SiO2: Assignment of the    |
 |    Zeolite Ferrierite Spectrum"                 |
 |    M. Profeta, F. Mauri and C. J. Pickard       |
 |    J. Amer. Chem. Soc. 125 541 (2003)           |
 | For Spin-Spin (J) Couplings cite:               |
 |   "A first principles theory of NMR J-coupling  |
 |   in solid-state systems"                       |
 |   S.A. Joyce, J.R. Yates, C.J. Pickard, F. Mauri|
 |   J. Chem. Phys. 127 204107 (2007)              |
 |   "Relativistic NMR J-coupling with ultrasoft   |
 |   pseudopotentials and the zeroth-order regular |
 |   approximation"                                |
 |   T.F.G. Green and J.R. Yates                   |
 |   J. Chem. Phys. 140 234106 (2014)              |

 Atomic calculation performed for O: 1s2 2s2 2p4

 Converged in 44 iterations to an ae energy of -2040.855 eV

 Atomic calculation performed for O: 1s2 2s2 2p4

 Exceeded max iterations: converged to 0.000000062 eV

   | Pseudopotential Report - Date of generation 15-03-2018   |
   | Element: O Ionic charge:  6.00 Level of theory: PBE      |
   | Atomic Solver: ZORA (scalar)                             |
   |               Reference Electronic Structure             |
   |         Orbital         Occupation         Energy        |
   |            2s              2.000           -0.881        |
   |            2p              4.000           -0.332        |
   |                 Pseudopotential Definition               |
   |        Beta     l      e      Rc     scheme   norm       |
   |          1      0   -0.881   1.100     qc      0         |
   |          2      0    0.250   1.100     qc      0         |
   |          3      1   -0.332   1.100     qc      0         |
   |          4      1    0.250   1.100     qc      0         |
   |         loc     2    0.000   1.100     pn      0         |
   | Augmentation charge Rinner = 0.769                       |
   | Partial core correction Rc = 0.769                       |
   | "2|1.1|15|18|20|20:21(qc=7)"                             |
   |      Author: Chris J. Pickard, Cambridge University      |

 Atomic calculation performed for Zr: 1s2 2s2 2p6 3s2 3p6 3d10 4s2 4p6 4d2 5s2

[...]

 Atomic calculation performed for Zr: 1s2 2s2 2p6 3s2 3p6 3d10 4s2 4p6 4d2 5s2

[...]

 Warning: ion_atom_descreen_psp: negative charge density encountered
   | Pseudopotential Report - Date of generation 15-03-2018   |
   | Element: Zr Ionic charge: 12.00 Level of theory: PBE     |
   | Atomic Solver: ZORA (scalar)                             |
   |               Reference Electronic Structure             |
   |         Orbital         Occupation         Energy        |
   |            4s              2.000           -2.003        |
   |            4p              6.000           -1.193        |
   |            5s              2.000           -0.163        |
   |            4d              2.000           -0.132        |
   |                 Pseudopotential Definition               |
   |        Beta     l      e      Rc     scheme   norm       |
   |          1      0   -2.003   2.105     qc      0         |
   |          2      0   -0.163   2.105     qc      0         |
   |          3      0    0.250   2.105     qc      0         |
   |          4      1   -1.193   2.105     qc      0         |
   |          5      1    0.250   2.105     qc      0         |
   |          6      2   -0.132   2.105     qc      0         |
   |          7      2    0.250   2.105     qc      0         |
   |         loc     3    0.000   2.105     pn      0         |
   | Augmentation charge Rinner = 1.471                       |
   | Partial core correction Rc = 1.471                       |
   | "3|2.1|7|8|9|40U:50:41:42"                               |
   |      Author: Chris J. Pickard, Cambridge University      |

 Atomic calculation performed for Sn:

[...]

 Atomic calculation performed for Sn:

[...]

   | Pseudopotential Report - Date of generation 15-03-2018   |
   | Element: Sn Ionic charge: 14.00 Level of theory: PBE     |
   | Atomic Solver: ZORA (scalar)                             |
   |               Reference Electronic Structure             |
   |         Orbital         Occupation         Energy        |
   |            4d             10.000           -0.950        |
   |            5s              2.000           -0.388        |
   |            5p              2.000           -0.136        |
   |                 Pseudopotential Definition               |
   |        Beta     l      e      Rc     scheme   norm       |
   |          1      0   -0.388   2.199     qc      0         |
   |          2      0    0.250   2.199     qc      0         |
   |          3      1   -0.136   2.199     qc      0         |
   |          4      1    0.250   2.199     qc      0         |
   |          5      2   -0.950   2.199     qc      0         |
   |          6      2    0.250   2.199     qc      0         |
   |         loc     3    0.000   2.199     pn      0         |
   | Augmentation charge Rinner = 1.537                       |
   | Partial core correction Rc = 1.537                       |
   | "3|2.2|7|8|9|50:51:42"                                   |
   |      Author: Chris J. Pickard, Cambridge University      |

 Atomic calculation performed for La:

 Converged in 56 iterations to an ae energy of -230121.495 eV

 Atomic calculation performed for La:

 Exceeded max iterations: converged to 0.000000907 eV

 Warning: ion_atom_descreen_psp: negative charge density encountered
   | Pseudopotential Report - Date of generation 15-03-2018   |
   | Element: La Ionic charge: 11.00 Level of theory: PBE     |
   | Atomic Solver: ZORA (scalar)                             |
   |               Reference Electronic Structure             |
   |         Orbital         Occupation         Energy        |
   |            5s              2.000           -1.430        |
   |            5p              6.000           -0.823        |
   |            6s              2.000           -0.135        |
   |            5d              1.000           -0.114        |
   |                 Pseudopotential Definition               |
   |        Beta     l      e      Rc     scheme   norm       |
   |          1      0   -1.430   2.298     qc      0         |
   |          2      0   -0.135   2.298     qc      0         |
   |          3      0    0.250   2.298     qc      0         |
   |          4      1   -0.823   2.298     qc      0         |
   |          5      1    0.250   2.298     qc      0         |
   |          6      2   -0.114   2.298     qc      0         |
   |          7      2    0.250   2.298     qc      0         |
   |         loc     2    0.000   2.298     pn      0         |
   | Augmentation charge Rinner = 1.606                       |
   | Partial core correction Rc = 1.606                       |
   | "2|2.3|5|6|7|50U:60:51:52(qc=4.5)"                       |
   |      Author: Chris J. Pickard, Cambridge University      |

 Pseudo atomic calculation performed for O 2s2 2p4

 Converged in 39 iterations to a total energy of -432.6554 eV

 Pseudo atomic calculation performed for Zr 4s2 4p6 4d2 5s2

[...]

 Calculation parallelised over 56 processes.
 Data is distributed by G-vector(4-way) and k-point(14-way)

 ************************************ Title ************************************
 nmr testing

 ***************************** General Parameters ******************************

 output verbosity                               : normal  (1)
 write checkpoint data to                       : 052.check
 type of calculation                            : Magnetic Resonance
 stress calculation                             : on
 density difference calculation                 : off
 electron localisation func (ELF) calculation   : off
 Hirshfeld analysis                             : off
 unlimited duration calculation
 timing information                             : on
 write final potential to formatted file        : off
 write final density to formatted file          : off
 write structure in CIF formatted file          : on
 write structure in CELL formatted file         : on
 write BibTeX reference list                    : on
 write OTFG pseudopotential files               : on
 checkpoint writing                             : both castep_bin and check files

 output         length unit                     : A
 output           mass unit                     : amu
 output           time unit                     : ps
 output         charge unit                     : e
 output           spin unit                     : hbar/2
 output         energy unit                     : eV
 output          force unit                     : eV/A
 output       velocity unit                     : A/ps
 output       pressure unit                     : GPa
 output     inv_length unit                     : 1/A
 output      frequency unit                     : cm-1
 output force constant unit                     : eV/A**2
 output         volume unit                     : A**3
 output   IR intensity unit                     : (D/A)**2/amu
 output         dipole unit                     : D
 output         efield unit                     : eV/A/e
 output        entropy unit                     : J/mol/K

 wavefunctions paging                           : none
 random number generator seed                   : randomised (20153533)
 data distribution                              : optimal for this architecture
[...]
  |    O          42      -89.95      93.42      0.22  -3.180E+00   0.10 |
  |    O          43      -89.52      88.20      0.09  -3.181E+00   0.07 |
  |    O          44     -165.71     156.38      0.74   1.022E+00   0.98 |
  |    O          45      -86.07      95.18      0.29  -3.201E+00   0.10 |
  |    O          46     -162.27     144.77      0.77   1.057E+00   0.72 |
  |    O          47      -85.29      73.23      0.11  -3.210E+00   0.12 |
  |    O          48     -162.82     153.97      0.87   1.071E+00   0.80 |
  |    O          49      -90.49      90.05      0.17  -3.222E+00   0.12 |
  |    O          50      -87.73      84.76      0.10  -3.134E+00   0.09 |
  |    O          51     -161.82     147.12      0.82   1.073E+00   0.71 |
  |    O          52     -163.71     158.42      0.79   1.082E+00   0.84 |
  |    O          53      -84.28      81.10      0.17  -3.190E+00   0.12 |
  |    O          54     -161.29     146.03      0.84   1.081E+00   0.73 |
  |    O          55      -90.54      85.10      0.15  -3.237E+00   0.12 |
  |    O          56      -89.86      77.13      0.08  -3.209E+00   0.12 |
  |    Zr          1     1627.97    -127.13      0.20  -3.778E+01   0.14 |
  |    Zr          2     1613.68    -119.41      0.08  -3.687E+01   0.05 |
  |    Zr          3     1628.99    -123.61      0.07  -3.981E+01   0.06 |
  |    Zr          4     1609.67    -115.21      0.10  -3.778E+01   0.06 |
[...]
  |    La          2     4699.51     758.72      0.05  -8.048E+01   0.08 |
  |    La          3     4664.18     654.43      0.09  -8.140E+01   0.13 |
  |    La          4     4755.38     866.43      0.04  -8.647E+01   0.06 |
  |    La          5     4652.48     668.22      0.10  -7.857E+01   0.14 |
  |    La          6     4708.36     748.34      0.04  -8.360E+01   0.09 |
  |    La          7     4755.28     861.71      0.05  -8.596E+01   0.08 |
  |    La          8     4609.60     547.36      0.09  -7.714E+01   0.21 |
  |    La          9     4601.76     519.62      0.09  -7.461E+01   0.07 |
  |    La         10     4751.27     868.78      0.05  -8.497E+01   0.07 |
  |    La         11     4650.66     635.88      0.01  -7.761E+01   0.04 |
  |    La         12     4706.21     782.44      0.12  -8.308E+01   0.14 |
  |    La         13     4748.92     877.02      0.05  -8.364E+01   0.06 |
  |    La         14     4713.81     737.59      0.03  -8.408E+01   0.08 |
  |    La         15     4710.92     749.06      0.04  -8.330E+01   0.10 |
  |    La         16     4656.15     657.93      0.10  -8.018E+01   0.13 |

 *********************** Forces ***********************
 *            Cartesian components (eV/A)             *
 *                   x            y            z      *
 * O         1      0.00158     -0.00372     -0.00335 *
 * O         2     -0.00455     -0.00315      0.00195 *
 * O         3      0.00134      0.00551      0.00155 *
 * O         4     -0.00343      0.00346     -0.00292 *
 * O         5     -0.00403     -0.00384     -0.00255 *
 * O         6      0.00007      0.00168     -0.00234 *
 * O         7      0.00082     -0.00404     -0.00303 *
 * O         8      0.00147      0.00157     -0.00260 *
 * O         9      0.00663     -0.01059     -0.00666 *
 * O        10     -0.00774     -0.00490     -0.00255 *
 * O        11      0.00950     -0.00493      0.00642 *
 * O        12     -0.00591      0.00433      0.00083 *
 * O        13      0.00320     -0.00699     -0.00019 *
 * O        14      0.01011      0.00712     -0.00434 *
 * O        15     -0.00858     -0.00679      0.00499 *
 * O        16      0.00635      0.00155     -0.00053 *
 * O        17      0.00058     -0.00203     -0.00179 *
 * O        18      0.00239      0.00238      0.00319 *
 * O        19     -0.00265      0.00532      0.00653 *
 * O        20      0.00271      0.00391     -0.00621 *
 * O        21      0.00039     -0.01339     -0.00178 *
 * O        22     -0.00506      0.00739     -0.00094 *
 * O        23      0.00905     -0.00910      0.00478 *
 * O        24     -0.00450      0.01197      0.00590 *
 * O        25     -0.01601      0.00490     -0.00361 *
 * O        26      0.00413      0.00100     -0.00441 *
 * O        27      0.00641      0.00639      0.00233 *
 * O        28      0.00060      0.00411     -0.00563 *
 * O        29      0.00727      0.01072      0.00534 *
 * O        30     -0.00356      0.00093     -0.00528 *
 * O        31      0.00486      0.00025      0.00055 *
 * O        32     -0.00464     -0.00387      0.00036 *
 * O        33      0.00529     -0.00096      0.00736 *
 * O        34      0.00655     -0.00498     -0.00134 *
 * O        35     -0.00196     -0.01376     -0.00524 *
 * O        36     -0.00122     -0.00639      0.00755 *
 * O        37     -0.00246     -0.00603     -0.00496 *
 * O        38      0.00194      0.00121     -0.00540 *
 * O        39     -0.00672      0.01261      0.00234 *
 * O        40     -0.00561     -0.00029     -0.00081 *
 * O        41     -0.00497      0.00131      0.00129 *
 * O        42     -0.00236     -0.00369     -0.00175 *
 * O        43     -0.00106     -0.00517     -0.01422 *
 * O        44      0.00190     -0.00614     -0.00993 *
 * O        45      0.00061      0.01166      0.00539 *
 * O        46      0.00840      0.00482     -0.00437 *
 * O        47      0.00315     -0.00457      0.00123 *
 * O        48     -0.00282      0.00039     -0.00035 *
 * O        49      0.00561      0.00733     -0.00152 *
 * O        50     -0.00483      0.00975     -0.00137 *
 * O        51     -0.00341     -0.00366     -0.00048 *
 * O        52     -0.00706      0.00039      0.01055 *
 * O        53      0.00346      0.00103     -0.00628 *
 * O        54     -0.00344     -0.00261      0.00220 *
 * O        55     -0.00292     -0.01050     -0.00047 *
 * O        56     -0.00072     -0.00105      0.00501 *
 * Zr        1      0.00279     -0.00023      0.00150 *
 * Zr        2     -0.00521     -0.00132      0.01072 *
 * Zr        3      0.01399      0.00637      0.01357 *
 * Zr        4      0.01607      0.01688      0.00134 *
[...]
 * La        2      0.01078      0.00902      0.01775 *
 * La        3     -0.00829     -0.00033      0.00484 *
 * La        4     -0.01660     -0.00564     -0.00123 *
 * La        5      0.00267     -0.00563     -0.01567 *
 * La        6      0.01907      0.00432     -0.00412 *
 * La        7      0.01840      0.00712     -0.00121 *
 * La        8     -0.00343     -0.00427     -0.00586 *
 * La        9      0.00003     -0.00691     -0.00132 *
 * La       10     -0.00838     -0.01160      0.00298 *
 * La       11     -0.01356      0.00900      0.00247 *
 * La       12     -0.00542      0.00588     -0.00461 *
 * La       13      0.00091     -0.00872      0.00577 *
 * La       14     -0.01082     -0.01799      0.00230 *
 * La       15      0.00770      0.01777     -0.00211 *
 * La       16     -0.00065      0.00256      0.00041 *

 ***************** Stress Tensor *****************
 *          Cartesian components (GPa)           *
 *             x             y             z     *
 *  x      0.009836     -0.006906     -0.004519  *
 *  y     -0.006906      0.021209      0.002652  *
 *  z     -0.004519      0.002652     -0.033391  *
 *  Pressure:    0.0008                          *

[...]

 Pseudo atomic calculation performed for Sn 4d10 5s2 5p2

[...]

 Pseudo atomic calculation performed for La 5s2 5p6 5d1 6s2

 Converged in 34 iterations to a total energy of -968.0372 eV

Charge spilling parameter for spin component 1 = 0.23%

     Atomic Populations (Mulliken)
Species   Ion     s      p      d      f     Total  Charge (e)
  O        1     1.87   5.00   0.00   0.00   6.87    -0.87
  O        2     1.87   5.00   0.00   0.00   6.87    -0.87
  O        3     1.87   5.00   0.00   0.00   6.87    -0.87
  O        4     1.87   5.00   0.00   0.00   6.87    -0.87
  O        5     1.87   5.00   0.00   0.00   6.87    -0.87
  O        6     1.87   5.00   0.00   0.00   6.87    -0.87
  O        7     1.87   5.00   0.00   0.00   6.87    -0.87
  O        8     1.87   5.00   0.00   0.00   6.87    -0.87
  O        9     1.86   4.94   0.00   0.00   6.80    -0.80
  O       10     1.86   4.94   0.00   0.00   6.80    -0.80
  O       11     1.87   4.99   0.00   0.00   6.85    -0.85
  O       12     1.88   5.02   0.00   0.00   6.91    -0.91
  O       13     1.88   5.02   0.00   0.00   6.91    -0.91
  O       14     1.86   4.95   0.00   0.00   6.80    -0.80
  O       15     1.87   4.99   0.00   0.00   6.85    -0.85
  O       16     1.86   4.95   0.00   0.00   6.80    -0.80
  O       17     1.86   4.95   0.00   0.00   6.80    -0.80
  O       18     1.88   5.02   0.00   0.00   6.91    -0.91
  O       19     1.88   5.02   0.00   0.00   6.91    -0.91
  O       20     1.86   4.94   0.00   0.00   6.80    -0.80
  O       21     1.87   4.98   0.00   0.00   6.85    -0.85
  O       22     1.88   5.02   0.00   0.00   6.91    -0.91
  O       23     1.86   4.95   0.00   0.00   6.80    -0.80
  O       24     1.86   4.94   0.00   0.00   6.80    -0.80
  O       25     1.87   4.99   0.00   0.00   6.85    -0.85
  O       26     1.87   4.99   0.00   0.00   6.85    -0.85
  O       27     1.87   4.99   0.00   0.00   6.85    -0.85
  O       28     1.87   4.99   0.00   0.00   6.86    -0.86
  O       29     1.87   4.99   0.00   0.00   6.86    -0.86
  O       30     1.87   4.99   0.00   0.00   6.85    -0.85
  O       31     1.87   4.99   0.00   0.00   6.85    -0.85
  O       32     1.86   4.95   0.00   0.00   6.80    -0.80
  O       33     1.86   4.94   0.00   0.00   6.80    -0.80
  O       34     1.88   5.02   0.00   0.00   6.91    -0.91
  O       35     1.87   4.98   0.00   0.00   6.85    -0.85
  O       36     1.86   4.95   0.00   0.00   6.80    -0.80
  O       37     1.88   5.02   0.00   0.00   6.91    -0.91
  O       38     1.86   4.94   0.00   0.00   6.80    -0.80
  O       39     1.87   4.99   0.00   0.00   6.85    -0.85
  O       40     1.86   4.94   0.00   0.00   6.80    -0.80
  O       41     1.87   4.99   0.00   0.00   6.85    -0.85
  O       42     1.87   4.99   0.00   0.00   6.86    -0.86
  O       43     1.87   4.99   0.00   0.00   6.86    -0.86
  O       44     1.85   4.94   0.00   0.00   6.80    -0.80
  O       45     1.87   4.99   0.00   0.00   6.85    -0.85
  O       46     1.86   4.94   0.00   0.00   6.80    -0.80
  O       47     1.87   4.99   0.00   0.00   6.85    -0.85
  O       48     1.86   4.95   0.00   0.00   6.80    -0.80
  O       49     1.87   4.99   0.00   0.00   6.86    -0.86
  O       50     1.87   4.98   0.00   0.00   6.85    -0.85
  O       51     1.86   4.95   0.00   0.00   6.80    -0.80
  O       52     1.86   4.95   0.00   0.00   6.80    -0.80
  O       53     1.87   4.99   0.00   0.00   6.85    -0.85
  O       54     1.86   4.95   0.00   0.00   6.80    -0.80
  O       55     1.87   4.99   0.00   0.00   6.86    -0.86
  O       56     1.87   4.99   0.00   0.00   6.85    -0.85
  Zr       1     2.37   6.49   1.92   0.00  10.78     1.22
  Zr       2     2.37   6.50   1.92   0.00  10.79     1.21
  Zr       3     2.37   6.47   1.93   0.00  10.77     1.23
  Zr       4     2.37   6.49   1.92   0.00  10.78     1.22
[...]
  La       2     2.08   6.16   1.19   0.00   9.43     1.57
  La       3     2.08   6.18   1.19   0.00   9.45     1.55
  La       4     2.02   6.15   1.19   0.00   9.37     1.63
  La       5     2.10   6.17   1.19   0.00   9.46     1.54
  La       6     2.06   6.17   1.19   0.00   9.42     1.58
  La       7     2.02   6.15   1.19   0.00   9.36     1.64
  La       8     2.11   6.19   1.19   0.00   9.49     1.51
  La       9     2.12   6.19   1.19   0.00   9.50     1.50
  La      10     2.02   6.14   1.19   0.00   9.36     1.64
  La      11     2.11   6.17   1.19   0.00   9.47     1.53
  La      12     2.04   6.16   1.19   0.00   9.40     1.60
  La      13     2.03   6.14   1.19   0.00   9.36     1.64
  La      14     2.06   6.17   1.19   0.00   9.42     1.58
  La      15     2.04   6.17   1.19   0.00   9.40     1.60
  La      16     2.09   6.18   1.19   0.00   9.45     1.55

            Bond              Population      Length (A)
         O 49 -- Sn 1              0.35        2.09935
         O 27 -- Sn 6              0.35        2.10054
         O 45 -- Sn 6              0.35        2.10097
         O 28 -- Sn 3              0.35        2.10149
         O 55 -- Sn 2              0.35        2.10153
         O 42 -- Sn 4              0.35        2.10236
         O 15 -- Sn 6              0.35        2.10263
         O 30 -- Sn 4              0.34        2.10281
         O 53 -- Sn 2              0.34        2.10349
         O 18 -- Sn 4              0.34        2.10419
         O 18 -- Sn 2              0.34        2.10494
         O 29 -- Sn 5              0.35        2.10539
         O 47 -- Sn 1              0.34        2.10626
         O 43 -- Sn 5              0.35        2.10637
         O 37 -- Sn 1              0.34        2.10751
         O 31 -- Sn 6              0.34        2.10756
         O 11 -- Sn 3              0.35        2.10807
         O 56 -- Sn 3              0.34        2.10808
         O 37 -- Sn 3              0.33        2.10908
         O 26 -- Sn 2              0.34        2.10936
         O 41 -- Sn 1              0.34        2.10952
         O 39 -- Sn 1              0.35        2.10970
         O 25 -- Sn 4              0.35        2.11043
         O 34 -- Sn 5              0.33        2.11057
         O 12 -- Sn 5              0.33        2.11083
         O 35 -- Sn 6              0.34        2.11085
         O 36 -- Zr 3              0.42        2.11184
         O 21 -- Sn 2              0.35        2.11200
         O 23 -- Zr 5              0.42        2.11238
         O 34 -- Sn 1              0.33        2.11250
         O 24 -- Zr 9              0.43        2.11261
         O 13 -- Sn 5              0.33        2.11266
         O 13 -- Sn 4              0.34        2.11273
         O 50 -- Sn 4              0.34        2.11277
         O 12 -- Sn 2              0.33        2.11296
         O 19 -- Sn 3              0.33        2.11334
         O 36 -- Zr 10             0.42        2.11367
         O 16 -- Zr 10             0.42        2.11422
         O 48 -- Zr 8              0.42        2.11431
         O 52 -- Zr 1              0.43        2.11434
         O 10 -- Zr 5              0.42        2.11453
         O 19 -- Sn 6              0.33        2.11457
         O 49 -- Zr 4              0.44        2.11503
         O 22 -- Sn 3              0.34        2.11515
         O 52 -- Zr 9              0.42        2.11549
         O 22 -- Sn 5              0.33        2.11572
         O 40 -- Zr 6              0.43        2.11595
         O 45 -- Zr 1              0.45        2.11614
         O 23 -- Zr 6              0.42        2.11631
         O 17 -- Zr 7              0.42        2.11648
         O 9  -- Zr 9              0.43        2.11653
         O 33 -- Zr 8              0.43        2.11661
         O 24 -- Zr 7              0.43        2.11662
         O 33 -- Zr 3              0.42        2.11664
         O 16 -- Zr 5              0.42        2.11701
         O 29 -- Zr 4              0.44        2.11715
         O 44 -- Zr 9              0.44        2.11725
         O 42 -- Zr 2              0.44        2.11742
         O 48 -- Zr 1              0.41        2.11776
         O 44 -- Zr 3              0.44        2.11834
[...]
         O 17 -- O 26             -0.03        2.82947
         O 20 -- O 27             -0.03        2.82990
         O 54 -- O 56             -0.03        2.83031
         O 14 -- O 30             -0.03        2.83063
         O 21 -- O 48             -0.03        2.83088
         O 14 -- O 29             -0.03        2.83092
         O 48 -- O 50             -0.03        2.83109
         O 39 -- O 54             -0.03        2.83116
         O 46 -- O 53             -0.03        2.83161
         O 17 -- O 25             -0.03        2.83161
         O 43 -- O 51             -0.03        2.83167
         O 11 -- O 21             -0.03        2.83371
         O 11 -- O 32             -0.03        2.83499
         O 25 -- O 39             -0.03        2.83607
         O 35 -- O 43             -0.03        2.83714

Writing analysis data to 052.castep_bin

Writing model to 052.check

 A BibTeX formatted list of references used in this run has been written to
 052.bib

Initialisation time =     54.52 s
Calculation time    =  33431.46 s
Finalisation time   =     34.84 s
Total time          =  33520.83 s

Overall parallel efficiency rating: Good (78%)

Data was distributed by:-
G-vector (4-way); efficiency rating: Good (79%)
k-point (14-way); efficiency rating: Excellent (99%)