 Compiled for linux_x86_64_ifort16 on Sat, 23 Jul 2016 23:44:54 +0100
 from code version
 203e84763863+ Castep161_branch Fri, 04 Mar 2016 19:21:07 +0000
 Compiler: Intel Fortran 16.0.3.210; Optimisation: fast
 MATHLIBS: Intel MKL(11.3.3) (LAPACK version 3.6.0)
 FFT Lib : mkl
 Fundamental constants values: CODATA 2010

 Run started: Thu, 15 Mar 2018 11:20:49 +0000
 |           N   N    M   M    RRRR                |
 |           NN  N    MM MM    R   R               |
 |           N N N    M M M    RRRR                |
 |           N  NN    M   M    R  R                |
 |           N   N    M   M    R   R               |
 | Welcome to Materials Studio CASTEP-NMR          |
 | Authors:                                        |
 | J.R. Yates, C.J. Pickard, F. Mauri              |
 | Contributors:                                   |
 | T.F.G. Green, S.A. Joyce                        |
 | Copyright (c) 2004 - 2015                       |
 | Please cite the appropriate publications in all |
 | work arising from your use of CASTEP NMR.       |
 | For NMR Shielding Tensors cite:                 |
 |    "All-electron magnetic response with         |
 |    pseudopotentials: NMR chemical shifts",      |
 |    C. J. Pickard, F. Mauri;                     |
 |    Physical Review B63 245101 (2001), and       |
 |    "Calculation of NMR Chemical Shifts          |
 |    for extended systems using                   |
 |    Ultrasoft Pseudopotentials",                 |
 |    J. R. Yates, C. J. Pickard and F. Mauri      |
 |    Physical Review B76 024401 (2007)            |
 | For Electric Field Gradients cite:              |
 |   "Accurate First Principles Prediction of 17O  |
 |    NMR Parameters in SiO2: Assignment of the    |
 |    Zeolite Ferrierite Spectrum"                 |
 |    M. Profeta, F. Mauri and C. J. Pickard       |
 |    J. Amer. Chem. Soc. 125 541 (2003)           |
 | For Spin-Spin (J) Couplings cite:               |
 |   "A first principles theory of NMR J-coupling  |
 |   in solid-state systems"                       |
 |   S.A. Joyce, J.R. Yates, C.J. Pickard, F. Mauri|
 |   J. Chem. Phys. 127 204107 (2007)              |
 |   "Relativistic NMR J-coupling with ultrasoft   |
 |   pseudopotentials and the zeroth-order regular |
 |   approximation"                                |
 |   T.F.G. Green and J.R. Yates                   |
 |   J. Chem. Phys. 140 234106 (2014)              |

 Atomic calculation performed for O: 1s2 2s2 2p4

 Converged in 44 iterations to an ae energy of -2040.855 eV

 Atomic calculation performed for O: 1s2 2s2 2p4

 Exceeded max iterations: converged to 0.000000062 eV

   | Pseudopotential Report - Date of generation 15-03-2018   |
   | Element: O Ionic charge:  6.00 Level of theory: PBE      |
   | Atomic Solver: ZORA (scalar)                             |
   |               Reference Electronic Structure             |
   |         Orbital         Occupation         Energy        |
   |            2s              2.000           -0.881        |
   |            2p              4.000           -0.332        |
   |                 Pseudopotential Definition               |
   |        Beta     l      e      Rc     scheme   norm       |
   |          1      0   -0.881   1.100     qc      0         |
   |          2      0    0.250   1.100     qc      0         |
   |          3      1   -0.332   1.100     qc      0         |
   |          4      1    0.250   1.100     qc      0         |
   |         loc     2    0.000   1.100     pn      0         |
   | Augmentation charge Rinner = 0.769                       |
   | Partial core correction Rc = 0.769                       |
   | "2|1.1|15|18|20|20:21(qc=7)"                             |
   |      Author: Chris J. Pickard, Cambridge University      |

 Atomic calculation performed for Zr: 1s2 2s2 2p6 3s2 3p6 3d10 4s2 4p6 4d2 5s2

[...]

 Atomic calculation performed for Zr: 1s2 2s2 2p6 3s2 3p6 3d10 4s2 4p6 4d2 5s2

[...]

 Warning: ion_atom_descreen_psp: negative charge density encountered
   | Pseudopotential Report - Date of generation 15-03-2018   |
   | Element: Zr Ionic charge: 12.00 Level of theory: PBE     |
   | Atomic Solver: ZORA (scalar)                             |
   |               Reference Electronic Structure             |
   |         Orbital         Occupation         Energy        |
   |            4s              2.000           -2.003        |
   |            4p              6.000           -1.193        |
   |            5s              2.000           -0.163        |
   |            4d              2.000           -0.132        |
   |                 Pseudopotential Definition               |
   |        Beta     l      e      Rc     scheme   norm       |
   |          1      0   -2.003   2.105     qc      0         |
   |          2      0   -0.163   2.105     qc      0         |
   |          3      0    0.250   2.105     qc      0         |
   |          4      1   -1.193   2.105     qc      0         |
   |          5      1    0.250   2.105     qc      0         |
   |          6      2   -0.132   2.105     qc      0         |
   |          7      2    0.250   2.105     qc      0         |
   |         loc     3    0.000   2.105     pn      0         |
   | Augmentation charge Rinner = 1.471                       |
   | Partial core correction Rc = 1.471                       |
   | "3|2.1|7|8|9|40U:50:41:42"                               |
   |      Author: Chris J. Pickard, Cambridge University      |

 Atomic calculation performed for Sn:

[...]

 Atomic calculation performed for Sn:

[...]

   | Pseudopotential Report - Date of generation 15-03-2018   |
   | Element: Sn Ionic charge: 14.00 Level of theory: PBE     |
   | Atomic Solver: ZORA (scalar)                             |
   |               Reference Electronic Structure             |
   |         Orbital         Occupation         Energy        |
   |            4d             10.000           -0.950        |
   |            5s              2.000           -0.388        |
   |            5p              2.000           -0.136        |
   |                 Pseudopotential Definition               |
   |        Beta     l      e      Rc     scheme   norm       |
   |          1      0   -0.388   2.199     qc      0         |
   |          2      0    0.250   2.199     qc      0         |
   |          3      1   -0.136   2.199     qc      0         |
   |          4      1    0.250   2.199     qc      0         |
   |          5      2   -0.950   2.199     qc      0         |
   |          6      2    0.250   2.199     qc      0         |
   |         loc     3    0.000   2.199     pn      0         |
   | Augmentation charge Rinner = 1.537                       |
   | Partial core correction Rc = 1.537                       |
   | "3|2.2|7|8|9|50:51:42"                                   |
   |      Author: Chris J. Pickard, Cambridge University      |

 Atomic calculation performed for La:

 Converged in 56 iterations to an ae energy of -230121.495 eV

 Atomic calculation performed for La:

 Exceeded max iterations: converged to 0.000000907 eV

 Warning: ion_atom_descreen_psp: negative charge density encountered
   | Pseudopotential Report - Date of generation 15-03-2018   |
   | Element: La Ionic charge: 11.00 Level of theory: PBE     |
   | Atomic Solver: ZORA (scalar)                             |
   |               Reference Electronic Structure             |
   |         Orbital         Occupation         Energy        |
   |            5s              2.000           -1.430        |
   |            5p              6.000           -0.823        |
   |            6s              2.000           -0.135        |
   |            5d              1.000           -0.114        |
   |                 Pseudopotential Definition               |
   |        Beta     l      e      Rc     scheme   norm       |
   |          1      0   -1.430   2.298     qc      0         |
   |          2      0   -0.135   2.298     qc      0         |
   |          3      0    0.250   2.298     qc      0         |
   |          4      1   -0.823   2.298     qc      0         |
   |          5      1    0.250   2.298     qc      0         |
   |          6      2   -0.114   2.298     qc      0         |
   |          7      2    0.250   2.298     qc      0         |
   |         loc     2    0.000   2.298     pn      0         |
   | Augmentation charge Rinner = 1.606                       |
   | Partial core correction Rc = 1.606                       |
   | "2|2.3|5|6|7|50U:60:51:52(qc=4.5)"                       |
   |      Author: Chris J. Pickard, Cambridge University      |

 Pseudo atomic calculation performed for O 2s2 2p4

 Converged in 39 iterations to a total energy of -432.6554 eV

 Pseudo atomic calculation performed for Zr 4s2 4p6 4d2 5s2

[...]

 Calculation parallelised over 56 processes.
 Data is distributed by G-vector(4-way) and k-point(14-way)

 ************************************ Title ************************************
 nmr testing

 ***************************** General Parameters ******************************

 output verbosity                               : normal  (1)
 write checkpoint data to                       : 053.check
 type of calculation                            : Magnetic Resonance
 stress calculation                             : on
 density difference calculation                 : off
 electron localisation func (ELF) calculation   : off
 Hirshfeld analysis                             : off
 unlimited duration calculation
 timing information                             : on
 write final potential to formatted file        : off
 write final density to formatted file          : off
 write structure in CIF formatted file          : on
 write structure in CELL formatted file         : on
 write BibTeX reference list                    : on
 write OTFG pseudopotential files               : on
 checkpoint writing                             : both castep_bin and check files

 output         length unit                     : A
 output           mass unit                     : amu
 output           time unit                     : ps
 output         charge unit                     : e
 output           spin unit                     : hbar/2
 output         energy unit                     : eV
 output          force unit                     : eV/A
 output       velocity unit                     : A/ps
 output       pressure unit                     : GPa
 output     inv_length unit                     : 1/A
 output      frequency unit                     : cm-1
 output force constant unit                     : eV/A**2
 output         volume unit                     : A**3
 output   IR intensity unit                     : (D/A)**2/amu
 output         dipole unit                     : D
 output         efield unit                     : eV/A/e
 output        entropy unit                     : J/mol/K

 wavefunctions paging                           : none
 random number generator seed                   : randomised (112051129)
 data distribution                              : optimal for this architecture
[...]
  |    O          42     -164.72     156.64      0.82   1.072E+00   0.87 |
  |    O          43     -159.87     147.11      0.81   1.100E+00   0.70 |
  |    O          44     -164.10     151.63      0.75   1.084E+00   0.78 |
  |    O          45      -89.52      87.35      0.15  -3.269E+00   0.12 |
  |    O          46     -163.37     142.55      0.78   1.023E+00   0.74 |
  |    O          47      -91.82      86.36      0.19  -3.207E+00   0.13 |
  |    O          48      -92.34      79.22      0.13  -3.217E+00   0.12 |
  |    O          49      -85.74      82.35      0.20  -3.263E+00   0.11 |
  |    O          50     -162.36     141.67      0.79   1.048E+00   0.72 |
  |    O          51     -160.00     145.79      0.82   1.095E+00   0.70 |
  |    O          52     -164.08     151.03      0.75   1.085E+00   0.77 |
  |    O          53      -89.59      89.31      0.15  -3.268E+00   0.11 |
  |    O          54     -163.54     141.66      0.78   1.020E+00   0.74 |
  |    O          55      -87.39      75.14      0.10  -3.180E+00   0.12 |
  |    O          56      -89.85      80.31      0.13  -3.259E+00   0.12 |
  |    Zr          1     1609.87    -116.24      0.10  -3.787E+01   0.10 |
  |    Zr          2     1633.36    -129.63      0.12  -3.872E+01   0.12 |
  |    Zr          3     1608.96    -116.09      0.11  -3.800E+01   0.10 |
  |    Zr          4     1623.38    -122.42      0.14  -3.881E+01   0.10 |
[...]
  |    La          2     4654.90     622.55      0.01  -7.882E+01   0.02 |
  |    La          3     4704.86     779.10      0.11  -8.280E+01   0.13 |
  |    La          4     4754.71     861.08      0.05  -8.654E+01   0.09 |
  |    La          5     4656.84     657.50      0.10  -8.021E+01   0.16 |
  |    La          6     4704.04     756.94      0.03  -8.233E+01   0.07 |
  |    La          7     4755.16     863.66      0.05  -8.664E+01   0.09 |
  |    La          8     4609.74     510.00      0.09  -7.535E+01   0.07 |
  |    La          9     4656.81     656.48      0.10  -8.013E+01   0.16 |
  |    La         10     4701.62     763.44      0.04  -8.074E+01   0.08 |
  |    La         11     4748.62     874.74      0.05  -8.348E+01   0.05 |
  |    La         12     4609.58     509.59      0.09  -7.542E+01   0.07 |
  |    La         13     4704.31     757.34      0.03  -8.227E+01   0.08 |
  |    La         14     4669.74     613.38      0.01  -8.102E+01   0.03 |
  |    La         15     4755.74     870.89      0.04  -8.710E+01   0.09 |
  |    La         16     4701.52     763.01      0.04  -8.070E+01   0.08 |

 *********************** Forces ***********************
 *            Cartesian components (eV/A)             *
 *                   x            y            z      *
 * O         1      0.00457      0.00335     -0.00325 *
 * O         2     -0.00212     -0.00403     -0.00616 *
 * O         3      0.00250     -0.00289      0.00283 *
 * O         4     -0.00213     -0.00693     -0.00371 *
 * O         5     -0.00394      0.00028     -0.00326 *
 * O         6      0.00259      0.00338      0.00399 *
 * O         7     -0.00636      0.00055      0.00827 *
 * O         8     -0.00344      0.00559      0.00010 *
 * O         9      0.00619      0.00609     -0.00151 *
 * O        10     -0.02243     -0.00995     -0.00084 *
 * O        11     -0.00590      0.00488     -0.00213 *
 * O        12     -0.00034      0.01645      0.01402 *
 * O        13     -0.00890      0.00199     -0.01616 *
 * O        14      0.00236     -0.00143     -0.00455 *
 * O        15     -0.00205     -0.00142     -0.00060 *
 * O        16     -0.01490     -0.00139     -0.02429 *
 * O        17     -0.03226     -0.02831     -0.00430 *
 * O        18     -0.02776      0.02665     -0.00049 *
 * O        19     -0.00758      0.00177      0.00037 *
 * O        20      0.00431      0.02076      0.01076 *
 * O        21     -0.00073      0.00403     -0.00276 *
 * O        22     -0.01866     -0.00210     -0.01099 *
 * O        23     -0.01646     -0.01010     -0.00187 *
 * O        24     -0.00646      0.00759     -0.00687 *
 * O        25     -0.00473     -0.01685     -0.00860 *
 * O        26     -0.00460      0.00313     -0.00537 *
 * O        27      0.00047     -0.02722     -0.02221 *
 * O        28      0.00213      0.02181     -0.01322 *
 * O        29      0.01380      0.01280     -0.00844 *
 * O        30     -0.00460     -0.00547      0.00662 *
 * O        31      0.01108     -0.01937     -0.00491 *
 * O        32     -0.00620     -0.00504     -0.00974 *
 * O        33      0.00916     -0.01454      0.02352 *
 * O        34     -0.01086     -0.01719     -0.00735 *
 * O        35      0.01966     -0.00270     -0.01718 *
 * O        36      0.03380     -0.00170      0.02499 *
 * O        37      0.00163     -0.00538      0.00813 *
 * O        38     -0.00549      0.00123     -0.00865 *
 * O        39     -0.02292     -0.00989      0.02602 *
 * O        40      0.01148      0.00556      0.02400 *
 * O        41      0.00948      0.00323     -0.00268 *
 * O        42     -0.01563     -0.00151     -0.00936 *
 * O        43      0.00527     -0.00848      0.01097 *
 * O        44      0.00634     -0.00536     -0.00613 *
 * O        45      0.01458      0.01414      0.01989 *
 * O        46      0.00567      0.00516      0.01314 *
 * O        47     -0.01327      0.01826     -0.01287 *
 * O        48      0.01361      0.01382      0.00352 *
 * O        49      0.02751      0.01023     -0.01514 *
 * O        50      0.00014     -0.00261     -0.00608 *
 * O        51      0.00759      0.00691     -0.00105 *
 * O        52     -0.00591      0.00169     -0.00685 *
 * O        53      0.02263     -0.01246      0.02187 *
 * O        54     -0.00911     -0.00915     -0.00349 *
 * O        55     -0.01538     -0.00163      0.01818 *
 * O        56      0.01198      0.00622      0.01820 *
 * Zr        1     -0.02238     -0.01593     -0.00768 *
 * Zr        2      0.01033      0.01688     -0.00476 *
 * Zr        3     -0.00506      0.00471     -0.01233 *
 * Zr        4      0.00980     -0.00531     -0.01050 *
[...]
 * La        2     -0.00004      0.01427      0.01700 *
 * La        3      0.00617     -0.00212     -0.01074 *
 * La        4      0.00810      0.00084      0.00722 *
 * La        5     -0.00120     -0.00243     -0.00042 *
 * La        6      0.00257      0.02102      0.02263 *
 * La        7      0.01935      0.00953      0.00115 *
 * La        8     -0.00147     -0.00046     -0.00065 *
 * La        9     -0.00479      0.00100     -0.00438 *
 * La       10     -0.00667     -0.01348     -0.00379 *
 * La       11      0.00118     -0.01269     -0.01279 *
 * La       12     -0.01013      0.00412      0.00911 *
 * La       13      0.00822     -0.00912      0.00503 *
 * La       14     -0.01068     -0.00258     -0.00655 *
 * La       15     -0.00294     -0.00796      0.01618 *
 * La       16      0.00321      0.01027     -0.01382 *

 ***************** Stress Tensor *****************
 *          Cartesian components (GPa)           *
 *             x             y             z     *
 *  x      0.054172      0.025340      0.020002  *
 *  y      0.025340      0.037332     -0.024857  *
 *  z      0.020002     -0.024857      0.042383  *
 *  Pressure:   -0.0446                          *

[...]

 Pseudo atomic calculation performed for Sn 4d10 5s2 5p2

[...]

 Pseudo atomic calculation performed for La 5s2 5p6 5d1 6s2

 Converged in 34 iterations to a total energy of -968.0372 eV

Charge spilling parameter for spin component 1 = 0.23%

     Atomic Populations (Mulliken)
Species   Ion     s      p      d      f     Total  Charge (e)
  O        1     1.87   5.00   0.00   0.00   6.87    -0.87
  O        2     1.87   5.00   0.00   0.00   6.87    -0.87
  O        3     1.87   5.00   0.00   0.00   6.87    -0.87
  O        4     1.87   5.00   0.00   0.00   6.87    -0.87
  O        5     1.87   5.00   0.00   0.00   6.87    -0.87
  O        6     1.87   5.00   0.00   0.00   6.87    -0.87
  O        7     1.87   5.00   0.00   0.00   6.87    -0.87
  O        8     1.87   5.00   0.00   0.00   6.87    -0.87
  O        9     1.85   4.94   0.00   0.00   6.80    -0.80
  O       10     1.86   4.95   0.00   0.00   6.80    -0.80
  O       11     1.88   5.02   0.00   0.00   6.91    -0.91
  O       12     1.87   4.98   0.00   0.00   6.85    -0.85
  O       13     1.86   4.94   0.00   0.00   6.80    -0.80
  O       14     1.86   4.94   0.00   0.00   6.80    -0.80
  O       15     1.88   5.02   0.00   0.00   6.91    -0.91
  O       16     1.87   4.99   0.00   0.00   6.86    -0.86
  O       17     1.87   4.99   0.00   0.00   6.85    -0.85
  O       18     1.87   4.99   0.00   0.00   6.85    -0.85
  O       19     1.88   5.02   0.00   0.00   6.91    -0.91
  O       20     1.86   4.94   0.00   0.00   6.80    -0.80
  O       21     1.88   5.02   0.00   0.00   6.91    -0.91
  O       22     1.87   4.99   0.00   0.00   6.86    -0.86
  O       23     1.86   4.94   0.00   0.00   6.80    -0.80
  O       24     1.86   4.94   0.00   0.00   6.80    -0.80
  O       25     1.86   4.94   0.00   0.00   6.80    -0.80
  O       26     1.88   5.02   0.00   0.00   6.91    -0.91
  O       27     1.87   4.99   0.00   0.00   6.85    -0.85
  O       28     1.87   4.99   0.00   0.00   6.85    -0.85
  O       29     1.86   4.95   0.00   0.00   6.80    -0.80
  O       30     1.85   4.94   0.00   0.00   6.80    -0.80
  O       31     1.87   4.98   0.00   0.00   6.85    -0.85
  O       32     1.88   5.02   0.00   0.00   6.91    -0.91
  O       33     1.87   4.99   0.00   0.00   6.86    -0.86
  O       34     1.87   4.99   0.00   0.00   6.85    -0.85
  O       35     1.87   4.98   0.00   0.00   6.85    -0.85
  O       36     1.87   4.99   0.00   0.00   6.86    -0.86
  O       37     1.88   5.02   0.00   0.00   6.90    -0.90
  O       38     1.86   4.94   0.00   0.00   6.80    -0.80
  O       39     1.87   4.99   0.00   0.00   6.86    -0.86
  O       40     1.86   4.94   0.00   0.00   6.80    -0.80
  O       41     1.88   5.02   0.00   0.00   6.90    -0.90
  O       42     1.86   4.94   0.00   0.00   6.80    -0.80
  O       43     1.86   4.95   0.00   0.00   6.80    -0.80
  O       44     1.86   4.94   0.00   0.00   6.80    -0.80
  O       45     1.87   4.99   0.00   0.00   6.86    -0.86
  O       46     1.86   4.94   0.00   0.00   6.80    -0.80
  O       47     1.87   4.99   0.00   0.00   6.85    -0.85
  O       48     1.87   4.99   0.00   0.00   6.86    -0.86
  O       49     1.87   4.99   0.00   0.00   6.85    -0.85
  O       50     1.86   4.94   0.00   0.00   6.80    -0.80
  O       51     1.86   4.95   0.00   0.00   6.80    -0.80
  O       52     1.86   4.94   0.00   0.00   6.80    -0.80
  O       53     1.87   4.99   0.00   0.00   6.86    -0.86
  O       54     1.86   4.94   0.00   0.00   6.80    -0.80
  O       55     1.87   4.98   0.00   0.00   6.85    -0.85
  O       56     1.87   4.99   0.00   0.00   6.86    -0.86
  Zr       1     2.37   6.49   1.92   0.00  10.78     1.22
  Zr       2     2.37   6.47   1.93   0.00  10.77     1.23
  Zr       3     2.37   6.49   1.92   0.00  10.78     1.22
  Zr       4     2.37   6.48   1.93   0.00  10.77     1.23
[...]
  La       2     2.09   6.18   1.19   0.00   9.46     1.54
  La       3     2.07   6.16   1.19   0.00   9.42     1.58
  La       4     2.02   6.15   1.19   0.00   9.36     1.64
  La       5     2.09   6.17   1.19   0.00   9.45     1.55
  La       6     2.07   6.16   1.19   0.00   9.43     1.57
  La       7     2.02   6.15   1.19   0.00   9.36     1.64
  La       8     2.11   6.19   1.19   0.00   9.50     1.50
  La       9     2.09   6.17   1.19   0.00   9.45     1.55
  La      10     2.06   6.16   1.19   0.00   9.41     1.59
  La      11     2.03   6.14   1.19   0.00   9.36     1.64
  La      12     2.11   6.19   1.19   0.00   9.50     1.50
  La      13     2.07   6.16   1.19   0.00   9.42     1.58
  La      14     2.08   6.19   1.19   0.00   9.46     1.54
  La      15     2.02   6.15   1.19   0.00   9.36     1.64
  La      16     2.06   6.16   1.19   0.00   9.41     1.59

            Bond              Population      Length (A)
         O 53 -- Sn 2              0.35        2.09773
         O 45 -- Sn 5              0.35        2.09792
         O 49 -- Sn 1              0.35        2.09991
         O 39 -- Sn 1              0.35        2.10013
         O 56 -- Sn 3              0.35        2.10177
         O 36 -- Sn 6              0.35        2.10195
         O 27 -- Sn 5              0.35        2.10555
         O 18 -- Sn 2              0.35        2.10568
         O 48 -- Sn 4              0.35        2.10605
         O 33 -- Sn 4              0.34        2.10644
         O 16 -- Sn 6              0.35        2.10759
         O 47 -- Sn 1              0.34        2.10761
         O 34 -- Sn 1              0.34        2.10778
         O 28 -- Sn 3              0.34        2.10799
         O 17 -- Sn 6              0.34        2.10804
         O 22 -- Sn 3              0.35        2.10871
         O 19 -- Sn 5              0.34        2.10894
         O 26 -- Sn 2              0.34        2.10913
         O 29 -- Zr 4              0.42        2.10918
         O 26 -- Sn 6              0.33        2.10919
         O 19 -- Sn 3              0.33        2.10938
         O 15 -- Sn 4              0.33        2.11059
         O 21 -- Sn 4              0.33        2.11091
         O 55 -- Sn 2              0.34        2.11109
         O 35 -- Sn 5              0.34        2.11139
         O 9  -- Zr 10             0.43        2.11210
         O 10 -- Zr 5              0.41        2.11287
         O 15 -- Sn 5              0.33        2.11295
         O 21 -- Sn 2              0.33        2.11295
         O 13 -- Zr 8              0.42        2.11318
         O 36 -- Zr 3              0.44        2.11331
         O 30 -- Zr 10             0.43        2.11338
         O 10 -- Zr 7              0.41        2.11350
         O 38 -- Zr 2              0.42        2.11364
         O 17 -- Zr 7              0.45        2.11387
         O 12 -- Sn 2              0.34        2.11416
         O 31 -- Sn 5              0.34        2.11438
         O 42 -- Zr 2              0.42        2.11479
         O 53 -- Zr 3              0.44        2.11489
         O 14 -- Zr 4              0.44        2.11492
         O 9  -- Zr 6              0.44        2.11517
         O 52 -- Zr 1              0.44        2.11520
         O 29 -- Zr 9              0.41        2.11526
         O 24 -- Zr 7              0.44        2.11561
         O 32 -- Sn 6              0.34        2.11576
         O 44 -- Zr 3              0.44        2.11599
         O 45 -- Zr 1              0.44        2.11603
         O 42 -- Zr 8              0.42        2.11611
         O 14 -- Zr 10             0.43        2.11647
         O 11 -- Sn 3              0.34        2.11657
         O 30 -- Zr 8              0.44        2.11661
         O 13 -- Zr 9              0.43        2.11687
         O 43 -- Zr 9              0.42        2.11766
         O 11 -- Sn 4              0.34        2.11771
         O 38 -- Zr 6              0.42        2.11786
         O 39 -- Zr 7              0.45        2.11819
         O 32 -- Sn 4              0.34        2.11821
         O 20 -- Zr 6              0.43        2.11872
         O 41 -- Sn 6              0.33        2.11874
         O 28 -- Zr 4              0.45        2.11876
[...]
         O 27 -- O 40             -0.03        2.82759
         O 35 -- O 43             -0.03        2.82762
         O 51 -- O 55             -0.03        2.82763
         O 18 -- O 25             -0.03        2.82847
         O 20 -- O 27             -0.03        2.82889
         O 36 -- O 46             -0.03        2.82957
         O 54 -- O 56             -0.03        2.83019
         O 33 -- O 40             -0.03        2.83102
         O 48 -- O 50             -0.03        2.83201
         O 20 -- O 28             -0.03        2.83343
         O 22 -- O 43             -0.03        2.83369
         O 16 -- O 51             -0.03        2.83391
         O 17 -- O 25             -0.03        2.83396
         O 12 -- O 22             -0.03        2.83590
         O 16 -- O 31             -0.03        2.83630

Writing analysis data to 053.castep_bin

Writing model to 053.check

 A BibTeX formatted list of references used in this run has been written to
 053.bib

Initialisation time =     53.72 s
Calculation time    =  33723.34 s
Finalisation time   =     51.40 s
Total time          =  33828.46 s

Overall parallel efficiency rating: Good (79%)

Data was distributed by:-
G-vector (4-way); efficiency rating: Very good (80%)
k-point (14-way); efficiency rating: Excellent (99%)