 Compiled for linux_x86_64_ifort16 on Sat, 23 Jul 2016 23:44:54 +0100
 from code version
 203e84763863+ Castep161_branch Fri, 04 Mar 2016 19:21:07 +0000
 Compiler: Intel Fortran 16.0.3.210; Optimisation: fast
 MATHLIBS: Intel MKL(11.3.3) (LAPACK version 3.6.0)
 FFT Lib : mkl
 Fundamental constants values: CODATA 2010

 Run started: Sat, 17 Mar 2018 10:13:01 +0000
 |           N   N    M   M    RRRR                |
 |           NN  N    MM MM    R   R               |
 |           N N N    M M M    RRRR                |
 |           N  NN    M   M    R  R                |
 |           N   N    M   M    R   R               |
 | Welcome to Materials Studio CASTEP-NMR          |
 | Authors:                                        |
 | J.R. Yates, C.J. Pickard, F. Mauri              |
 | Contributors:                                   |
 | T.F.G. Green, S.A. Joyce                        |
 | Copyright (c) 2004 - 2015                       |
 | Please cite the appropriate publications in all |
 | work arising from your use of CASTEP NMR.       |
 | For NMR Shielding Tensors cite:                 |
 |    "All-electron magnetic response with         |
 |    pseudopotentials: NMR chemical shifts",      |
 |    C. J. Pickard, F. Mauri;                     |
 |    Physical Review B63 245101 (2001), and       |
 |    "Calculation of NMR Chemical Shifts          |
 |    for extended systems using                   |
 |    Ultrasoft Pseudopotentials",                 |
 |    J. R. Yates, C. J. Pickard and F. Mauri      |
 |    Physical Review B76 024401 (2007)            |
 | For Electric Field Gradients cite:              |
 |   "Accurate First Principles Prediction of 17O  |
 |    NMR Parameters in SiO2: Assignment of the    |
 |    Zeolite Ferrierite Spectrum"                 |
 |    M. Profeta, F. Mauri and C. J. Pickard       |
 |    J. Amer. Chem. Soc. 125 541 (2003)           |
 | For Spin-Spin (J) Couplings cite:               |
 |   "A first principles theory of NMR J-coupling  |
 |   in solid-state systems"                       |
 |   S.A. Joyce, J.R. Yates, C.J. Pickard, F. Mauri|
 |   J. Chem. Phys. 127 204107 (2007)              |
 |   "Relativistic NMR J-coupling with ultrasoft   |
 |   pseudopotentials and the zeroth-order regular |
 |   approximation"                                |
 |   T.F.G. Green and J.R. Yates                   |
 |   J. Chem. Phys. 140 234106 (2014)              |

 Atomic calculation performed for O: 1s2 2s2 2p4

 Converged in 44 iterations to an ae energy of -2040.855 eV

 Atomic calculation performed for O: 1s2 2s2 2p4

 Exceeded max iterations: converged to 0.000000062 eV

   | Pseudopotential Report - Date of generation 17-03-2018   |
   | Element: O Ionic charge:  6.00 Level of theory: PBE      |
   | Atomic Solver: ZORA (scalar)                             |
   |               Reference Electronic Structure             |
   |         Orbital         Occupation         Energy        |
   |            2s              2.000           -0.881        |
   |            2p              4.000           -0.332        |
   |                 Pseudopotential Definition               |
   |        Beta     l      e      Rc     scheme   norm       |
   |          1      0   -0.881   1.100     qc      0         |
   |          2      0    0.250   1.100     qc      0         |
   |          3      1   -0.332   1.100     qc      0         |
   |          4      1    0.250   1.100     qc      0         |
   |         loc     2    0.000   1.100     pn      0         |
   | Augmentation charge Rinner = 0.769                       |
   | Partial core correction Rc = 0.769                       |
   | "2|1.1|15|18|20|20:21(qc=7)"                             |
   |      Author: Chris J. Pickard, Cambridge University      |

 Atomic calculation performed for Zr: 1s2 2s2 2p6 3s2 3p6 3d10 4s2 4p6 4d2 5s2

[...]

 Atomic calculation performed for Zr: 1s2 2s2 2p6 3s2 3p6 3d10 4s2 4p6 4d2 5s2

[...]

 Warning: ion_atom_descreen_psp: negative charge density encountered
   | Pseudopotential Report - Date of generation 17-03-2018   |
   | Element: Zr Ionic charge: 12.00 Level of theory: PBE     |
   | Atomic Solver: ZORA (scalar)                             |
   |               Reference Electronic Structure             |
   |         Orbital         Occupation         Energy        |
   |            4s              2.000           -2.003        |
   |            4p              6.000           -1.193        |
   |            5s              2.000           -0.163        |
   |            4d              2.000           -0.132        |
   |                 Pseudopotential Definition               |
   |        Beta     l      e      Rc     scheme   norm       |
   |          1      0   -2.003   2.105     qc      0         |
   |          2      0   -0.163   2.105     qc      0         |
   |          3      0    0.250   2.105     qc      0         |
   |          4      1   -1.193   2.105     qc      0         |
   |          5      1    0.250   2.105     qc      0         |
   |          6      2   -0.132   2.105     qc      0         |
   |          7      2    0.250   2.105     qc      0         |
   |         loc     3    0.000   2.105     pn      0         |
   | Augmentation charge Rinner = 1.471                       |
   | Partial core correction Rc = 1.471                       |
   | "3|2.1|7|8|9|40U:50:41:42"                               |
   |      Author: Chris J. Pickard, Cambridge University      |

 Atomic calculation performed for Sn:

[...]

 Atomic calculation performed for Sn:

[...]

   | Pseudopotential Report - Date of generation 17-03-2018   |
   | Element: Sn Ionic charge: 14.00 Level of theory: PBE     |
   | Atomic Solver: ZORA (scalar)                             |
   |               Reference Electronic Structure             |
   |         Orbital         Occupation         Energy        |
   |            4d             10.000           -0.950        |
   |            5s              2.000           -0.388        |
   |            5p              2.000           -0.136        |
   |                 Pseudopotential Definition               |
   |        Beta     l      e      Rc     scheme   norm       |
   |          1      0   -0.388   2.199     qc      0         |
   |          2      0    0.250   2.199     qc      0         |
   |          3      1   -0.136   2.199     qc      0         |
   |          4      1    0.250   2.199     qc      0         |
   |          5      2   -0.950   2.199     qc      0         |
   |          6      2    0.250   2.199     qc      0         |
   |         loc     3    0.000   2.199     pn      0         |
   | Augmentation charge Rinner = 1.537                       |
   | Partial core correction Rc = 1.537                       |
   | "3|2.2|7|8|9|50:51:42"                                   |
   |      Author: Chris J. Pickard, Cambridge University      |

 Atomic calculation performed for La:

 Converged in 56 iterations to an ae energy of -230121.495 eV

 Atomic calculation performed for La:

 Exceeded max iterations: converged to 0.000000907 eV

 Warning: ion_atom_descreen_psp: negative charge density encountered
   | Pseudopotential Report - Date of generation 17-03-2018   |
   | Element: La Ionic charge: 11.00 Level of theory: PBE     |
   | Atomic Solver: ZORA (scalar)                             |
   |               Reference Electronic Structure             |
   |         Orbital         Occupation         Energy        |
   |            5s              2.000           -1.430        |
   |            5p              6.000           -0.823        |
   |            6s              2.000           -0.135        |
   |            5d              1.000           -0.114        |
   |                 Pseudopotential Definition               |
   |        Beta     l      e      Rc     scheme   norm       |
   |          1      0   -1.430   2.298     qc      0         |
   |          2      0   -0.135   2.298     qc      0         |
   |          3      0    0.250   2.298     qc      0         |
   |          4      1   -0.823   2.298     qc      0         |
   |          5      1    0.250   2.298     qc      0         |
   |          6      2   -0.114   2.298     qc      0         |
   |          7      2    0.250   2.298     qc      0         |
   |         loc     2    0.000   2.298     pn      0         |
   | Augmentation charge Rinner = 1.606                       |
   | Partial core correction Rc = 1.606                       |
   | "2|2.3|5|6|7|50U:60:51:52(qc=4.5)"                       |
   |      Author: Chris J. Pickard, Cambridge University      |

 Pseudo atomic calculation performed for O 2s2 2p4

 Converged in 39 iterations to a total energy of -432.6554 eV

 Pseudo atomic calculation performed for Zr 4s2 4p6 4d2 5s2

[...]

 Calculation parallelised over 56 processes.
 Data is distributed by G-vector(4-way) and k-point(14-way)

 ************************************ Title ************************************
 nmr testing

 ***************************** General Parameters ******************************

 output verbosity                               : normal  (1)
 write checkpoint data to                       : 057.check
 type of calculation                            : Magnetic Resonance
 stress calculation                             : on
 density difference calculation                 : off
 electron localisation func (ELF) calculation   : off
 Hirshfeld analysis                             : off
 unlimited duration calculation
 timing information                             : on
 write final potential to formatted file        : off
 write final density to formatted file          : off
 write structure in CIF formatted file          : on
 write structure in CELL formatted file         : on
 write BibTeX reference list                    : on
 write OTFG pseudopotential files               : on
 checkpoint writing                             : both castep_bin and check files

 output         length unit                     : A
 output           mass unit                     : amu
 output           time unit                     : ps
 output         charge unit                     : e
 output           spin unit                     : hbar/2
 output         energy unit                     : eV
 output          force unit                     : eV/A
 output       velocity unit                     : A/ps
 output       pressure unit                     : GPa
 output     inv_length unit                     : 1/A
 output      frequency unit                     : cm-1
 output force constant unit                     : eV/A**2
 output         volume unit                     : A**3
 output   IR intensity unit                     : (D/A)**2/amu
 output         dipole unit                     : D
 output         efield unit                     : eV/A/e
 output        entropy unit                     : J/mol/K

 wavefunctions paging                           : none
 random number generator seed                   : randomised (101303622)
 data distribution                              : optimal for this architecture
[...]
  |    O          42      -90.70      89.93      0.14  -3.225E+00   0.13 |
  |    O          43     -163.52     154.78      0.84   1.094E+00   0.78 |
  |    O          44     -162.15     150.59      0.76   1.045E+00   0.79 |
  |    O          45     -163.52     154.77      0.84   1.094E+00   0.78 |
  |    O          46     -162.15     150.59      0.76   1.045E+00   0.79 |
  |    O          47      -90.70      89.93      0.15  -3.225E+00   0.13 |
  |    O          48      -88.51      87.06      0.28  -3.201E+00   0.10 |
  |    O          49      -90.70      89.93      0.15  -3.225E+00   0.13 |
  |    O          50      -88.51      87.06      0.28  -3.201E+00   0.10 |
  |    O          51     -162.15     150.59      0.76   1.045E+00   0.79 |
  |    O          52     -163.52     154.77      0.84   1.094E+00   0.78 |
  |    O          53      -90.70      89.93      0.15  -3.225E+00   0.13 |
  |    O          54      -88.51      87.06      0.28  -3.201E+00   0.10 |
  |    O          55      -90.70      89.93      0.15  -3.225E+00   0.13 |
  |    O          56      -88.51      87.06      0.28  -3.201E+00   0.10 |
  |    Zr          1     1623.01    -127.89      0.18  -3.690E+01   0.18 |
  |    Zr          2     1622.56    -120.62      0.14  -3.900E+01   0.03 |
  |    Zr          3     1622.56    -120.61      0.14  -3.900E+01   0.03 |
  |    Zr          4     1622.55    -120.62      0.14  -3.900E+01   0.03 |
[...]
  |    La          2     4708.56     749.85      0.02  -8.336E+01   0.06 |
  |    La          3     4708.56     749.86      0.02  -8.336E+01   0.06 |
  |    La          4     4706.80     763.76      0.05  -8.281E+01   0.07 |
  |    La          5     4708.56     749.85      0.02  -8.336E+01   0.06 |
  |    La          6     4708.56     749.86      0.02  -8.336E+01   0.06 |
  |    La          7     4706.80     763.76      0.05  -8.281E+01   0.07 |
  |    La          8     4496.50     215.73      0.00  -6.604E+01   0.00 |
  |    La          9     4706.80     763.76      0.05  -8.281E+01   0.07 |
  |    La         10     4706.80     763.77      0.05  -8.281E+01   0.07 |
  |    La         11     4706.80     763.76      0.05  -8.281E+01   0.07 |
  |    La         12     4706.80     763.77      0.05  -8.281E+01   0.07 |
  |    La         13     4700.98     784.42      0.11  -8.122E+01   0.12 |
  |    La         14     4708.56     749.85      0.02  -8.336E+01   0.06 |
  |    La         15     4708.56     749.85      0.02  -8.336E+01   0.06 |
  |    La         16     4700.98     784.42      0.11  -8.122E+01   0.12 |

 *********************** Forces ***********************
 *            Cartesian components (eV/A)             *
 *                   x            y            z      *
 * O         1     -0.01104     -0.00239     -0.00239 *
 * O         2     -0.00239     -0.00239     -0.01104 *
 * O         3      0.00630      0.00630      0.00630 *
 * O         4     -0.00239     -0.01104     -0.00239 *
 * O         5     -0.00630     -0.00630     -0.00630 *
 * O         6      0.01104      0.00239      0.00239 *
 * O         7      0.00239      0.01104      0.00239 *
 * O         8      0.00239      0.00239      0.01104 *
 * O         9      0.01047      0.03111      0.03111 *
 * O        10     -0.01513      0.01153     -0.02112 *
 * O        11     -0.00936      0.00154      0.00154 *
 * O        12      0.00349      0.01927      0.01482 *
 * O        13      0.01927      0.00349      0.01482 *
 * O        14      0.00802      0.00386      0.00802 *
 * O        15      0.01153     -0.01513     -0.02113 *
 * O        16     -0.01076      0.00753     -0.01076 *
 * O        17      0.01927      0.01482      0.00349 *
 * O        18      0.00154      0.00154     -0.00936 *
 * O        19      0.01153     -0.02113     -0.01513 *
 * O        20      0.03111      0.03111      0.01047 *
 * O        21     -0.00154      0.00936     -0.00154 *
 * O        22     -0.01927     -0.00349     -0.01482 *
 * O        23     -0.03111     -0.01047     -0.03112 *
 * O        24     -0.01153      0.01513      0.02113 *
 * O        25      0.00936     -0.00154     -0.00154 *
 * O        26     -0.00349     -0.01482     -0.01927 *
 * O        27     -0.01047     -0.03112     -0.03112 *
 * O        28      0.01513      0.02113     -0.01153 *
 * O        29      0.01076      0.01076     -0.00753 *
 * O        30     -0.01153      0.02113      0.01513 *
 * O        31     -0.00802     -0.00802     -0.00386 *
 * O        32     -0.01927     -0.01482     -0.00349 *
 * O        33      0.01513     -0.01153      0.02113 *
 * O        34     -0.00349     -0.01927     -0.01482 *
 * O        35     -0.00802     -0.00386     -0.00802 *
 * O        36      0.01076     -0.00753      0.01076 *
 * O        37     -0.00154     -0.00154      0.00936 *
 * O        38     -0.03111     -0.03112     -0.01047 *
 * O        39      0.00154     -0.00936      0.00154 *
 * O        40      0.03112      0.01047      0.03112 *
 * O        41      0.00349      0.01482      0.01927 *
 * O        42     -0.01513     -0.02112      0.01153 *
 * O        43     -0.01076     -0.01076      0.00753 *
 * O        44      0.00802      0.00802      0.00386 *
 * O        45      0.00753     -0.01076     -0.01076 *
 * O        46      0.00386      0.00802      0.00802 *
 * O        47     -0.02113      0.01153     -0.01513 *
 * O        48      0.01482      0.01927      0.00349 *
 * O        49      0.02113      0.01513     -0.01153 *
 * O        50     -0.01482     -0.00349     -0.01927 *
 * O        51     -0.00386     -0.00802     -0.00802 *
 * O        52     -0.00753      0.01076      0.01076 *
 * O        53      0.02113     -0.01153      0.01513 *
 * O        54     -0.01482     -0.01927     -0.00349 *
 * O        55     -0.02113     -0.01513      0.01153 *
 * O        56      0.01482      0.00349      0.01927 *
 * Zr        1      0.00000     -0.00000     -0.00000 *
 * Zr        2      0.01924      0.01924      0.01431 *
 * Zr        3     -0.01924     -0.01432     -0.01924 *
 * Zr        4     -0.01924     -0.01924     -0.01431 *
[...]
 * La        2      0.01675      0.01675      0.01827 *
 * La        3     -0.01675     -0.01827     -0.01675 *
 * La        4      0.00000      0.01929     -0.01929 *
 * La        5     -0.01675     -0.01675     -0.01827 *
 * La        6      0.01675      0.01827      0.01675 *
 * La        7      0.00000     -0.01929      0.01929 *
 * La        8      0.00000     -0.00000      0.00000 *
 * La        9     -0.01929      0.01929      0.00000 *
 * La       10      0.01929      0.00000     -0.01929 *
 * La       11      0.01929     -0.01929      0.00000 *
 * La       12     -0.01929      0.00000      0.01929 *
 * La       13      0.00000      0.00000     -0.00000 *
 * La       14     -0.01827     -0.01675     -0.01675 *
 * La       15      0.01827      0.01675      0.01675 *
 * La       16      0.00000     -0.00000      0.00000 *

 ***************** Stress Tensor *****************
 *          Cartesian components (GPa)           *
 *             x             y             z     *
 *  x      0.038041      0.021975      0.021975  *
 *  y      0.021975      0.038040      0.021975  *
 *  z      0.021975      0.021975      0.038041  *
 *  Pressure:   -0.0380                          *

[...]

 Pseudo atomic calculation performed for Sn 4d10 5s2 5p2

[...]

 Pseudo atomic calculation performed for La 5s2 5p6 5d1 6s2

 Converged in 34 iterations to a total energy of -968.0372 eV

Charge spilling parameter for spin component 1 = 0.23%

     Atomic Populations (Mulliken)
Species   Ion     s      p      d      f     Total  Charge (e)
  O        1     1.87   5.00   0.00   0.00   6.87    -0.87
  O        2     1.87   5.00   0.00   0.00   6.87    -0.87
  O        3     1.87   5.00   0.00   0.00   6.87    -0.87
  O        4     1.87   5.00   0.00   0.00   6.87    -0.87
  O        5     1.87   5.00   0.00   0.00   6.87    -0.87
  O        6     1.87   5.00   0.00   0.00   6.87    -0.87
  O        7     1.87   5.00   0.00   0.00   6.87    -0.87
  O        8     1.87   5.00   0.00   0.00   6.87    -0.87
  O        9     1.86   4.94   0.00   0.00   6.80    -0.80
  O       10     1.87   4.99   0.00   0.00   6.85    -0.85
  O       11     1.88   5.02   0.00   0.00   6.91    -0.91
  O       12     1.87   4.99   0.00   0.00   6.85    -0.85
  O       13     1.87   4.99   0.00   0.00   6.85    -0.85
  O       14     1.86   4.94   0.00   0.00   6.80    -0.80
  O       15     1.87   4.99   0.00   0.00   6.85    -0.85
  O       16     1.86   4.95   0.00   0.00   6.80    -0.80
  O       17     1.87   4.99   0.00   0.00   6.85    -0.85
  O       18     1.88   5.02   0.00   0.00   6.91    -0.91
  O       19     1.87   4.99   0.00   0.00   6.85    -0.85
  O       20     1.86   4.94   0.00   0.00   6.80    -0.80
  O       21     1.88   5.02   0.00   0.00   6.91    -0.91
  O       22     1.87   4.99   0.00   0.00   6.85    -0.85
  O       23     1.86   4.94   0.00   0.00   6.80    -0.80
  O       24     1.87   4.99   0.00   0.00   6.85    -0.85
  O       25     1.88   5.02   0.00   0.00   6.91    -0.91
  O       26     1.87   4.99   0.00   0.00   6.85    -0.85
  O       27     1.86   4.94   0.00   0.00   6.80    -0.80
  O       28     1.87   4.99   0.00   0.00   6.85    -0.85
  O       29     1.86   4.95   0.00   0.00   6.80    -0.80
  O       30     1.87   4.99   0.00   0.00   6.85    -0.85
  O       31     1.86   4.94   0.00   0.00   6.80    -0.80
  O       32     1.87   4.99   0.00   0.00   6.85    -0.85
  O       33     1.87   4.99   0.00   0.00   6.85    -0.85
  O       34     1.87   4.99   0.00   0.00   6.85    -0.85
  O       35     1.86   4.94   0.00   0.00   6.80    -0.80
  O       36     1.86   4.95   0.00   0.00   6.80    -0.80
  O       37     1.88   5.02   0.00   0.00   6.91    -0.91
  O       38     1.86   4.94   0.00   0.00   6.80    -0.80
  O       39     1.88   5.02   0.00   0.00   6.91    -0.91
  O       40     1.86   4.94   0.00   0.00   6.80    -0.80
  O       41     1.87   4.99   0.00   0.00   6.85    -0.85
  O       42     1.87   4.99   0.00   0.00   6.85    -0.85
  O       43     1.86   4.95   0.00   0.00   6.80    -0.80
  O       44     1.86   4.94   0.00   0.00   6.80    -0.80
  O       45     1.86   4.95   0.00   0.00   6.80    -0.80
  O       46     1.86   4.94   0.00   0.00   6.80    -0.80
  O       47     1.87   4.99   0.00   0.00   6.85    -0.85
  O       48     1.87   4.99   0.00   0.00   6.85    -0.85
  O       49     1.87   4.99   0.00   0.00   6.85    -0.85
  O       50     1.87   4.99   0.00   0.00   6.85    -0.85
  O       51     1.86   4.94   0.00   0.00   6.80    -0.80
  O       52     1.86   4.95   0.00   0.00   6.80    -0.80
  O       53     1.87   4.99   0.00   0.00   6.85    -0.85
  O       54     1.87   4.99   0.00   0.00   6.85    -0.85
  O       55     1.87   4.99   0.00   0.00   6.85    -0.85
  O       56     1.87   4.99   0.00   0.00   6.85    -0.85
  Zr       1     2.37   6.50   1.92   0.00  10.79     1.21
  Zr       2     2.37   6.48   1.92   0.00  10.78     1.22
  Zr       3     2.37   6.48   1.92   0.00  10.78     1.22
  Zr       4     2.37   6.48   1.92   0.00  10.78     1.22
[...]
  La       2     2.06   6.17   1.19   0.00   9.43     1.57
  La       3     2.06   6.17   1.19   0.00   9.43     1.57
  La       4     2.04   6.16   1.19   0.00   9.39     1.61
  La       5     2.06   6.17   1.19   0.00   9.43     1.57
  La       6     2.06   6.17   1.19   0.00   9.43     1.57
  La       7     2.04   6.16   1.19   0.00   9.39     1.61
  La       8     2.16   6.23   1.19   0.00   9.58     1.42
  La       9     2.04   6.16   1.19   0.00   9.39     1.61
  La      10     2.04   6.16   1.19   0.00   9.39     1.61
  La      11     2.04   6.16   1.19   0.00   9.39     1.61
  La      12     2.04   6.16   1.19   0.00   9.39     1.61
  La      13     2.07   6.15   1.19   0.00   9.41     1.59
  La      14     2.06   6.17   1.19   0.00   9.43     1.57
  La      15     2.06   6.17   1.19   0.00   9.43     1.57
  La      16     2.07   6.15   1.19   0.00   9.41     1.59

            Bond              Population      Length (A)
         O 10 -- Sn 3              0.34        2.10333
         O 42 -- Sn 6              0.34        2.10333
         O 47 -- Sn 1              0.34        2.10333
         O 19 -- Sn 4              0.34        2.10333
         O 55 -- Sn 2              0.34        2.10333
         O 33 -- Sn 5              0.34        2.10333
         O 28 -- Sn 4              0.34        2.10333
         O 53 -- Sn 2              0.34        2.10333
         O 15 -- Sn 5              0.34        2.10333
         O 30 -- Sn 6              0.34        2.10333
         O 24 -- Sn 3              0.34        2.10333
         O 49 -- Sn 1              0.34        2.10333
         O 34 -- Sn 1              0.35        2.10918
         O 41 -- Sn 1              0.35        2.10918
         O 22 -- Sn 4              0.35        2.10918
         O 32 -- Sn 5              0.35        2.10918
         O 48 -- Sn 5              0.35        2.10918
         O 17 -- Sn 3              0.35        2.10918
         O 26 -- Sn 2              0.35        2.10918
         O 54 -- Sn 3              0.35        2.10918
         O 12 -- Sn 2              0.35        2.10918
         O 50 -- Sn 6              0.35        2.10918
         O 56 -- Sn 4              0.35        2.10918
         O 13 -- Sn 6              0.35        2.10918
         O 16 -- Zr 5              0.42        2.11203
         O 45 -- Zr 9              0.42        2.11203
         O 36 -- Zr 3              0.42        2.11203
         O 43 -- Zr 2              0.42        2.11203
         O 52 -- Zr 8              0.42        2.11203
         O 29 -- Zr 4              0.42        2.11203
         O 37 -- Sn 1              0.33        2.11518
         O 25 -- Sn 3              0.33        2.11518
         O 18 -- Sn 2              0.33        2.11518
         O 21 -- Sn 2              0.33        2.11518
         O 11 -- Sn 5              0.33        2.11518
         O 21 -- Sn 5              0.33        2.11518
         O 39 -- Sn 1              0.33        2.11518
         O 39 -- Sn 3              0.33        2.11518
         O 25 -- Sn 6              0.33        2.11518
         O 37 -- Sn 4              0.33        2.11518
         O 11 -- Sn 4              0.33        2.11518
         O 18 -- Sn 6              0.33        2.11518
         O 52 -- Zr 1              0.41        2.11529
         O 45 -- Zr 1              0.41        2.11529
         O 43 -- Zr 7              0.41        2.11529
         O 29 -- Zr 7              0.41        2.11529
         O 36 -- Zr 10             0.41        2.11529
         O 16 -- Zr 10             0.41        2.11529
         O 49 -- Zr 4              0.45        2.11726
         O 24 -- Zr 8              0.45        2.11726
         O 30 -- Zr 8              0.45        2.11726
         O 53 -- Zr 3              0.45        2.11726
         O 15 -- Zr 9              0.45        2.11726
         O 55 -- Zr 2              0.45        2.11726
         O 19 -- Zr 9              0.45        2.11726
         O 28 -- Zr 4              0.45        2.11726
         O 33 -- Zr 3              0.45        2.11726
         O 47 -- Zr 5              0.45        2.11726
         O 42 -- Zr 2              0.45        2.11726
         O 10 -- Zr 5              0.45        2.11726
[...]
         O 16 -- O 51             -0.03        2.82434
         O 44 -- O 52             -0.03        2.82434
         O 14 -- O 52             -0.03        2.82434
         O 43 -- O 51             -0.03        2.82434
         O 29 -- O 46             -0.03        2.82434
         O 36 -- O 46             -0.03        2.82434
         O 36 -- O 44             -0.03        2.82434
         O 35 -- O 43             -0.03        2.82434
         O 14 -- O 29             -0.03        2.82434
         O 17 -- O 26             -0.03        2.83085
         O 48 -- O 50             -0.03        2.83085
         O 12 -- O 22             -0.03        2.83085
         O 54 -- O 56             -0.03        2.83085
         O 13 -- O 34             -0.03        2.83085
         O 32 -- O 41             -0.03        2.83085

Writing analysis data to 057.castep_bin

Writing model to 057.check

 A BibTeX formatted list of references used in this run has been written to
 057.bib

Initialisation time =     55.52 s
Calculation time    =  33482.02 s
Finalisation time   =     39.12 s
Total time          =  33576.66 s

Overall parallel efficiency rating: Good (79%)

Data was distributed by:-
G-vector (4-way); efficiency rating: Very good (80%)
k-point (14-way); efficiency rating: Excellent (99%)