 Run started: Thu, 24 Mar 2022 09:54:10 +0000
 |           N   N    M   M    RRRR                |
 |           NN  N    MM MM    R   R               |
 |           N N N    M M M    RRRR                |
 |           N  NN    M   M    R  R                |
 |           N   N    M   M    R   R               |
 | Welcome to Materials Studio CASTEP-NMR          |
 | Authors:                                        |
 | J.R. Yates, C.J. Pickard, F. Mauri              |
 | Contributors:                                   |
 | T.F.G. Green, S.A. Joyce                        |
 | Copyright (c) 2004 - 2015                       |
 | Please cite the appropriate publications in all |
 | work arising from your use of CASTEP NMR.       |
 | For NMR Shielding Tensors cite:                 |
 |    "All-electron magnetic response with         |
 |    pseudopotentials: NMR chemical shifts",      |
 |    C. J. Pickard, F. Mauri;                     |
 |    Physical Review B63 245101 (2001), and       |
 |    "Calculation of NMR Chemical Shifts          |
 |    for extended systems using                   |
 |    Ultrasoft Pseudopotentials",                 |
 |    J. R. Yates, C. J. Pickard and F. Mauri      |
 |    Physical Review B76 024401 (2007)            |
 | For Electric Field Gradients cite:              |
 |   "Accurate First Principles Prediction of 17O  |
 |    NMR Parameters in SiO2: Assignment of the    |
 |    Zeolite Ferrierite Spectrum"                 |
 |    M. Profeta, F. Mauri and C. J. Pickard       |
 |    J. Amer. Chem. Soc. 125 541 (2003)           |
 | For Spin-Spin (J) Couplings cite:               |
 |   "A first principles theory of NMR J-coupling  |
 |   in solid-state systems"                       |
 |   S.A. Joyce, J.R. Yates, C.J. Pickard, F. Mauri|
 |   J. Chem. Phys. 127 204107 (2007)              |
 |   "Relativistic NMR J-coupling with ultrasoft   |
 |   pseudopotentials and the zeroth-order regular |
 |   approximation"                                |
 |   T.F.G. Green and J.R. Yates                   |
 |   J. Chem. Phys. 140 234106 (2014)              |

 Atomic calculation performed for O: 1s2 2s2 2p4

 Converged in 44 iterations to an ae energy of -2040.855 eV

 Atomic calculation performed for O: 1s2 2s2 2p4

 Exceeded max iterations: converged to 0.000000062 eV

   | Pseudopotential Report - Date of generation 24-03-2022   |
   | Element: O Ionic charge:  6.00 Level of theory: PBE      |
   | Atomic Solver: ZORA (scalar)                             |
   |               Reference Electronic Structure             |
   |         Orbital         Occupation         Energy        |
   |            2s              2.000           -0.881        |
   |            2p              4.000           -0.332        |
   |                 Pseudopotential Definition               |
   |        Beta     l      e      Rc     scheme   norm       |
   |          1      0   -0.881   1.100     qc      0         |
   |          2      0    0.250   1.100     qc      0         |
   |          3      1   -0.332   1.100     qc      0         |
   |          4      1    0.250   1.100     qc      0         |
   |         loc     2    0.000   1.100     pn      0         |
   | Augmentation charge Rinner = 0.769                       |
   | Partial core correction Rc = 0.769                       |
   | "2|1.1|15|18|20|20:21(qc=7)"                             |
   |      Author: Chris J. Pickard, Cambridge University      |

 Atomic calculation performed for Zr: 1s2 2s2 2p6 3s2 3p6 3d10 4s2 4p6 4d2 5s2

[...]

 Atomic calculation performed for Zr: 1s2 2s2 2p6 3s2 3p6 3d10 4s2 4p6 4d2 5s2

[...]

 Warning: ion_atom_descreen_psp: negative charge density encountered
   | Pseudopotential Report - Date of generation 24-03-2022   |
   | Element: Zr Ionic charge: 12.00 Level of theory: PBE     |
   | Atomic Solver: ZORA (scalar)                             |
   |               Reference Electronic Structure             |
   |         Orbital         Occupation         Energy        |
   |            4s              2.000           -2.003        |
   |            4p              6.000           -1.193        |
   |            5s              2.000           -0.163        |
   |            4d              2.000           -0.132        |
   |                 Pseudopotential Definition               |
   |        Beta     l      e      Rc     scheme   norm       |
   |          1      0   -2.003   2.105     qc      0         |
   |          2      0   -0.163   2.105     qc      0         |
   |          3      0    0.250   2.105     qc      0         |
   |          4      1   -1.193   2.105     qc      0         |
   |          5      1    0.250   2.105     qc      0         |
   |          6      2   -0.132   2.105     qc      0         |
   |          7      2    0.250   2.105     qc      0         |
   |         loc     3    0.000   2.105     pn      0         |
   | Augmentation charge Rinner = 1.471                       |
   | Partial core correction Rc = 1.471                       |
   | "3|2.1|7|8|9|40U:50:41:42"                               |
   |      Author: Chris J. Pickard, Cambridge University      |

 Atomic calculation performed for Sn:

[...]

 Atomic calculation performed for Sn:

[...]

   | Pseudopotential Report - Date of generation 24-03-2022   |
   | Element: Sn Ionic charge: 14.00 Level of theory: PBE     |
   | Atomic Solver: ZORA (scalar)                             |
   |               Reference Electronic Structure             |
   |         Orbital         Occupation         Energy        |
   |            4d             10.000           -0.950        |
   |            5s              2.000           -0.388        |
   |            5p              2.000           -0.136        |
   |                 Pseudopotential Definition               |
   |        Beta     l      e      Rc     scheme   norm       |
   |          1      0   -0.388   2.199     qc      0         |
   |          2      0    0.250   2.199     qc      0         |
   |          3      1   -0.136   2.199     qc      0         |
   |          4      1    0.250   2.199     qc      0         |
   |          5      2   -0.950   2.199     qc      0         |
   |          6      2    0.250   2.199     qc      0         |
   |         loc     3    0.000   2.199     pn      0         |
   | Augmentation charge Rinner = 1.537                       |
   | Partial core correction Rc = 1.537                       |
   | "3|2.2|7|8|9|50:51:42"                                   |
   |      Author: Chris J. Pickard, Cambridge University      |

 Atomic calculation performed for La:

 Converged in 55 iterations to an ae energy of -230121.495 eV

 Atomic calculation performed for La:

 Exceeded max iterations: converged to 0.000001134 eV

 Warning: ion_atom_descreen_psp: negative charge density encountered
   | Pseudopotential Report - Date of generation 24-03-2022   |
   | Element: La Ionic charge: 11.00 Level of theory: PBE     |
   | Atomic Solver: ZORA (scalar)                             |
   |               Reference Electronic Structure             |
   |         Orbital         Occupation         Energy        |
   |            5s              2.000           -1.430        |
   |            5p              6.000           -0.823        |
   |            6s              2.000           -0.135        |
   |            5d              1.000           -0.114        |
   |                 Pseudopotential Definition               |
   |        Beta     l      e      Rc     scheme   norm       |
   |          1      0   -1.430   2.298     qc      0         |
   |          2      0   -0.135   2.298     qc      0         |
   |          3      0    0.250   2.298     qc      0         |
   |          4      1   -0.823   2.298     qc      0         |
   |          5      1    0.250   2.298     qc      0         |
   |          6      2   -0.114   2.298     qc      0         |
   |          7      2    0.250   2.298     qc      0         |
   |         loc     2    0.000   2.298     pn      0         |
   | Augmentation charge Rinner = 1.606                       |
   | Partial core correction Rc = 1.606                       |
   | "2|2.3|5|6|7|50U:60:51:52(qc=4.5)"                       |
   |      Author: Chris J. Pickard, Cambridge University      |

 Pseudo atomic calculation performed for O 2s2 2p4

 Converged in 39 iterations to a total energy of -432.6554 eV

 Pseudo atomic calculation performed for Zr 4s2 4p6 4d2 5s2

[...]

 Calculation parallelised over 896 processes.
 Data is distributed by G-vector(64-way) and k-point(14-way)

 ************************************ Title ************************************
 nmr testing

 ***************************** General Parameters ******************************

 output verbosity                               : normal  (1)
 write checkpoint data to                       : 02.check
 type of calculation                            : Magnetic Resonance
 stress calculation                             : on
 density difference calculation                 : off
 electron localisation func (ELF) calculation   : off
 Hirshfeld analysis                             : off
 unlimited duration calculation
 timing information                             : on
 write final potential to formatted file        : off
 write final density to formatted file          : off
 write BibTeX reference list                    : off
 write OTFG pseudopotential files               : on
 checkpoint writing                             : off

 output         length unit                     : A
 output           mass unit                     : amu
 output           time unit                     : ps
 output         charge unit                     : e
 output           spin unit                     : hbar/2
 output         energy unit                     : eV
 output          force unit                     : eV/A
 output       velocity unit                     : A/ps
 output       pressure unit                     : GPa
 output     inv_length unit                     : 1/A
 output      frequency unit                     : cm-1
 output force constant unit                     : eV/A**2
 output         volume unit                     : A**3
 output   IR intensity unit                     : (D/A)**2/amu
 output         dipole unit                     : D
 output         efield unit                     : eV/A/e
 output        entropy unit                     : J/mol/K

 wavefunctions paging                           : none
 random number generator seed                   : randomised (95411013)
 data distribution                              : optimal for this architecture
 optimization strategy                          : maximize speed(+++)

 *********************** Exchange-Correlation Parameters ***********************

 using functional                               : Perdew Burke Ernzerhof
 relativistic treatment                         : ZORA
 DFT+D: Semi-empirical dispersion correction    : off

 ************************* Pseudopotential Parameters **************************

[...]
  |    O          39      -87.11      85.26      0.17  -3.180E+00   0.09 |
  |    O          40     -161.59     156.87      0.79   1.066E+00   0.78 |
  |    O          41      -85.91      84.52      0.16  -3.212E+00   0.10 |
  |    O          42      -84.74      83.35      0.14  -3.149E+00   0.09 |
  |    O          43     -160.88     157.59      0.80   1.108E+00   0.75 |
  |    O          44      -83.64      81.26      0.27  -3.129E+00   0.07 |
  |    O          45      -91.03      90.46      0.26  -3.176E+00   0.08 |
  |    O          46     -164.08     159.56      0.78   1.030E+00   0.89 |
  |    O          47     -166.74     162.99      0.80   1.025E+00   0.98 |
  |    O          48      -92.97      90.71      0.28  -3.137E+00   0.08 |
  |    O          49     -164.08     159.55      0.78   1.030E+00   0.89 |
  |    O          50      -91.03      90.47      0.26  -3.176E+00   0.08 |
  |    O          51     -164.08     159.56      0.78   1.030E+00   0.89 |
  |    O          52      -91.03      90.46      0.26  -3.176E+00   0.08 |
  |    O          53     -166.74     162.99      0.80   1.025E+00   0.98 |
  |    O          54      -92.97      90.71      0.28  -3.137E+00   0.08 |
  |    O          55     -164.08     159.55      0.78   1.030E+00   0.89 |
  |    O          56      -91.03      90.47      0.26  -3.176E+00   0.08 |
  |    Zr          1     1593.93    -111.41      0.02  -3.566E+01   0.01 |
  |    Zr          2     1632.18    -127.64      0.12  -3.855E+01   0.10 |
  |    Zr          3     1627.28    -128.84      0.18  -3.755E+01   0.03 |
  |    Zr          4     1627.28    -128.85      0.18  -3.755E+01   0.03 |
[...]
  |    La          2     4660.69     643.91      0.01  -8.213E+01   0.03 |
  |    La          3     4707.33     759.60      0.03  -8.372E+01   0.06 |
  |    La          4     4707.33     759.58      0.03  -8.372E+01   0.06 |
  |    La          5     4660.69     643.91      0.01  -8.213E+01   0.03 |
  |    La          6     4707.33     759.60      0.03  -8.372E+01   0.06 |
  |    La          7     4707.33     759.58      0.03  -8.372E+01   0.06 |
  |    La          8     4607.22     543.30      0.08  -7.719E+01   0.21 |
  |    La          9     4700.79     757.71      0.05  -8.303E+01   0.10 |
  |    La         10     4653.14     625.42      0.01  -7.947E+01   0.02 |
  |    La         11     4700.79     757.71      0.05  -8.303E+01   0.10 |
  |    La         12     4653.14     625.42      0.01  -7.947E+01   0.02 |
  |    La         13     4607.22     543.30      0.08  -7.719E+01   0.21 |
  |    La         14     4653.14     625.41      0.01  -7.947E+01   0.02 |
  |    La         15     4653.14     625.41      0.01  -7.947E+01   0.02 |
  |    La         16     4600.35     553.75      0.11  -7.630E+01   0.23 |

 *********************** Forces ***********************
 *            Cartesian components (eV/A)             *
 *                   x            y            z      *
 * O         1      0.00544      0.00544     -0.00049 *
 * O         2      0.00203     -0.00113      0.01039 *
 * O         3     -0.00113      0.00203      0.01039 *
 * O         4     -0.00326     -0.00326     -0.00508 *
 * O         5      0.00113     -0.00203     -0.01039 *
 * O         6     -0.00544     -0.00544      0.00049 *
 * O         7      0.00326      0.00326      0.00508 *
 * O         8     -0.00203      0.00113     -0.01039 *
 * O         9      0.00205     -0.00791     -0.00803 *
 * O        10     -0.01048     -0.01765     -0.01507 *
 * O        11      0.00673      0.01347      0.00454 *
 * O        12     -0.01211      0.00138      0.00025 *
 * O        13     -0.00791      0.00205     -0.00803 *
 * O        14     -0.01472     -0.00562     -0.02120 *
 * O        15      0.01347      0.00673      0.00454 *
 * O        16      0.00287      0.00447     -0.00078 *
 * O        17     -0.00249     -0.00249     -0.02594 *
 * O        18     -0.01256     -0.00210     -0.00721 *
 * O        19      0.00115      0.00115      0.00387 *
 * O        20     -0.00259      0.00280     -0.01268 *
 * O        21      0.01765      0.01048      0.01507 *
 * O        22      0.00791     -0.00205      0.00803 *
 * O        23     -0.00138      0.01211     -0.00025 *
 * O        24     -0.01346     -0.00673     -0.00453 *
 * O        25     -0.00673     -0.01346     -0.00454 *
 * O        26     -0.00447     -0.00287      0.00078 *
 * O        27     -0.00205      0.00791      0.00803 *
 * O        28      0.00562      0.01472      0.02120 *
 * O        29     -0.00280      0.00259      0.01268 *
 * O        30     -0.00115     -0.00115     -0.00387 *
 * O        31      0.00210      0.01256      0.00721 *
 * O        32      0.00249      0.00249      0.02594 *
 * O        33      0.01048      0.01765      0.01507 *
 * O        34      0.01211     -0.00138     -0.00025 *
 * O        35      0.01472      0.00562      0.02120 *
 * O        36     -0.00287     -0.00448      0.00078 *
 * O        37      0.01256      0.00210      0.00721 *
 * O        38      0.00259     -0.00280      0.01268 *
 * O        39     -0.01765     -0.01048     -0.01507 *
 * O        40      0.00138     -0.01211      0.00025 *
 * O        41      0.00447      0.00287     -0.00078 *
 * O        42     -0.00562     -0.01472     -0.02120 *
 * O        43      0.00280     -0.00259     -0.01268 *
 * O        44     -0.00210     -0.01256     -0.00721 *
 * O        45      0.00904     -0.00447     -0.00261 *
 * O        46     -0.00259      0.01428      0.01116 *
 * O        47      0.00217      0.00217     -0.00966 *
 * O        48      0.00126      0.00126      0.00689 *
 * O        49     -0.01428      0.00259     -0.01116 *
 * O        50      0.00447     -0.00904      0.00261 *
 * O        51      0.00259     -0.01428     -0.01116 *
 * O        52     -0.00904      0.00447      0.00261 *
 * O        53     -0.00217     -0.00217      0.00966 *
 * O        54     -0.00127     -0.00127     -0.00689 *
 * O        55      0.01428     -0.00259      0.01116 *
 * O        56     -0.00447      0.00904     -0.00261 *
 * Zr        1     -0.00000     -0.00000      0.00000 *
 * Zr        2      0.00368     -0.00368     -0.00000 *
 * Zr        3      0.01454      0.00209      0.00297 *
 * Zr        4     -0.00209     -0.01454     -0.00297 *
[...]
 * La        2     -0.00338      0.00338      0.00000 *
 * La        3     -0.00767      0.00449     -0.01454 *
 * La        4     -0.00448      0.00767      0.01454 *
 * La        5      0.00338     -0.00338      0.00000 *
 * La        6      0.00767     -0.00448      0.01454 *
 * La        7      0.00448     -0.00767     -0.01454 *
 * La        8     -0.00000      0.00000      0.00000 *
 * La        9     -0.00555     -0.00555      0.01228 *
 * La       10      0.01018     -0.01263      0.01794 *
 * La       11      0.00555      0.00555     -0.01228 *
 * La       12     -0.01018      0.01263     -0.01794 *
 * La       13      0.00000     -0.00000      0.00000 *
 * La       14      0.01263     -0.01018     -0.01794 *
 * La       15     -0.01263      0.01018      0.01794 *
 * La       16     -0.00000      0.00000     -0.00000 *

 ***************** Stress Tensor *****************
 *          Cartesian components (GPa)           *
 *             x             y             z     *
 *  x     -0.006997     -0.039728      0.002497  *
 *  y     -0.039728     -0.006996      0.002498  *
 *  z      0.002497      0.002498      0.007456  *
 *  Pressure:    0.0022                          *

[...]

 Pseudo atomic calculation performed for Sn 4d10 5s2 5p2

[...]

 Pseudo atomic calculation performed for La 5s2 5p6 5d1 6s2

 Converged in 34 iterations to a total energy of -968.0373 eV

Charge spilling parameter for spin component 1 = 0.24%

     Atomic Populations (Mulliken)
Species   Ion     s      p      d      f     Total  Charge (e)
  O        1     1.87   5.00   0.00   0.00   6.87    -0.87
  O        2     1.87   5.00   0.00   0.00   6.87    -0.87
  O        3     1.87   5.00   0.00   0.00   6.87    -0.87
  O        4     1.87   5.00   0.00   0.00   6.87    -0.87
  O        5     1.87   5.00   0.00   0.00   6.87    -0.87
  O        6     1.87   5.00   0.00   0.00   6.87    -0.87
  O        7     1.87   5.00   0.00   0.00   6.87    -0.87
  O        8     1.87   5.00   0.00   0.00   6.87    -0.87
  O        9     1.87   4.99   0.00   0.00   6.85    -0.85
  O       10     1.87   4.99   0.00   0.00   6.86    -0.86
  O       11     1.88   5.02   0.00   0.00   6.91    -0.91
  O       12     1.86   4.94   0.00   0.00   6.80    -0.80
  O       13     1.87   4.99   0.00   0.00   6.85    -0.85
  O       14     1.87   4.99   0.00   0.00   6.85    -0.85
  O       15     1.88   5.02   0.00   0.00   6.91    -0.91
  O       16     1.87   4.99   0.00   0.00   6.86    -0.86
  O       17     1.88   5.02   0.00   0.00   6.91    -0.91
  O       18     1.87   4.99   0.00   0.00   6.86    -0.86
  O       19     1.88   5.03   0.00   0.00   6.91    -0.91
  O       20     1.86   4.95   0.00   0.00   6.80    -0.80
  O       21     1.87   4.99   0.00   0.00   6.86    -0.86
  O       22     1.87   4.99   0.00   0.00   6.85    -0.85
  O       23     1.86   4.94   0.00   0.00   6.80    -0.80
  O       24     1.88   5.02   0.00   0.00   6.91    -0.91
  O       25     1.88   5.02   0.00   0.00   6.91    -0.91
  O       26     1.87   4.99   0.00   0.00   6.86    -0.86
  O       27     1.87   4.99   0.00   0.00   6.85    -0.85
  O       28     1.87   4.99   0.00   0.00   6.85    -0.85
  O       29     1.86   4.95   0.00   0.00   6.80    -0.80
  O       30     1.88   5.03   0.00   0.00   6.91    -0.91
  O       31     1.87   4.99   0.00   0.00   6.85    -0.85
  O       32     1.88   5.02   0.00   0.00   6.91    -0.91
  O       33     1.87   4.99   0.00   0.00   6.86    -0.86
  O       34     1.86   4.94   0.00   0.00   6.80    -0.80
  O       35     1.87   4.99   0.00   0.00   6.85    -0.85
  O       36     1.87   4.99   0.00   0.00   6.86    -0.86
  O       37     1.87   4.99   0.00   0.00   6.85    -0.85
  O       38     1.86   4.95   0.00   0.00   6.80    -0.80
  O       39     1.87   4.99   0.00   0.00   6.86    -0.86
  O       40     1.86   4.94   0.00   0.00   6.80    -0.80
  O       41     1.87   4.99   0.00   0.00   6.86    -0.86
  O       42     1.87   4.99   0.00   0.00   6.85    -0.85
  O       43     1.86   4.95   0.00   0.00   6.80    -0.80
  O       44     1.87   4.99   0.00   0.00   6.86    -0.86
  O       45     1.87   4.99   0.00   0.00   6.86    -0.86
  O       46     1.86   4.94   0.00   0.00   6.80    -0.80
  O       47     1.86   4.94   0.00   0.00   6.80    -0.80
  O       48     1.87   4.99   0.00   0.00   6.86    -0.86
  O       49     1.86   4.94   0.00   0.00   6.80    -0.80
  O       50     1.87   4.99   0.00   0.00   6.86    -0.86
  O       51     1.86   4.94   0.00   0.00   6.80    -0.80
  O       52     1.87   4.99   0.00   0.00   6.86    -0.86
  O       53     1.86   4.94   0.00   0.00   6.80    -0.80
  O       54     1.87   4.99   0.00   0.00   6.86    -0.86
  O       55     1.86   4.94   0.00   0.00   6.80    -0.80
  O       56     1.87   4.99   0.00   0.00   6.86    -0.86
  Zr       1     2.38   6.52   1.92   0.00  10.81     1.19
  Zr       2     2.37   6.47   1.93   0.00  10.77     1.23
  Zr       3     2.37   6.49   1.92   0.00  10.78     1.22
  Zr       4     2.37   6.49   1.92   0.00  10.78     1.22
[...]
  La       2     2.06   6.18   1.19   0.00   9.43     1.57
  La       3     2.05   6.16   1.19   0.00   9.41     1.59
  La       4     2.05   6.16   1.19   0.00   9.41     1.59
  La       5     2.06   6.18   1.19   0.00   9.43     1.57
  La       6     2.05   6.16   1.19   0.00   9.41     1.59
  La       7     2.05   6.16   1.19   0.00   9.41     1.59
  La       8     2.10   6.18   1.19   0.00   9.48     1.52
  La       9     2.04   6.16   1.19   0.00   9.39     1.61
  La      10     2.06   6.18   1.19   0.00   9.43     1.57
  La      11     2.04   6.16   1.19   0.00   9.39     1.61
  La      12     2.06   6.18   1.19   0.00   9.43     1.57
  La      13     2.10   6.18   1.19   0.00   9.48     1.52
  La      14     2.06   6.18   1.19   0.00   9.43     1.57
  La      15     2.06   6.18   1.19   0.00   9.43     1.57
  La      16     2.09   6.18   1.19   0.00   9.47     1.53

            Bond              Population      Length (A)
         O 41 -- Sn 7              0.35        2.10273
         O 26 -- Sn 7              0.35        2.10273
         O 16 -- Sn 7              0.35        2.10273
         O 36 -- Sn 7              0.35        2.10273
         O 45 -- Sn 6              0.35        2.10388
         O 56 -- Sn 2              0.35        2.10388
         O 52 -- Sn 5              0.35        2.10388
         O 50 -- Sn 4              0.35        2.10388
         O 10 -- Sn 1              0.34        2.10575
         O 33 -- Sn 3              0.34        2.10575
         O 21 -- Sn 3              0.34        2.10575
         O 39 -- Sn 1              0.34        2.10575
         O 30 -- Sn 4              0.34        2.10699
         O 30 -- Sn 5              0.34        2.10699
         O 19 -- Sn 2              0.34        2.10699
         O 19 -- Sn 6              0.34        2.10699
         O 27 -- Sn 6              0.35        2.10715
         O 22 -- Sn 2              0.35        2.10715
         O 9  -- Sn 5              0.35        2.10715
         O 13 -- Sn 4              0.35        2.10715
         O 48 -- Sn 3              0.34        2.10820
         O 54 -- Sn 1              0.34        2.10820
         O 28 -- Sn 2              0.34        2.10823
         O 42 -- Sn 4              0.34        2.10823
         O 14 -- Sn 5              0.34        2.10823
         O 35 -- Sn 6              0.34        2.10823
         O 25 -- Sn 1              0.34        2.10929
         O 11 -- Sn 3              0.34        2.10929
         O 24 -- Sn 1              0.34        2.10929
         O 15 -- Sn 3              0.34        2.10929
         O 25 -- Sn 4              0.34        2.10969
         O 11 -- Sn 2              0.34        2.10969
         O 24 -- Sn 5              0.34        2.10969
         O 15 -- Sn 6              0.34        2.10969
         O 18 -- Sn 4              0.34        2.10993
         O 44 -- Sn 5              0.34        2.10993
         O 37 -- Sn 2              0.34        2.10993
         O 31 -- Sn 6              0.34        2.10993
         O 47 -- Zr 4              0.42        2.11298
         O 53 -- Zr 7              0.42        2.11298
         O 53 -- Zr 3              0.42        2.11298
         O 47 -- Zr 6              0.42        2.11298
         O 43 -- Zr 9              0.42        2.11312
         O 20 -- Zr 8              0.42        2.11312
         O 29 -- Zr 9              0.42        2.11312
         O 38 -- Zr 8              0.42        2.11312
         O 55 -- Zr 7              0.43        2.11439
         O 49 -- Zr 4              0.43        2.11439
         O 51 -- Zr 6              0.43        2.11439
         O 46 -- Zr 3              0.43        2.11439
         O 38 -- Zr 2              0.42        2.11472
         O 29 -- Zr 5              0.42        2.11472
         O 20 -- Zr 5              0.42        2.11472
         O 43 -- Zr 2              0.42        2.11472
         O 40 -- Zr 8              0.42        2.11581
         O 12 -- Zr 9              0.42        2.11581
         O 34 -- Zr 9              0.42        2.11581
         O 23 -- Zr 8              0.42        2.11581
         O 32 -- Sn 3              0.34        2.11592
         O 17 -- Sn 1              0.34        2.11592
[...]
         O 12 -- O 21             -0.03        2.82914
         O 35 -- O 42             -0.03        2.82985
         O 14 -- O 28             -0.03        2.82985
         O 37 -- O 39             -0.03        2.83046
         O 33 -- O 44             -0.03        2.83046
         O 18 -- O 21             -0.03        2.83046
         O 10 -- O 31             -0.03        2.83046
         O 20 -- O 28             -0.03        2.83068
         O 38 -- O 42             -0.03        2.83068
         O 35 -- O 43             -0.03        2.83068
         O 14 -- O 29             -0.03        2.83068
         O 16 -- O 31             -0.03        2.83938
         O 37 -- O 41             -0.03        2.83938
         O 36 -- O 44             -0.03        2.83938
         O 18 -- O 26             -0.03        2.83938

Initialisation time =     25.18 s
Calculation time    =   2695.03 s
Finalisation time   =      0.12 s
Total time          =   2720.33 s

Overall parallel efficiency rating: Good (74%)

Data was distributed by:-
G-vector (64-way); efficiency rating: Good (75%)
k-point (14-way); efficiency rating: Excellent (97%)