 Run started: Fri, 25 Mar 2022 19:12:34 +0000
 |           N   N    M   M    RRRR                |
 |           NN  N    MM MM    R   R               |
 |           N N N    M M M    RRRR                |
 |           N  NN    M   M    R  R                |
 |           N   N    M   M    R   R               |
 | Welcome to Materials Studio CASTEP-NMR          |
 | Authors:                                        |
 | J.R. Yates, C.J. Pickard, F. Mauri              |
 | Contributors:                                   |
 | T.F.G. Green, S.A. Joyce                        |
 | Copyright (c) 2004 - 2015                       |
 | Please cite the appropriate publications in all |
 | work arising from your use of CASTEP NMR.       |
 | For NMR Shielding Tensors cite:                 |
 |    "All-electron magnetic response with         |
 |    pseudopotentials: NMR chemical shifts",      |
 |    C. J. Pickard, F. Mauri;                     |
 |    Physical Review B63 245101 (2001), and       |
 |    "Calculation of NMR Chemical Shifts          |
 |    for extended systems using                   |
 |    Ultrasoft Pseudopotentials",                 |
 |    J. R. Yates, C. J. Pickard and F. Mauri      |
 |    Physical Review B76 024401 (2007)            |
 | For Electric Field Gradients cite:              |
 |   "Accurate First Principles Prediction of 17O  |
 |    NMR Parameters in SiO2: Assignment of the    |
 |    Zeolite Ferrierite Spectrum"                 |
 |    M. Profeta, F. Mauri and C. J. Pickard       |
 |    J. Amer. Chem. Soc. 125 541 (2003)           |
 | For Spin-Spin (J) Couplings cite:               |
 |   "A first principles theory of NMR J-coupling  |
 |   in solid-state systems"                       |
 |   S.A. Joyce, J.R. Yates, C.J. Pickard, F. Mauri|
 |   J. Chem. Phys. 127 204107 (2007)              |
 |   "Relativistic NMR J-coupling with ultrasoft   |
 |   pseudopotentials and the zeroth-order regular |
 |   approximation"                                |
 |   T.F.G. Green and J.R. Yates                   |
 |   J. Chem. Phys. 140 234106 (2014)              |

 Atomic calculation performed for O: 1s2 2s2 2p4

 Converged in 44 iterations to an ae energy of -2040.855 eV

 Atomic calculation performed for O: 1s2 2s2 2p4

 Exceeded max iterations: converged to 0.000000062 eV

   | Pseudopotential Report - Date of generation 25-03-2022   |
   | Element: O Ionic charge:  6.00 Level of theory: PBE      |
   | Atomic Solver: ZORA (scalar)                             |
   |               Reference Electronic Structure             |
   |         Orbital         Occupation         Energy        |
   |            2s              2.000           -0.881        |
   |            2p              4.000           -0.332        |
   |                 Pseudopotential Definition               |
   |        Beta     l      e      Rc     scheme   norm       |
   |          1      0   -0.881   1.100     qc      0         |
   |          2      0    0.250   1.100     qc      0         |
   |          3      1   -0.332   1.100     qc      0         |
   |          4      1    0.250   1.100     qc      0         |
   |         loc     2    0.000   1.100     pn      0         |
   | Augmentation charge Rinner = 0.769                       |
   | Partial core correction Rc = 0.769                       |
   | "2|1.1|15|18|20|20:21(qc=7)"                             |
   |      Author: Chris J. Pickard, Cambridge University      |

 Atomic calculation performed for Zr: 1s2 2s2 2p6 3s2 3p6 3d10 4s2 4p6 4d2 5s2

[...]

 Atomic calculation performed for Zr: 1s2 2s2 2p6 3s2 3p6 3d10 4s2 4p6 4d2 5s2

[...]

 Warning: ion_atom_descreen_psp: negative charge density encountered
   | Pseudopotential Report - Date of generation 25-03-2022   |
   | Element: Zr Ionic charge: 12.00 Level of theory: PBE     |
   | Atomic Solver: ZORA (scalar)                             |
   |               Reference Electronic Structure             |
   |         Orbital         Occupation         Energy        |
   |            4s              2.000           -2.003        |
   |            4p              6.000           -1.193        |
   |            5s              2.000           -0.163        |
   |            4d              2.000           -0.132        |
   |                 Pseudopotential Definition               |
   |        Beta     l      e      Rc     scheme   norm       |
   |          1      0   -2.003   2.105     qc      0         |
   |          2      0   -0.163   2.105     qc      0         |
   |          3      0    0.250   2.105     qc      0         |
   |          4      1   -1.193   2.105     qc      0         |
   |          5      1    0.250   2.105     qc      0         |
   |          6      2   -0.132   2.105     qc      0         |
   |          7      2    0.250   2.105     qc      0         |
   |         loc     3    0.000   2.105     pn      0         |
   | Augmentation charge Rinner = 1.471                       |
   | Partial core correction Rc = 1.471                       |
   | "3|2.1|7|8|9|40U:50:41:42"                               |
   |      Author: Chris J. Pickard, Cambridge University      |

 Atomic calculation performed for Sn:

[...]

 Atomic calculation performed for Sn:

[...]

   | Pseudopotential Report - Date of generation 25-03-2022   |
   | Element: Sn Ionic charge: 14.00 Level of theory: PBE     |
   | Atomic Solver: ZORA (scalar)                             |
   |               Reference Electronic Structure             |
   |         Orbital         Occupation         Energy        |
   |            4d             10.000           -0.950        |
   |            5s              2.000           -0.388        |
   |            5p              2.000           -0.136        |
   |                 Pseudopotential Definition               |
   |        Beta     l      e      Rc     scheme   norm       |
   |          1      0   -0.388   2.199     qc      0         |
   |          2      0    0.250   2.199     qc      0         |
   |          3      1   -0.136   2.199     qc      0         |
   |          4      1    0.250   2.199     qc      0         |
   |          5      2   -0.950   2.199     qc      0         |
   |          6      2    0.250   2.199     qc      0         |
   |         loc     3    0.000   2.199     pn      0         |
   | Augmentation charge Rinner = 1.537                       |
   | Partial core correction Rc = 1.537                       |
   | "3|2.2|7|8|9|50:51:42"                                   |
   |      Author: Chris J. Pickard, Cambridge University      |

 Atomic calculation performed for La:

 Converged in 55 iterations to an ae energy of -230121.495 eV

 Atomic calculation performed for La:

 Exceeded max iterations: converged to 0.000001134 eV

 Warning: ion_atom_descreen_psp: negative charge density encountered
   | Pseudopotential Report - Date of generation 25-03-2022   |
   | Element: La Ionic charge: 11.00 Level of theory: PBE     |
   | Atomic Solver: ZORA (scalar)                             |
   |               Reference Electronic Structure             |
   |         Orbital         Occupation         Energy        |
   |            5s              2.000           -1.430        |
   |            5p              6.000           -0.823        |
   |            6s              2.000           -0.135        |
   |            5d              1.000           -0.114        |
   |                 Pseudopotential Definition               |
   |        Beta     l      e      Rc     scheme   norm       |
   |          1      0   -1.430   2.298     qc      0         |
   |          2      0   -0.135   2.298     qc      0         |
   |          3      0    0.250   2.298     qc      0         |
   |          4      1   -0.823   2.298     qc      0         |
   |          5      1    0.250   2.298     qc      0         |
   |          6      2   -0.114   2.298     qc      0         |
   |          7      2    0.250   2.298     qc      0         |
   |         loc     2    0.000   2.298     pn      0         |
   | Augmentation charge Rinner = 1.606                       |
   | Partial core correction Rc = 1.606                       |
   | "2|2.3|5|6|7|50U:60:51:52(qc=4.5)"                       |
   |      Author: Chris J. Pickard, Cambridge University      |

 Pseudo atomic calculation performed for O 2s2 2p4

 Converged in 39 iterations to a total energy of -432.6554 eV

 Pseudo atomic calculation performed for Zr 4s2 4p6 4d2 5s2

[...]

 Calculation parallelised over 896 processes.
 Data is distributed by G-vector(64-way) and k-point(14-way)

 ************************************ Title ************************************
 nmr testing

 ***************************** General Parameters ******************************

 output verbosity                               : normal  (1)
 write checkpoint data to                       : 13.check
 type of calculation                            : Magnetic Resonance
 stress calculation                             : on
 density difference calculation                 : off
 electron localisation func (ELF) calculation   : off
 Hirshfeld analysis                             : off
 unlimited duration calculation
 timing information                             : on
 write final potential to formatted file        : off
 write final density to formatted file          : off
 write BibTeX reference list                    : off
 write OTFG pseudopotential files               : on
 checkpoint writing                             : off

 output         length unit                     : A
 output           mass unit                     : amu
 output           time unit                     : ps
 output         charge unit                     : e
 output           spin unit                     : hbar/2
 output         energy unit                     : eV
 output          force unit                     : eV/A
 output       velocity unit                     : A/ps
 output       pressure unit                     : GPa
 output     inv_length unit                     : 1/A
 output      frequency unit                     : cm-1
 output force constant unit                     : eV/A**2
 output         volume unit                     : A**3
 output   IR intensity unit                     : (D/A)**2/amu
 output         dipole unit                     : D
 output         efield unit                     : eV/A/e
 output        entropy unit                     : J/mol/K

 wavefunctions paging                           : none
 random number generator seed                   : randomised (191234906)
 data distribution                              : optimal for this architecture
 optimization strategy                          : maximize speed(+++)

 *********************** Exchange-Correlation Parameters ***********************

 using functional                               : Perdew Burke Ernzerhof
 relativistic treatment                         : ZORA
 DFT+D: Semi-empirical dispersion correction    : off

 ************************* Pseudopotential Parameters **************************

[...]
  |    O          40     -159.51     150.14      0.80   1.114E+00   0.67 |
  |    O          41     -162.40     151.16      0.75   1.033E+00   0.79 |
  |    O          42      -87.46      85.40      0.09  -3.213E+00   0.08 |
  |    O          43      -88.45      85.87      0.26  -3.204E+00   0.09 |
  |    O          44      -88.12      90.87      0.29  -3.161E+00   0.11 |
  |    O          45      -89.91      93.11      0.21  -3.221E+00   0.09 |
  |    O          46     -162.47     156.89      0.78   1.038E+00   0.79 |
  |    O          47     -164.15     155.70      0.74   1.027E+00   0.88 |
  |    O          48      -87.59      82.16      0.21  -3.172E+00   0.07 |
  |    O          49     -166.68     165.78      0.81   1.057E+00   0.94 |
  |    O          50      -88.70      84.38      0.14  -3.137E+00   0.07 |
  |    O          51     -164.01     156.05      0.79   1.060E+00   0.79 |
  |    O          52      -88.78      93.03      0.30  -3.173E+00   0.07 |
  |    O          53      -88.45      76.56      0.31  -3.248E+00   0.11 |
  |    O          54     -165.17     158.53      0.82   1.072E+00   0.79 |
  |    O          55      -94.21      86.18      0.16  -3.206E+00   0.13 |
  |    O          56      -93.38      90.51      0.23  -3.165E+00   0.11 |
  |    Zr          1     1608.46    -119.36      0.15  -3.607E+01   0.06 |
  |    Zr          2     1613.32    -121.01      0.08  -3.679E+01   0.07 |
  |    Zr          3     1627.02    -126.33      0.04  -3.768E+01   0.16 |
  |    Zr          4     1621.89    -122.36      0.10  -3.878E+01   0.09 |
[...]
  |    La          2     4702.43     764.41      0.04  -8.268E+01   0.06 |
  |    La          3     4706.63     762.94      0.04  -8.450E+01   0.09 |
  |    La          4     4712.50     753.54      0.03  -8.527E+01   0.08 |
  |    La          5     4656.44     656.81      0.10  -7.989E+01   0.15 |
  |    La          6     4613.13     514.86      0.07  -7.876E+01   0.08 |
  |    La          7     4752.79     871.62      0.04  -8.661E+01   0.07 |
  |    La          8     4604.66     507.00      0.09  -7.650E+01   0.10 |
  |    La          9     4604.64     508.00      0.08  -7.659E+01   0.09 |
  |    La         10     4704.18     780.49      0.12  -8.302E+01   0.16 |
  |    La         11     4647.78     634.58      0.01  -7.824E+01   0.02 |
  |    La         12     4700.72     754.10      0.05  -8.264E+01   0.10 |
  |    La         13     4650.53     664.10      0.11  -7.880E+01   0.17 |
  |    La         14     4659.79     621.41      0.01  -8.090E+01   0.01 |
  |    La         15     4706.30     749.73      0.04  -8.382E+01   0.09 |
  |    La         16     4606.25     541.81      0.08  -7.706E+01   0.20 |

 *********************** Forces ***********************
 *            Cartesian components (eV/A)             *
 *                   x            y            z      *
 * O         1      0.01246      0.00253     -0.00173 *
 * O         2     -0.00898     -0.00311     -0.00257 *
 * O         3     -0.00103     -0.00046      0.00531 *
 * O         4     -0.00659     -0.00866     -0.00761 *
 * O         5      0.00277     -0.02020      0.00309 *
 * O         6     -0.00700      0.01216     -0.01163 *
 * O         7     -0.00209     -0.01831     -0.00322 *
 * O         8     -0.00265      0.02382      0.01026 *
 * O         9      0.00164      0.00014     -0.02107 *
 * O        10      0.01474     -0.01488     -0.01535 *
 * O        11      0.02032     -0.00410      0.00765 *
 * O        12     -0.01815     -0.00860      0.00074 *
 * O        13     -0.00538     -0.01501     -0.01288 *
 * O        14     -0.00421     -0.00642     -0.01800 *
 * O        15      0.00458      0.00362     -0.00261 *
 * O        16      0.01448     -0.00478     -0.00503 *
 * O        17      0.01405     -0.00060     -0.01235 *
 * O        18     -0.01172     -0.01412      0.00404 *
 * O        19      0.01148      0.00209      0.00104 *
 * O        20     -0.00490      0.00511     -0.01781 *
 * O        21      0.00438     -0.03631      0.00429 *
 * O        22     -0.00810      0.02873      0.00046 *
 * O        23     -0.00145      0.01193      0.00158 *
 * O        24     -0.00894      0.01644      0.00281 *
 * O        25      0.00751     -0.01918      0.00871 *
 * O        26     -0.01623      0.00568      0.02350 *
 * O        27     -0.00942      0.01184      0.00372 *
 * O        28      0.00526      0.00856      0.01979 *
 * O        29     -0.02198     -0.00188      0.00007 *
 * O        30     -0.00616     -0.01397     -0.01902 *
 * O        31      0.00335      0.02077      0.01506 *
 * O        32      0.01783      0.01184     -0.00121 *
 * O        33      0.00626      0.02366      0.00599 *
 * O        34     -0.01585     -0.01456     -0.00651 *
 * O        35      0.00479     -0.00345      0.00617 *
 * O        36     -0.00552      0.00756      0.01416 *
 * O        37      0.01886     -0.00203      0.02166 *
 * O        38     -0.00487      0.01467      0.00610 *
 * O        39     -0.01255      0.00647      0.00249 *
 * O        40      0.00733     -0.00462     -0.00429 *
 * O        41     -0.00488      0.01088      0.01105 *
 * O        42     -0.00910     -0.01338     -0.02512 *
 * O        43      0.00146     -0.00086     -0.00373 *
 * O        44     -0.00651     -0.01408     -0.01098 *
 * O        45      0.01153      0.00142     -0.00990 *
 * O        46      0.00558      0.00533      0.00710 *
 * O        47      0.01069      0.01949     -0.01065 *
 * O        48      0.00011     -0.01638      0.00135 *
 * O        49      0.00387      0.01620     -0.00775 *
 * O        50     -0.00314     -0.00577      0.00705 *
 * O        51      0.00014      0.00425     -0.01553 *
 * O        52     -0.01539     -0.00545     -0.00853 *
 * O        53     -0.02448     -0.00132      0.02234 *
 * O        54     -0.00468     -0.01097      0.01143 *
 * O        55      0.00632     -0.02512     -0.00695 *
 * O        56      0.00445      0.00691     -0.00460 *
 * Zr        1      0.00784      0.02051      0.00225 *
 * Zr        2     -0.02008     -0.00587      0.02150 *
 * Zr        3      0.01385     -0.01073      0.00278 *
 * Zr        4     -0.00782      0.00683      0.04316 *
[...]
 * La        2      0.01687      0.02416     -0.01748 *
 * La        3     -0.00532      0.02070     -0.01098 *
 * La        4      0.01033     -0.01570     -0.01731 *
 * La        5     -0.01322     -0.01420     -0.00337 *
 * La        6     -0.00717      0.02175      0.00003 *
 * La        7      0.00675      0.02208      0.01076 *
 * La        8     -0.00127      0.01176     -0.00580 *
 * La        9     -0.01546     -0.01414      0.02780 *
 * La       10     -0.00066     -0.03473      0.00464 *
 * La       11      0.00256      0.01376     -0.00226 *
 * La       12      0.01170     -0.01172      0.00785 *
 * La       13     -0.00545     -0.02455     -0.01779 *
 * La       14      0.00461     -0.01175     -0.00778 *
 * La       15     -0.01474      0.01436      0.00909 *
 * La       16      0.01103      0.02326      0.02035 *

 ***************** Stress Tensor *****************
 *          Cartesian components (GPa)           *
 *             x             y             z     *
 *  x     -0.003319      0.007745      0.000337  *
 *  y      0.007745      0.000465     -0.001293  *
 *  z      0.000337     -0.001293     -0.001608  *
 *  Pressure:    0.0015                          *

[...]

 Pseudo atomic calculation performed for Sn 4d10 5s2 5p2

[...]

 Pseudo atomic calculation performed for La 5s2 5p6 5d1 6s2

 Converged in 34 iterations to a total energy of -968.0373 eV

Charge spilling parameter for spin component 1 = 0.24%

     Atomic Populations (Mulliken)
Species   Ion     s      p      d      f     Total  Charge (e)
  O        1     1.87   5.00   0.00   0.00   6.87    -0.87
  O        2     1.87   5.00   0.00   0.00   6.87    -0.87
  O        3     1.87   5.00   0.00   0.00   6.87    -0.87
  O        4     1.87   5.00   0.00   0.00   6.87    -0.87
  O        5     1.87   5.00   0.00   0.00   6.87    -0.87
  O        6     1.87   5.00   0.00   0.00   6.87    -0.87
  O        7     1.87   5.00   0.00   0.00   6.87    -0.87
  O        8     1.87   5.00   0.00   0.00   6.87    -0.87
  O        9     1.87   4.99   0.00   0.00   6.85    -0.85
  O       10     1.86   4.94   0.00   0.00   6.80    -0.80
  O       11     1.88   5.02   0.00   0.00   6.91    -0.91
  O       12     1.88   5.02   0.00   0.00   6.91    -0.91
  O       13     1.88   5.02   0.00   0.00   6.91    -0.91
  O       14     1.87   4.99   0.00   0.00   6.86    -0.86
  O       15     1.88   5.02   0.00   0.00   6.91    -0.91
  O       16     1.86   4.95   0.00   0.00   6.80    -0.80
  O       17     1.86   4.94   0.00   0.00   6.80    -0.80
  O       18     1.88   5.02   0.00   0.00   6.91    -0.91
  O       19     1.88   5.02   0.00   0.00   6.91    -0.91
  O       20     1.86   4.95   0.00   0.00   6.80    -0.80
  O       21     1.88   5.02   0.00   0.00   6.91    -0.91
  O       22     1.88   5.02   0.00   0.00   6.91    -0.91
  O       23     1.86   4.95   0.00   0.00   6.80    -0.80
  O       24     1.87   4.99   0.00   0.00   6.86    -0.86
  O       25     1.87   4.99   0.00   0.00   6.86    -0.86
  O       26     1.87   4.99   0.00   0.00   6.86    -0.86
  O       27     1.87   4.99   0.00   0.00   6.85    -0.85
  O       28     1.87   4.99   0.00   0.00   6.86    -0.86
  O       29     1.87   4.99   0.00   0.00   6.86    -0.86
  O       30     1.88   5.02   0.00   0.00   6.91    -0.91
  O       31     1.87   4.99   0.00   0.00   6.85    -0.85
  O       32     1.87   4.99   0.00   0.00   6.86    -0.86
  O       33     1.87   4.99   0.00   0.00   6.86    -0.86
  O       34     1.87   4.99   0.00   0.00   6.86    -0.86
  O       35     1.87   4.99   0.00   0.00   6.85    -0.85
  O       36     1.86   4.95   0.00   0.00   6.80    -0.80
  O       37     1.87   4.99   0.00   0.00   6.86    -0.86
  O       38     1.86   4.95   0.00   0.00   6.80    -0.80
  O       39     1.86   4.95   0.00   0.00   6.80    -0.80
  O       40     1.86   4.95   0.00   0.00   6.80    -0.80
  O       41     1.86   4.94   0.00   0.00   6.80    -0.80
  O       42     1.87   4.99   0.00   0.00   6.86    -0.86
  O       43     1.87   4.99   0.00   0.00   6.86    -0.86
  O       44     1.87   4.99   0.00   0.00   6.85    -0.85
  O       45     1.87   4.99   0.00   0.00   6.86    -0.86
  O       46     1.86   4.94   0.00   0.00   6.80    -0.80
  O       47     1.86   4.94   0.00   0.00   6.80    -0.80
  O       48     1.87   4.99   0.00   0.00   6.86    -0.86
  O       49     1.85   4.95   0.00   0.00   6.80    -0.80
  O       50     1.87   4.99   0.00   0.00   6.86    -0.86
  O       51     1.86   4.95   0.00   0.00   6.80    -0.80
  O       52     1.87   4.99   0.00   0.00   6.85    -0.85
  O       53     1.87   4.99   0.00   0.00   6.86    -0.86
  O       54     1.86   4.95   0.00   0.00   6.80    -0.80
  O       55     1.87   4.99   0.00   0.00   6.86    -0.86
  O       56     1.87   4.99   0.00   0.00   6.86    -0.86
  Zr       1     2.37   6.50   1.92   0.00  10.80     1.20
  Zr       2     2.37   6.50   1.92   0.00  10.79     1.21
  Zr       3     2.37   6.48   1.92   0.00  10.78     1.22
  Zr       4     2.37   6.48   1.92   0.00  10.78     1.22
[...]
  La       2     2.06   6.16   1.19   0.00   9.41     1.59
  La       3     2.05   6.16   1.19   0.00   9.40     1.60
  La       4     2.05   6.17   1.19   0.00   9.41     1.59
  La       5     2.08   6.17   1.19   0.00   9.45     1.55
  La       6     2.09   6.20   1.19   0.00   9.48     1.52
  La       7     2.01   6.15   1.19   0.00   9.36     1.64
  La       8     2.11   6.19   1.19   0.00   9.49     1.51
  La       9     2.11   6.19   1.19   0.00   9.49     1.51
  La      10     2.04   6.16   1.19   0.00   9.39     1.61
  La      11     2.08   6.17   1.19   0.00   9.44     1.56
  La      12     2.04   6.16   1.19   0.00   9.40     1.60
  La      13     2.07   6.17   1.19   0.00   9.43     1.57
  La      14     2.06   6.18   1.19   0.00   9.43     1.57
  La      15     2.04   6.17   1.19   0.00   9.40     1.60
  La      16     2.10   6.19   1.19   0.00   9.48     1.52

            Bond              Population      Length (A)
         O 24 -- Sn 6              0.35        2.09934
         O 37 -- Sn 2              0.34        2.10086
         O 42 -- Sn 4              0.35        2.10124
         O 45 -- Sn 7              0.35        2.10213
         O 32 -- Sn 3              0.35        2.10224
         O 25 -- Sn 4              0.35        2.10226
         O 43 -- Sn 5              0.35        2.10230
         O 34 -- Sn 5              0.34        2.10245
         O 48 -- Sn 3              0.35        2.10403
         O 9  -- Sn 6              0.35        2.10412
         O 29 -- Sn 5              0.35        2.10420
         O 53 -- Sn 1              0.34        2.10432
         O 26 -- Sn 1              0.34        2.10475
         O 31 -- Sn 7              0.34        2.10537
         O 55 -- Sn 1              0.34        2.10555
         O 52 -- Sn 6              0.34        2.10574
         O 27 -- Sn 7              0.35        2.10577
         O 14 -- Sn 6              0.35        2.10612
         O 33 -- Sn 3              0.34        2.10641
         O 19 -- Sn 2              0.34        2.10660
         O 36 -- Zr 3              0.41        2.10705
         O 28 -- Sn 2              0.34        2.10748
         O 56 -- Sn 2              0.34        2.10802
         O 18 -- Sn 1              0.34        2.10860
         O 15 -- Sn 7              0.34        2.10916
         O 49 -- Zr 5              0.42        2.10928
         O 44 -- Sn 6              0.34        2.10932
         O 19 -- Sn 7              0.33        2.10951
         O 12 -- Sn 5              0.34        2.11018
         O 23 -- Zr 6              0.42        2.11064
         O 15 -- Sn 3              0.33        2.11074
         O 13 -- Sn 4              0.34        2.11080
         O 49 -- Zr 4              0.42        2.11117
         O 50 -- Sn 4              0.34        2.11125
         O 23 -- Zr 7              0.42        2.11147
         O 11 -- Sn 3              0.34        2.11164
         O 36 -- Zr 9              0.41        2.11197
         O 54 -- Zr 1              0.42        2.11199
         O 54 -- Zr 8              0.42        2.11230
         O 51 -- Zr 2              0.43        2.11284
         O 35 -- Sn 7              0.34        2.11308
         O 18 -- Sn 4              0.33        2.11328
         O 30 -- Sn 6              0.33        2.11356
         O 30 -- Sn 4              0.33        2.11366
         O 12 -- Sn 1              0.34        2.11372
         O 11 -- Sn 2              0.34        2.11422
         O 24 -- Zr 8              0.45        2.11525
         O 40 -- Zr 7              0.42        2.11527
         O 13 -- Sn 5              0.33        2.11534
         O 16 -- Zr 9              0.43        2.11599
         O 47 -- Zr 4              0.44        2.11700
         O 20 -- Zr 7              0.42        2.11745
         O 46 -- Zr 5              0.43        2.11767
         O 10 -- Zr 8              0.43        2.11776
         O 10 -- Zr 6              0.43        2.11807
         O 20 -- Zr 5              0.43        2.11830
         O 41 -- Zr 9              0.44        2.11838
         O 45 -- Zr 1              0.44        2.11854
         O 21 -- Sn 1              0.34        2.11869
         O 38 -- Zr 7              0.42        2.11902
[...]
         O 9  -- O 38             -0.03        2.82784
         O 37 -- O 41             -0.03        2.82817
         O 27 -- O 40             -0.03        2.82856
         O 20 -- O 27             -0.03        2.82871
         O 16 -- O 31             -0.03        2.82907
         O 29 -- O 46             -0.03        2.82929
         O 38 -- O 42             -0.03        2.82942
         O 14 -- O 28             -0.03        2.83022
         O 17 -- O 25             -0.03        2.83136
         O 16 -- O 32             -0.03        2.83158
         O 34 -- O 39             -0.03        2.83233
         O 33 -- O 40             -0.03        2.83314
         O 35 -- O 43             -0.03        2.83597
         O 48 -- O 50             -0.03        2.83727
         O 14 -- O 29             -0.03        2.84016

Initialisation time =     25.23 s
Calculation time    =   2706.27 s
Finalisation time   =      0.12 s
Total time          =   2731.63 s

Overall parallel efficiency rating: Satisfactory (69%)

Data was distributed by:-
G-vector (64-way); efficiency rating: Good (73%)
k-point (14-way); efficiency rating: Excellent (92%)