 Run started: Fri, 25 Mar 2022 19:58:19 +0000
 |           N   N    M   M    RRRR                |
 |           NN  N    MM MM    R   R               |
 |           N N N    M M M    RRRR                |
 |           N  NN    M   M    R  R                |
 |           N   N    M   M    R   R               |
 | Welcome to Materials Studio CASTEP-NMR          |
 | Authors:                                        |
 | J.R. Yates, C.J. Pickard, F. Mauri              |
 | Contributors:                                   |
 | T.F.G. Green, S.A. Joyce                        |
 | Copyright (c) 2004 - 2015                       |
 | Please cite the appropriate publications in all |
 | work arising from your use of CASTEP NMR.       |
 | For NMR Shielding Tensors cite:                 |
 |    "All-electron magnetic response with         |
 |    pseudopotentials: NMR chemical shifts",      |
 |    C. J. Pickard, F. Mauri;                     |
 |    Physical Review B63 245101 (2001), and       |
 |    "Calculation of NMR Chemical Shifts          |
 |    for extended systems using                   |
 |    Ultrasoft Pseudopotentials",                 |
 |    J. R. Yates, C. J. Pickard and F. Mauri      |
 |    Physical Review B76 024401 (2007)            |
 | For Electric Field Gradients cite:              |
 |   "Accurate First Principles Prediction of 17O  |
 |    NMR Parameters in SiO2: Assignment of the    |
 |    Zeolite Ferrierite Spectrum"                 |
 |    M. Profeta, F. Mauri and C. J. Pickard       |
 |    J. Amer. Chem. Soc. 125 541 (2003)           |
 | For Spin-Spin (J) Couplings cite:               |
 |   "A first principles theory of NMR J-coupling  |
 |   in solid-state systems"                       |
 |   S.A. Joyce, J.R. Yates, C.J. Pickard, F. Mauri|
 |   J. Chem. Phys. 127 204107 (2007)              |
 |   "Relativistic NMR J-coupling with ultrasoft   |
 |   pseudopotentials and the zeroth-order regular |
 |   approximation"                                |
 |   T.F.G. Green and J.R. Yates                   |
 |   J. Chem. Phys. 140 234106 (2014)              |

 Atomic calculation performed for O: 1s2 2s2 2p4

 Converged in 44 iterations to an ae energy of -2040.855 eV

 Atomic calculation performed for O: 1s2 2s2 2p4

 Exceeded max iterations: converged to 0.000000062 eV

   | Pseudopotential Report - Date of generation 25-03-2022   |
   | Element: O Ionic charge:  6.00 Level of theory: PBE      |
   | Atomic Solver: ZORA (scalar)                             |
   |               Reference Electronic Structure             |
   |         Orbital         Occupation         Energy        |
   |            2s              2.000           -0.881        |
   |            2p              4.000           -0.332        |
   |                 Pseudopotential Definition               |
   |        Beta     l      e      Rc     scheme   norm       |
   |          1      0   -0.881   1.100     qc      0         |
   |          2      0    0.250   1.100     qc      0         |
   |          3      1   -0.332   1.100     qc      0         |
   |          4      1    0.250   1.100     qc      0         |
   |         loc     2    0.000   1.100     pn      0         |
   | Augmentation charge Rinner = 0.769                       |
   | Partial core correction Rc = 0.769                       |
   | "2|1.1|15|18|20|20:21(qc=7)"                             |
   |      Author: Chris J. Pickard, Cambridge University      |

 Atomic calculation performed for Zr: 1s2 2s2 2p6 3s2 3p6 3d10 4s2 4p6 4d2 5s2

[...]

 Atomic calculation performed for Zr: 1s2 2s2 2p6 3s2 3p6 3d10 4s2 4p6 4d2 5s2

[...]

 Warning: ion_atom_descreen_psp: negative charge density encountered
   | Pseudopotential Report - Date of generation 25-03-2022   |
   | Element: Zr Ionic charge: 12.00 Level of theory: PBE     |
   | Atomic Solver: ZORA (scalar)                             |
   |               Reference Electronic Structure             |
   |         Orbital         Occupation         Energy        |
   |            4s              2.000           -2.003        |
   |            4p              6.000           -1.193        |
   |            5s              2.000           -0.163        |
   |            4d              2.000           -0.132        |
   |                 Pseudopotential Definition               |
   |        Beta     l      e      Rc     scheme   norm       |
   |          1      0   -2.003   2.105     qc      0         |
   |          2      0   -0.163   2.105     qc      0         |
   |          3      0    0.250   2.105     qc      0         |
   |          4      1   -1.193   2.105     qc      0         |
   |          5      1    0.250   2.105     qc      0         |
   |          6      2   -0.132   2.105     qc      0         |
   |          7      2    0.250   2.105     qc      0         |
   |         loc     3    0.000   2.105     pn      0         |
   | Augmentation charge Rinner = 1.471                       |
   | Partial core correction Rc = 1.471                       |
   | "3|2.1|7|8|9|40U:50:41:42"                               |
   |      Author: Chris J. Pickard, Cambridge University      |

 Atomic calculation performed for Sn:

[...]

 Atomic calculation performed for Sn:

[...]

   | Pseudopotential Report - Date of generation 25-03-2022   |
   | Element: Sn Ionic charge: 14.00 Level of theory: PBE     |
   | Atomic Solver: ZORA (scalar)                             |
   |               Reference Electronic Structure             |
   |         Orbital         Occupation         Energy        |
   |            4d             10.000           -0.950        |
   |            5s              2.000           -0.388        |
   |            5p              2.000           -0.136        |
   |                 Pseudopotential Definition               |
   |        Beta     l      e      Rc     scheme   norm       |
   |          1      0   -0.388   2.199     qc      0         |
   |          2      0    0.250   2.199     qc      0         |
   |          3      1   -0.136   2.199     qc      0         |
   |          4      1    0.250   2.199     qc      0         |
   |          5      2   -0.950   2.199     qc      0         |
   |          6      2    0.250   2.199     qc      0         |
   |         loc     3    0.000   2.199     pn      0         |
   | Augmentation charge Rinner = 1.537                       |
   | Partial core correction Rc = 1.537                       |
   | "3|2.2|7|8|9|50:51:42"                                   |
   |      Author: Chris J. Pickard, Cambridge University      |

 Atomic calculation performed for La:

 Converged in 55 iterations to an ae energy of -230121.495 eV

 Atomic calculation performed for La:

 Exceeded max iterations: converged to 0.000001134 eV

 Warning: ion_atom_descreen_psp: negative charge density encountered
   | Pseudopotential Report - Date of generation 25-03-2022   |
   | Element: La Ionic charge: 11.00 Level of theory: PBE     |
   | Atomic Solver: ZORA (scalar)                             |
   |               Reference Electronic Structure             |
   |         Orbital         Occupation         Energy        |
   |            5s              2.000           -1.430        |
   |            5p              6.000           -0.823        |
   |            6s              2.000           -0.135        |
   |            5d              1.000           -0.114        |
   |                 Pseudopotential Definition               |
   |        Beta     l      e      Rc     scheme   norm       |
   |          1      0   -1.430   2.298     qc      0         |
   |          2      0   -0.135   2.298     qc      0         |
   |          3      0    0.250   2.298     qc      0         |
   |          4      1   -0.823   2.298     qc      0         |
   |          5      1    0.250   2.298     qc      0         |
   |          6      2   -0.114   2.298     qc      0         |
   |          7      2    0.250   2.298     qc      0         |
   |         loc     2    0.000   2.298     pn      0         |
   | Augmentation charge Rinner = 1.606                       |
   | Partial core correction Rc = 1.606                       |
   | "2|2.3|5|6|7|50U:60:51:52(qc=4.5)"                       |
   |      Author: Chris J. Pickard, Cambridge University      |

 Pseudo atomic calculation performed for O 2s2 2p4

 Converged in 39 iterations to a total energy of -432.6554 eV

 Pseudo atomic calculation performed for Zr 4s2 4p6 4d2 5s2

[...]

 Calculation parallelised over 896 processes.
 Data is distributed by G-vector(64-way) and k-point(14-way)

 ************************************ Title ************************************
 nmr testing

 ***************************** General Parameters ******************************

 output verbosity                               : normal  (1)
 write checkpoint data to                       : 37.check
 type of calculation                            : Magnetic Resonance
 stress calculation                             : on
 density difference calculation                 : off
 electron localisation func (ELF) calculation   : off
 Hirshfeld analysis                             : off
 unlimited duration calculation
 timing information                             : on
 write final potential to formatted file        : off
 write final density to formatted file          : off
 write BibTeX reference list                    : off
 write OTFG pseudopotential files               : on
 checkpoint writing                             : off

 output         length unit                     : A
 output           mass unit                     : amu
 output           time unit                     : ps
 output         charge unit                     : e
 output           spin unit                     : hbar/2
 output         energy unit                     : eV
 output          force unit                     : eV/A
 output       velocity unit                     : A/ps
 output       pressure unit                     : GPa
 output     inv_length unit                     : 1/A
 output      frequency unit                     : cm-1
 output force constant unit                     : eV/A**2
 output         volume unit                     : A**3
 output   IR intensity unit                     : (D/A)**2/amu
 output         dipole unit                     : D
 output         efield unit                     : eV/A/e
 output        entropy unit                     : J/mol/K

 wavefunctions paging                           : none
 random number generator seed                   : randomised (195819908)
 data distribution                              : optimal for this architecture
 optimization strategy                          : maximize speed(+++)

 *********************** Exchange-Correlation Parameters ***********************

 using functional                               : Perdew Burke Ernzerhof
 relativistic treatment                         : ZORA
 DFT+D: Semi-empirical dispersion correction    : off

 ************************* Pseudopotential Parameters **************************

[...]
  |    O          39      -85.38      85.31      0.20  -3.210E+00   0.08 |
  |    O          40     -161.27     156.22      0.79   1.060E+00   0.78 |
  |    O          41       -9.02      71.72      0.25   3.926E+00   0.81 |
  |    O          42      -90.49      83.34      0.07  -3.175E+00   0.09 |
  |    O          43      -89.29      88.59      0.08  -3.181E+00   0.08 |
  |    O          44      -88.34      91.85      0.33  -3.153E+00   0.10 |
  |    O          45      -84.42      94.16      0.30  -3.236E+00   0.09 |
  |    O          46     -159.89     143.70      0.80   1.097E+00   0.62 |
  |    O          47      -85.97      79.51      0.05  -3.268E+00   0.10 |
  |    O          48     -161.05     150.20      0.80   1.073E+00   0.70 |
  |    O          49      -87.06      79.29      0.03  -3.240E+00   0.10 |
  |    O          50      -87.40      83.44      0.07  -3.156E+00   0.10 |
  |    O          51     -161.37     145.56      0.79   1.068E+00   0.64 |
  |    O          52      -87.59      88.11      0.18  -3.293E+00   0.11 |
  |    O          53      -88.29      78.04      0.04  -3.224E+00   0.10 |
  |    O          54     -163.05     158.17      0.84   1.070E+00   0.79 |
  |    O          55      -89.24      80.63      0.15  -3.248E+00   0.10 |
  |    O          56     -162.43     155.37      0.79   1.029E+00   0.81 |
  |    Zr          1     1627.80    -125.08      0.08  -3.774E+01   0.07 |
  |    Zr          2     1612.72    -118.46      0.04  -3.673E+01   0.05 |
  |    Zr          3     1627.37    -125.10      0.11  -3.734E+01   0.07 |
  |    Zr          4     1627.70    -124.60      0.07  -3.718E+01   0.10 |
[...]
  |    La          2     4648.86     654.39      0.11  -7.844E+01   0.15 |
  |    La          3     4655.29     655.37      0.10  -7.949E+01   0.12 |
  |    La          4     4756.21     864.11      0.04  -8.794E+01   0.08 |
  |    La          5     4599.36     524.92      0.09  -7.584E+01   0.08 |
  |    La          6     4655.75     650.34      0.11  -7.939E+01   0.15 |
  |    La          7     4799.05     970.09      0.00  -9.043E+01   0.01 |
  |    La          8     4661.25     648.03      0.09  -8.130E+01   0.15 |
  |    La          9     4650.60     660.60      0.11  -7.866E+01   0.14 |
  |    La         10     4655.47     651.47      0.10  -7.925E+01   0.14 |
  |    La         11     4596.63     511.06      0.10  -7.527E+01   0.07 |
  |    La         12     4650.37     658.62      0.12  -7.817E+01   0.14 |
  |    La         13     4705.15     788.46      0.11  -8.340E+01   0.13 |
  |    La         14     4714.91     774.45      0.09  -8.582E+01   0.15 |
  |    La         15     4668.80     647.50      0.07  -8.307E+01   0.14 |
  |    La         16     4655.40     660.50      0.09  -8.046E+01   0.13 |

 *********************** Forces ***********************
 *            Cartesian components (eV/A)             *
 *                   x            y            z      *
 * O         1      0.01278     -0.00613      0.00233 *
 * O         2      0.00574     -0.01806      0.00367 *
 * O         3      0.01297     -0.00591      0.00953 *
 * O         4     -0.00334     -0.01435     -0.00828 *
 * O         5     -0.01332     -0.00051     -0.00206 *
 * O         6     -0.02378      0.01130     -0.01392 *
 * O         7      0.00462      0.01056     -0.00358 *
 * O         8      0.00374      0.01097      0.00547 *
 * O         9      0.01809      0.00615     -0.01362 *
 * O        10      0.01190     -0.01074     -0.02275 *
 * O        11      0.02253      0.00445      0.00317 *
 * O        12      0.00502     -0.00600      0.00126 *
 * O        13      0.00508     -0.02022     -0.01142 *
 * O        14      0.00127      0.00259     -0.00968 *
 * O        15      0.01164     -0.00422      0.00457 *
 * O        16      0.00865      0.00217     -0.01425 *
 * O        17      0.00678      0.00052     -0.00439 *
 * O        18      0.00207      0.00509      0.00363 *
 * O        19      0.00648      0.00358     -0.01308 *
 * O        20      0.01430     -0.01358     -0.01291 *
 * O        21     -0.00074      0.00579      0.00650 *
 * O        22     -0.01364     -0.00905      0.00764 *
 * O        23     -0.00551      0.00396      0.01760 *
 * O        24     -0.01206      0.01156     -0.00461 *
 * O        25     -0.01171     -0.01742      0.00742 *
 * O        26      0.01096     -0.00173      0.01398 *
 * O        27     -0.02168      0.00783      0.00210 *
 * O        28     -0.01635      0.01419      0.02054 *
 * O        29     -0.01126     -0.00379      0.00569 *
 * O        30     -0.00225     -0.00571     -0.02037 *
 * O        31     -0.00477     -0.00426      0.01340 *
 * O        32     -0.01157      0.01366      0.00265 *
 * O        33     -0.01537      0.01654      0.02165 *
 * O        34      0.01180     -0.01216     -0.00029 *
 * O        35      0.00316      0.00040     -0.00156 *
 * O        36     -0.00964     -0.00567      0.01366 *
 * O        37     -0.00167     -0.00862      0.01802 *
 * O        38      0.00017      0.01257      0.01215 *
 * O        39     -0.00291     -0.00391      0.00188 *
 * O        40      0.00705     -0.00600     -0.01951 *
 * O        41     -0.00670     -0.00105      0.00275 *
 * O        42      0.00059     -0.00952     -0.02570 *
 * O        43      0.01307     -0.01682     -0.00197 *
 * O        44      0.00533      0.00660     -0.01391 *
 * O        45      0.01896      0.00760     -0.00508 *
 * O        46      0.02201      0.01005     -0.00033 *
 * O        47     -0.00085      0.01079     -0.01977 *
 * O        48      0.00535     -0.00527     -0.01547 *
 * O        49     -0.00965      0.01327     -0.00586 *
 * O        50      0.00130     -0.00809      0.02423 *
 * O        51     -0.02276     -0.00333     -0.00890 *
 * O        52     -0.02523      0.00678     -0.00205 *
 * O        53     -0.00896     -0.00204      0.01795 *
 * O        54     -0.01277      0.01779      0.01166 *
 * O        55      0.00795     -0.01478      0.00643 *
 * O        56      0.01252     -0.00516     -0.01100 *
 * Zr        1      0.00629     -0.00827     -0.00182 *
 * Zr        2     -0.02514     -0.00434      0.01754 *
 * Zr        3      0.00308     -0.01299      0.00544 *
 * Zr        4      0.01032      0.00575     -0.00368 *
[...]
 * La        2      0.01585      0.02170     -0.01236 *
 * La        3     -0.02006      0.00185     -0.01333 *
 * La        4     -0.00630     -0.00210     -0.00147 *
 * La        5     -0.01655     -0.01362     -0.00600 *
 * La        6      0.01080      0.00506      0.01393 *
 * La        7     -0.00736      0.00590      0.00231 *
 * La        8      0.00054      0.00701     -0.00207 *
 * La        9      0.01262      0.00481      0.01587 *
 * La       10     -0.01280     -0.00731     -0.01004 *
 * La       11     -0.01371     -0.01162      0.00604 *
 * La       12      0.01779      0.00178      0.01478 *
 * La       13     -0.01190     -0.00502     -0.01843 *
 * La       14      0.00609     -0.01033     -0.00167 *
 * La       15      0.00406      0.00012     -0.00224 *
 * La       16     -0.00451      0.00050      0.00982 *

 ***************** Stress Tensor *****************
 *          Cartesian components (GPa)           *
 *             x             y             z     *
 *  x      0.026183     -0.020036      0.063733  *
 *  y     -0.020036     -0.024280     -0.057124  *
 *  z      0.063733     -0.057124     -0.002361  *
 *  Pressure:    0.0002                          *

[...]

 Pseudo atomic calculation performed for Sn 4d10 5s2 5p2

[...]

 Pseudo atomic calculation performed for La 5s2 5p6 5d1 6s2

 Converged in 34 iterations to a total energy of -968.0373 eV

Charge spilling parameter for spin component 1 = 0.24%

     Atomic Populations (Mulliken)
Species   Ion     s      p      d      f     Total  Charge (e)
  O        1     1.87   5.00   0.00   0.00   6.87    -0.87
  O        2     1.87   5.00   0.00   0.00   6.87    -0.87
  O        3     1.87   5.00   0.00   0.00   6.87    -0.87
  O        4     1.87   5.00   0.00   0.00   6.87    -0.87
  O        5     1.87   5.00   0.00   0.00   6.87    -0.87
  O        6     1.87   5.00   0.00   0.00   6.87    -0.87
  O        7     1.87   5.00   0.00   0.00   6.87    -0.87
  O        8     1.87   5.00   0.00   0.00   6.87    -0.87
  O        9     1.87   4.99   0.00   0.00   6.85    -0.85
  O       10     1.86   4.95   0.00   0.00   6.80    -0.80
  O       11     1.86   4.95   0.00   0.00   6.80    -0.80
  O       12     1.88   5.02   0.00   0.00   6.91    -0.91
  O       13     1.88   5.02   0.00   0.00   6.91    -0.91
  O       14     1.87   4.99   0.00   0.00   6.85    -0.85
  O       15     1.87   4.99   0.00   0.00   6.85    -0.85
  O       16     1.87   4.99   0.00   0.00   6.86    -0.86
  O       17     1.87   4.99   0.00   0.00   6.86    -0.86
  O       18     1.88   5.02   0.00   0.00   6.91    -0.91
  O       19     1.87   4.99   0.00   0.00   6.85    -0.85
  O       20     1.86   4.95   0.00   0.00   6.80    -0.80
  O       21     1.87   4.99   0.00   0.00   6.86    -0.86
  O       22     1.87   4.99   0.00   0.00   6.86    -0.86
  O       23     1.86   4.95   0.00   0.00   6.80    -0.80
  O       24     1.87   4.99   0.00   0.00   6.85    -0.85
  O       25     1.87   4.99   0.00   0.00   6.86    -0.86
  O       26     1.88   5.02   0.00   0.00   6.91    -0.91
  O       27     1.87   4.99   0.00   0.00   6.85    -0.85
  O       28     1.86   4.95   0.00   0.00   6.80    -0.80
  O       29     1.87   4.99   0.00   0.00   6.86    -0.86
  O       30     1.88   5.02   0.00   0.00   6.91    -0.91
  O       31     1.87   4.99   0.00   0.00   6.85    -0.85
  O       32     1.87   4.99   0.00   0.00   6.86    -0.86
  O       33     1.86   4.95   0.00   0.00   6.80    -0.80
  O       34     1.88   5.02   0.00   0.00   6.91    -0.91
  O       35     1.87   4.99   0.00   0.00   6.85    -0.85
  O       36     1.87   4.99   0.00   0.00   6.86    -0.86
  O       37     1.87   4.99   0.00   0.00   6.86    -0.86
  O       38     1.86   4.95   0.00   0.00   6.80    -0.80
  O       39     1.87   4.99   0.00   0.00   6.86    -0.86
  O       40     1.86   4.95   0.00   0.00   6.80    -0.80
  O       41     1.88   5.02   0.00   0.00   6.91    -0.91
  O       42     1.87   4.99   0.00   0.00   6.86    -0.86
  O       43     1.87   4.99   0.00   0.00   6.86    -0.86
  O       44     1.87   4.99   0.00   0.00   6.85    -0.85
  O       45     1.87   4.99   0.00   0.00   6.85    -0.85
  O       46     1.86   4.95   0.00   0.00   6.80    -0.80
  O       47     1.87   4.99   0.00   0.00   6.86    -0.86
  O       48     1.86   4.95   0.00   0.00   6.80    -0.80
  O       49     1.87   4.99   0.00   0.00   6.85    -0.85
  O       50     1.87   4.99   0.00   0.00   6.86    -0.86
  O       51     1.86   4.95   0.00   0.00   6.80    -0.80
  O       52     1.87   4.99   0.00   0.00   6.86    -0.86
  O       53     1.87   4.99   0.00   0.00   6.86    -0.86
  O       54     1.86   4.95   0.00   0.00   6.80    -0.80
  O       55     1.87   4.99   0.00   0.00   6.86    -0.86
  O       56     1.86   4.94   0.00   0.00   6.80    -0.80
  Zr       1     2.37   6.49   1.92   0.00  10.78     1.22
  Zr       2     2.37   6.50   1.92   0.00  10.79     1.21
  Zr       3     2.37   6.48   1.92   0.00  10.78     1.22
  Zr       4     2.37   6.48   1.92   0.00  10.77     1.23
[...]
  La       2     2.09   6.17   1.19   0.00   9.45     1.55
  La       3     2.08   6.17   1.19   0.00   9.45     1.55
  La       4     2.01   6.15   1.19   0.00   9.36     1.64
  La       5     2.11   6.18   1.19   0.00   9.48     1.52
  La       6     2.08   6.17   1.19   0.00   9.44     1.56
  La       7     1.99   6.14   1.20   0.00   9.33     1.67
  La       8     2.07   6.18   1.19   0.00   9.44     1.56
  La       9     2.09   6.17   1.19   0.00   9.45     1.55
  La      10     2.08   6.17   1.19   0.00   9.44     1.56
  La      11     2.12   6.19   1.19   0.00   9.50     1.50
  La      12     2.06   6.17   1.19   0.00   9.43     1.57
  La      13     2.03   6.16   1.20   0.00   9.39     1.61
  La      14     2.03   6.17   1.19   0.00   9.39     1.61
  La      15     2.05   6.18   1.19   0.00   9.42     1.58
  La      16     2.06   6.18   1.19   0.00   9.43     1.57

            Bond              Population      Length (A)
         O 52 -- Sn 5              0.35        2.09815
         O 27 -- Sn 6              0.35        2.09989
         O 9  -- Sn 5              0.35        2.10112
         O 45 -- Sn 6              0.34        2.10256
         O 55 -- Sn 2              0.35        2.10260
         O 37 -- Sn 1              0.35        2.10273
         O 47 -- Sn 1              0.35        2.10285
         O 43 -- Sn 4              0.35        2.10351
         O 42 -- Sn 3              0.35        2.10389
         O 16 -- Sn 7              0.35        2.10411
         O 49 -- Sn 1              0.35        2.10427
         O 36 -- Sn 7              0.35        2.10428
         O 21 -- Sn 2              0.35        2.10471
         O 24 -- Sn 5              0.34        2.10491
         O 32 -- Sn 7              0.35        2.10532
         O 19 -- Sn 6              0.34        2.10543
         O 31 -- Sn 6              0.34        2.10575
         O 29 -- Sn 4              0.35        2.10580
         O 39 -- Sn 1              0.35        2.10617
         O 17 -- Sn 7              0.35        2.10643
         O 50 -- Sn 3              0.34        2.10676
         O 15 -- Sn 6              0.34        2.10698
         O 53 -- Sn 2              0.34        2.10704
         O 14 -- Sn 5              0.34        2.10772
         O 35 -- Sn 6              0.34        2.10830
         O 25 -- Sn 3              0.35        2.10834
         O 22 -- Sn 4              0.34        2.10898
         O 12 -- Sn 4              0.33        2.10927
         O 18 -- Sn 2              0.34        2.11175
         O 13 -- Sn 3              0.34        2.11176
         O 44 -- Sn 5              0.33        2.11179
         O 18 -- Sn 3              0.33        2.11179
         O 30 -- Sn 3              0.33        2.11223
         O 41 -- Sn 7              0.33        2.11231
         O 12 -- Sn 2              0.33        2.11235
         O 34 -- Sn 4              0.33        2.11251
         O 54 -- Zr 7              0.42        2.11256
         O 33 -- Zr 9              0.41        2.11339
         O 28 -- Zr 4              0.41        2.11359
         O 13 -- Sn 4              0.34        2.11367
         O 28 -- Zr 8              0.41        2.11386
         O 33 -- Zr 3              0.41        2.11389
         O 41 -- Sn 1              0.33        2.11521
         O 30 -- Sn 5              0.33        2.11547
         O 10 -- Zr 5              0.41        2.11562
         O 10 -- Zr 7              0.42        2.11562
         O 26 -- Sn 2              0.33        2.11572
         O 26 -- Sn 7              0.33        2.11582
         O 54 -- Zr 1              0.41        2.11663
         O 20 -- Zr 4              0.43        2.11700
         O 23 -- Zr 5              0.43        2.11703
         O 24 -- Zr 7              0.45        2.11704
         O 40 -- Zr 3              0.43        2.11717
         O 40 -- Zr 6              0.42        2.11733
         O 23 -- Zr 6              0.42        2.11800
         O 43 -- Zr 2              0.44        2.11803
         O 20 -- Zr 6              0.42        2.11809
         O 48 -- Zr 1              0.42        2.11815
         O 52 -- Zr 1              0.45        2.11819
         O 45 -- Zr 1              0.45        2.11855
[...]
         O 47 -- O 51             -0.03        2.82756
         O 43 -- O 51             -0.03        2.82770
         O 46 -- O 53             -0.03        2.82774
         O 9  -- O 38             -0.03        2.82797
         O 11 -- O 37             -0.03        2.82808
         O 11 -- O 21             -0.03        2.82850
         O 11 -- O 32             -0.03        2.83060
         O 29 -- O 46             -0.03        2.83175
         O 16 -- O 51             -0.03        2.83216
         O 11 -- O 22             -0.03        2.83262
         O 36 -- O 46             -0.03        2.83280
         O 48 -- O 50             -0.03        2.83364
         O 14 -- O 29             -0.03        2.83508
         O 25 -- O 39             -0.03        2.83558
         O 17 -- O 25             -0.03        2.83921

Initialisation time =     25.71 s
Calculation time    =   2661.35 s
Finalisation time   =      0.12 s
Total time          =   2687.17 s

Overall parallel efficiency rating: Good (74%)

Data was distributed by:-
G-vector (64-way); efficiency rating: Good (75%)
k-point (14-way); efficiency rating: Excellent (97%)