 Run started: Fri, 25 Mar 2022 20:12:53 +0000
 |           N   N    M   M    RRRR                |
 |           NN  N    MM MM    R   R               |
 |           N N N    M M M    RRRR                |
 |           N  NN    M   M    R  R                |
 |           N   N    M   M    R   R               |
 | Welcome to Materials Studio CASTEP-NMR          |
 | Authors:                                        |
 | J.R. Yates, C.J. Pickard, F. Mauri              |
 | Contributors:                                   |
 | T.F.G. Green, S.A. Joyce                        |
 | Copyright (c) 2004 - 2015                       |
 | Please cite the appropriate publications in all |
 | work arising from your use of CASTEP NMR.       |
 | For NMR Shielding Tensors cite:                 |
 |    "All-electron magnetic response with         |
 |    pseudopotentials: NMR chemical shifts",      |
 |    C. J. Pickard, F. Mauri;                     |
 |    Physical Review B63 245101 (2001), and       |
 |    "Calculation of NMR Chemical Shifts          |
 |    for extended systems using                   |
 |    Ultrasoft Pseudopotentials",                 |
 |    J. R. Yates, C. J. Pickard and F. Mauri      |
 |    Physical Review B76 024401 (2007)            |
 | For Electric Field Gradients cite:              |
 |   "Accurate First Principles Prediction of 17O  |
 |    NMR Parameters in SiO2: Assignment of the    |
 |    Zeolite Ferrierite Spectrum"                 |
 |    M. Profeta, F. Mauri and C. J. Pickard       |
 |    J. Amer. Chem. Soc. 125 541 (2003)           |
 | For Spin-Spin (J) Couplings cite:               |
 |   "A first principles theory of NMR J-coupling  |
 |   in solid-state systems"                       |
 |   S.A. Joyce, J.R. Yates, C.J. Pickard, F. Mauri|
 |   J. Chem. Phys. 127 204107 (2007)              |
 |   "Relativistic NMR J-coupling with ultrasoft   |
 |   pseudopotentials and the zeroth-order regular |
 |   approximation"                                |
 |   T.F.G. Green and J.R. Yates                   |
 |   J. Chem. Phys. 140 234106 (2014)              |

 Atomic calculation performed for O: 1s2 2s2 2p4

 Converged in 44 iterations to an ae energy of -2040.855 eV

[...]

 Exceeded max iterations: converged to 0.000000062 eV

   | Pseudopotential Report - Date of generation 25-03-2022   |
   | Element: O Ionic charge:  6.00 Level of theory: PBE      |
   | Atomic Solver: ZORA (scalar)                             |
   |               Reference Electronic Structure             |
   |         Orbital         Occupation         Energy        |
   |            2s              2.000           -0.881        |
   |            2p              4.000           -0.332        |
   |                 Pseudopotential Definition               |
   |        Beta     l      e      Rc     scheme   norm       |
   |          1      0   -0.881   1.100     qc      0         |
   |          2      0    0.250   1.100     qc      0         |
   |          3      1   -0.332   1.100     qc      0         |
   |          4      1    0.250   1.100     qc      0         |
   |         loc     2    0.000   1.100     pn      0         |
   | Augmentation charge Rinner = 0.769                       |
   | Partial core correction Rc = 0.769                       |
   | "2|1.1|15|18|20|20:21(qc=7)"                             |
   |      Author: Chris J. Pickard, Cambridge University      |

 Atomic calculation performed for Zr: 1s2 2s2 2p6 3s2 3p6 3d10 4s2 4p6 4d2 5s2

[...]

 Warning: ion_atom_descreen_psp: negative charge density encountered
   | Pseudopotential Report - Date of generation 25-03-2022   |
   | Element: Zr Ionic charge: 12.00 Level of theory: PBE     |
   | Atomic Solver: ZORA (scalar)                             |
   |               Reference Electronic Structure             |
   |         Orbital         Occupation         Energy        |
   |            4s              2.000           -2.003        |
   |            4p              6.000           -1.193        |
   |            5s              2.000           -0.163        |
   |            4d              2.000           -0.132        |
   |                 Pseudopotential Definition               |
   |        Beta     l      e      Rc     scheme   norm       |
   |          1      0   -2.003   2.105     qc      0         |
   |          2      0   -0.163   2.105     qc      0         |
   |          3      0    0.250   2.105     qc      0         |
   |          4      1   -1.193   2.105     qc      0         |
   |          5      1    0.250   2.105     qc      0         |
   |          6      2   -0.132   2.105     qc      0         |
   |          7      2    0.250   2.105     qc      0         |
   |         loc     3    0.000   2.105     pn      0         |
   | Augmentation charge Rinner = 1.471                       |
   | Partial core correction Rc = 1.471                       |
   | "3|2.1|7|8|9|40U:50:41:42"                               |
   |      Author: Chris J. Pickard, Cambridge University      |

 Atomic calculation performed for Sn:

[...]

   | Pseudopotential Report - Date of generation 25-03-2022   |
   | Element: Sn Ionic charge: 14.00 Level of theory: PBE     |
   | Atomic Solver: ZORA (scalar)                             |
   |               Reference Electronic Structure             |
   |         Orbital         Occupation         Energy        |
   |            4d             10.000           -0.950        |
   |            5s              2.000           -0.388        |
   |            5p              2.000           -0.136        |
   |                 Pseudopotential Definition               |
   |        Beta     l      e      Rc     scheme   norm       |
   |          1      0   -0.388   2.199     qc      0         |
   |          2      0    0.250   2.199     qc      0         |
   |          3      1   -0.136   2.199     qc      0         |
   |          4      1    0.250   2.199     qc      0         |
   |          5      2   -0.950   2.199     qc      0         |
   |          6      2    0.250   2.199     qc      0         |
   |         loc     3    0.000   2.199     pn      0         |
   | Augmentation charge Rinner = 1.537                       |
   | Partial core correction Rc = 1.537                       |
   | "3|2.2|7|8|9|50:51:42"                                   |
   |      Author: Chris J. Pickard, Cambridge University      |

 Atomic calculation performed for La:

[...]

 Warning: ion_atom_descreen_psp: negative charge density encountered
   | Pseudopotential Report - Date of generation 25-03-2022   |
   | Element: La Ionic charge: 11.00 Level of theory: PBE     |
   | Atomic Solver: ZORA (scalar)                             |
   |               Reference Electronic Structure             |
   |         Orbital         Occupation         Energy        |
   |            5s              2.000           -1.430        |
   |            5p              6.000           -0.823        |
   |            6s              2.000           -0.135        |
   |            5d              1.000           -0.114        |
   |                 Pseudopotential Definition               |
   |        Beta     l      e      Rc     scheme   norm       |
   |          1      0   -1.430   2.298     qc      0         |
   |          2      0   -0.135   2.298     qc      0         |
   |          3      0    0.250   2.298     qc      0         |
   |          4      1   -0.823   2.298     qc      0         |
   |          5      1    0.250   2.298     qc      0         |
   |          6      2   -0.114   2.298     qc      0         |
   |          7      2    0.250   2.298     qc      0         |
   |         loc     2    0.000   2.298     pn      0         |
   | Augmentation charge Rinner = 1.606                       |
   | Partial core correction Rc = 1.606                       |
   | "2|2.3|5|6|7|50U:60:51:52(qc=4.5)"                       |
   |      Author: Chris J. Pickard, Cambridge University      |

 Pseudo atomic calculation performed for O 2s2 2p4

 Converged in 39 iterations to a total energy of -432.6554 eV

 Pseudo atomic calculation performed for Zr 4s2 4p6 4d2 5s2

[...]

 Calculation parallelised over 896 processes.
 Data is distributed by G-vector(64-way) and k-point(14-way)

 ************************************ Title ************************************
 nmr testing

 ***************************** General Parameters ******************************

 output verbosity                               : normal  (1)
 write checkpoint data to                       : 43.check
 type of calculation                            : Magnetic Resonance
 stress calculation                             : on
 density difference calculation                 : off
 electron localisation func (ELF) calculation   : off
 Hirshfeld analysis                             : off
 unlimited duration calculation
 timing information                             : on
 write final potential to formatted file        : off
 write final density to formatted file          : off
 write BibTeX reference list                    : off
 write OTFG pseudopotential files               : on
 checkpoint writing                             : off

 output         length unit                     : A
 output           mass unit                     : amu
 output           time unit                     : ps
 output         charge unit                     : e
 output           spin unit                     : hbar/2
 output         energy unit                     : eV
 output          force unit                     : eV/A
 output       velocity unit                     : A/ps
 output       pressure unit                     : GPa
 output     inv_length unit                     : 1/A
 output      frequency unit                     : cm-1
 output force constant unit                     : eV/A**2
 output         volume unit                     : A**3
 output   IR intensity unit                     : (D/A)**2/amu
 output         dipole unit                     : D
 output         efield unit                     : eV/A/e
 output        entropy unit                     : J/mol/K

 wavefunctions paging                           : none
 random number generator seed                   : randomised (201253280)
 data distribution                              : optimal for this architecture
 optimization strategy                          : maximize speed(+++)

 *********************** Exchange-Correlation Parameters ***********************

 using functional                               : Perdew Burke Ernzerhof
 relativistic treatment                         : ZORA
 DFT+D: Semi-empirical dispersion correction    : off

 ************************* Pseudopotential Parameters **************************

 pseudopotential representation                 : reciprocal space
 <beta|phi> representation                      : reciprocal space
 spin-orbit coupling                            : off

 **************************** Basis Set Parameters *****************************

 plane wave basis set cut-off                   :   816.3416   eV
[...]
  |    O          39      -86.07      77.77      0.27  -3.270E+00   0.10 |
  |    O          40     -161.27     151.00      0.80   1.074E+00   0.70 |
  |    O          41       -2.74      65.86      0.79   3.860E+00   0.91 |
  |    O          42     -161.45     156.32      0.79   1.097E+00   0.76 |
  |    O          43     -159.80     150.51      0.80   1.117E+00   0.67 |
  |    O          44      -84.86      89.51      0.38  -3.175E+00   0.08 |
  |    O          45      -90.96      86.91      0.17  -3.266E+00   0.11 |
  |    O          46     -162.67     153.65      0.78   1.063E+00   0.70 |
  |    O          47      -91.23      86.93      0.23  -3.219E+00   0.12 |
  |    O          48      -91.30      84.69      0.05  -3.170E+00   0.09 |
  |    O          49      -86.35      79.01      0.26  -3.267E+00   0.10 |
  |    O          50     -161.26     152.00      0.79   1.078E+00   0.69 |
  |    O          51     -159.84     150.30      0.80   1.114E+00   0.67 |
  |    O          52      -85.12      91.13      0.37  -3.172E+00   0.07 |
  |    O          53      -91.33      88.71      0.17  -3.264E+00   0.11 |
  |    O          54     -162.71     152.82      0.78   1.067E+00   0.70 |
  |    O          55      -86.19      75.11      0.15  -3.214E+00   0.11 |
  |    O          56      -88.91      84.05      0.07  -3.206E+00   0.09 |
  |    Zr          1     1614.21    -119.48      0.04  -3.701E+01   0.01 |
  |    Zr          2     1633.39    -128.73      0.11  -3.822E+01   0.14 |
  |    Zr          3     1613.86    -119.59      0.03  -3.706E+01   0.00 |
  |    Zr          4     1627.89    -124.58      0.05  -3.757E+01   0.14 |
[...]
  |    La          2     4604.61     517.71      0.09  -7.732E+01   0.07 |
  |    La          3     4703.90     776.26      0.13  -8.258E+01   0.18 |
  |    La          4     4756.94     864.84      0.04  -8.705E+01   0.08 |
  |    La          5     4653.96     651.70      0.11  -8.011E+01   0.17 |
  |    La          6     4655.68     659.21      0.09  -8.010E+01   0.15 |
  |    La          7     4756.73     865.64      0.04  -8.714E+01   0.08 |
  |    La          8     4604.60     509.11      0.09  -7.701E+01   0.09 |
  |    La          9     4654.14     651.96      0.11  -8.009E+01   0.17 |
  |    La         10     4651.49     663.82      0.12  -7.923E+01   0.16 |
  |    La         11     4701.17     784.82      0.14  -8.198E+01   0.17 |
  |    La         12     4604.71     509.98      0.09  -7.711E+01   0.09 |
  |    La         13     4655.64     658.21      0.09  -7.999E+01   0.14 |
  |    La         14     4666.95     617.99      0.00  -8.198E+01   0.01 |
  |    La         15     4756.82     867.19      0.04  -8.724E+01   0.08 |
  |    La         16     4651.55     663.50      0.12  -7.916E+01   0.16 |

 *********************** Forces ***********************
 *            Cartesian components (eV/A)             *
 *                   x            y            z      *
 * O         1     -0.00409      0.00164      0.00774 *
 * O         2     -0.00583      0.00738     -0.00367 *
 * O         3     -0.00388      0.00793      0.00093 *
 * O         4     -0.00117      0.00150      0.00617 *
 * O         5     -0.00245     -0.00830     -0.00562 *
 * O         6      0.00203     -0.00751     -0.00240 *
 * O         7      0.00736     -0.00097     -0.00159 *
 * O         8      0.00588     -0.00199      0.00026 *
 * O         9      0.02973     -0.00520      0.00017 *
 * O        10      0.02541     -0.02288     -0.01682 *
 * O        11      0.03684     -0.00732     -0.00710 *
 * O        12      0.01209      0.00937      0.01530 *
 * O        13      0.00705     -0.01734     -0.02226 *
 * O        14     -0.00401     -0.02111     -0.00551 *
 * O        15      0.02957      0.00954     -0.01303 *
 * O        16     -0.01790     -0.00690     -0.02607 *
 * O        17     -0.01493     -0.04395      0.00470 *
 * O        18     -0.01075      0.00664     -0.01155 *
 * O        19      0.02480     -0.02206     -0.00108 *
 * O        20      0.01445     -0.01192     -0.03159 *
 * O        21     -0.01329     -0.00854      0.02847 *
 * O        22     -0.02598      0.00607     -0.01705 *
 * O        23     -0.02344      0.01702      0.00716 *
 * O        24     -0.00540      0.02143     -0.00782 *
 * O        25     -0.03137      0.01348      0.00869 *
 * O        26     -0.00239      0.02385      0.02512 *
 * O        27     -0.01038     -0.00833     -0.01300 *
 * O        28      0.00828      0.04258     -0.01190 *
 * O        29     -0.01313      0.02425      0.02962 *
 * O        30      0.00070      0.00479      0.03224 *
 * O        31      0.01412     -0.00937      0.01373 *
 * O        32     -0.00680      0.00879      0.03628 *
 * O        33      0.00748     -0.00810      0.04428 *
 * O        34     -0.03307      0.00053     -0.00541 *
 * O        35      0.01624      0.02507      0.00432 *
 * O        36      0.01040     -0.00006      0.04854 *
 * O        37     -0.02119      0.01514     -0.02725 *
 * O        38     -0.02001      0.01547      0.02696 *
 * O        39     -0.02235     -0.01795     -0.01140 *
 * O        40      0.01445     -0.02738     -0.00786 *
 * O        41     -0.02829     -0.01611     -0.02212 *
 * O        42      0.02668     -0.01616     -0.01985 *
 * O        43      0.00708     -0.00062     -0.03470 *
 * O        44     -0.00545      0.01144     -0.01403 *
 * O        45      0.02394      0.00588     -0.00017 *
 * O        46      0.02648     -0.00116     -0.01151 *
 * O        47     -0.00784      0.00023     -0.03141 *
 * O        48      0.04423      0.00812      0.00318 *
 * O        49     -0.00771      0.01738     -0.02377 *
 * O        50     -0.01145      0.02870      0.00714 *
 * O        51     -0.03532      0.00050      0.00732 *
 * O        52     -0.01348     -0.01325     -0.01130 *
 * O        53      0.00526     -0.00820      0.02440 *
 * O        54     -0.01412      0.00028      0.01986 *
 * O        55      0.00383     -0.02543      0.01673 *
 * O        56      0.04522      0.00120      0.00351 *
 * Zr        1     -0.02251      0.00256      0.01124 *
 * Zr        2      0.01594      0.00307      0.01537 *
 * Zr        3      0.00881     -0.00443      0.01479 *
 * Zr        4      0.00865      0.03074      0.00529 *
[...]
 * La        2      0.00988      0.00166      0.01379 *
 * La        3      0.01955     -0.02082      0.01639 *
 * La        4      0.01108      0.00424      0.00689 *
 * La        5      0.01218      0.00861     -0.00474 *
 * La        6     -0.00149      0.01710     -0.00267 *
 * La        7     -0.01656      0.02423      0.01772 *
 * La        8     -0.00699     -0.00049      0.00721 *
 * La        9     -0.00861     -0.00760      0.01080 *
 * La       10     -0.01357     -0.00026     -0.01138 *
 * La       11     -0.00985     -0.00146     -0.01176 *
 * La       12      0.00515      0.00040     -0.00611 *
 * La       13     -0.00220     -0.01647     -0.00089 *
 * La       14     -0.01035     -0.00047     -0.00932 *
 * La       15      0.02046     -0.02124     -0.01643 *
 * La       16     -0.00644     -0.00258     -0.01619 *

 ***************** Stress Tensor *****************
 *          Cartesian components (GPa)           *
 *             x             y             z     *
 *  x      0.026600     -0.007902     -0.007908  *
 *  y     -0.007902     -0.057616      0.008492  *
 *  z     -0.007908      0.008492      0.058960  *
 *  Pressure:   -0.0093                          *

[...]

 Pseudo atomic calculation performed for Sn 4d10 5s2 5p2

[...]

 Pseudo atomic calculation performed for La 5s2 5p6 5d1 6s2

 Converged in 34 iterations to a total energy of -968.0373 eV

Charge spilling parameter for spin component 1 = 0.24%

     Atomic Populations (Mulliken)
Species   Ion     s      p      d      f     Total  Charge (e)
  O        1     1.87   5.00   0.00   0.00   6.87    -0.87
  O        2     1.87   5.00   0.00   0.00   6.87    -0.87
  O        3     1.87   5.00   0.00   0.00   6.87    -0.87
  O        4     1.87   5.00   0.00   0.00   6.87    -0.87
  O        5     1.87   5.00   0.00   0.00   6.87    -0.87
  O        6     1.87   5.00   0.00   0.00   6.87    -0.87
  O        7     1.87   5.00   0.00   0.00   6.87    -0.87
  O        8     1.87   5.00   0.00   0.00   6.87    -0.87
  O        9     1.87   4.99   0.00   0.00   6.85    -0.85
  O       10     1.86   4.95   0.00   0.00   6.80    -0.80
  O       11     1.88   5.02   0.00   0.00   6.91    -0.91
  O       12     1.87   4.99   0.00   0.00   6.85    -0.85
  O       13     1.86   4.94   0.00   0.00   6.80    -0.80
  O       14     1.87   4.99   0.00   0.00   6.85    -0.85
  O       15     1.88   5.02   0.00   0.00   6.91    -0.91
  O       16     1.87   4.99   0.00   0.00   6.86    -0.86
  O       17     1.87   4.99   0.00   0.00   6.86    -0.86
  O       18     1.87   4.99   0.00   0.00   6.85    -0.85
  O       19     1.88   5.02   0.00   0.00   6.91    -0.91
  O       20     1.86   4.95   0.00   0.00   6.80    -0.80
  O       21     1.88   5.02   0.00   0.00   6.91    -0.91
  O       22     1.87   4.99   0.00   0.00   6.86    -0.86
  O       23     1.86   4.94   0.00   0.00   6.80    -0.80
  O       24     1.87   4.99   0.00   0.00   6.85    -0.85
  O       25     1.86   4.95   0.00   0.00   6.80    -0.80
  O       26     1.88   5.02   0.00   0.00   6.91    -0.91
  O       27     1.87   4.99   0.00   0.00   6.85    -0.85
  O       28     1.87   4.99   0.00   0.00   6.86    -0.86
  O       29     1.86   4.95   0.00   0.00   6.80    -0.80
  O       30     1.87   4.99   0.00   0.00   6.85    -0.85
  O       31     1.87   4.99   0.00   0.00   6.85    -0.85
  O       32     1.88   5.02   0.00   0.00   6.91    -0.91
  O       33     1.87   4.99   0.00   0.00   6.86    -0.86
  O       34     1.87   4.99   0.00   0.00   6.85    -0.85
  O       35     1.87   4.99   0.00   0.00   6.85    -0.85
  O       36     1.87   4.99   0.00   0.00   6.86    -0.86
  O       37     1.88   5.02   0.00   0.00   6.91    -0.91
  O       38     1.86   4.95   0.00   0.00   6.80    -0.80
  O       39     1.87   4.99   0.00   0.00   6.86    -0.86
  O       40     1.86   4.95   0.00   0.00   6.80    -0.80
  O       41     1.88   5.02   0.00   0.00   6.91    -0.91
  O       42     1.86   4.95   0.00   0.00   6.80    -0.80
  O       43     1.86   4.95   0.00   0.00   6.80    -0.80
  O       44     1.87   4.99   0.00   0.00   6.85    -0.85
  O       45     1.87   4.99   0.00   0.00   6.86    -0.86
  O       46     1.86   4.94   0.00   0.00   6.80    -0.80
  O       47     1.87   4.99   0.00   0.00   6.85    -0.85
  O       48     1.87   4.99   0.00   0.00   6.86    -0.86
  O       49     1.87   4.99   0.00   0.00   6.86    -0.86
  O       50     1.86   4.95   0.00   0.00   6.80    -0.80
  O       51     1.86   4.95   0.00   0.00   6.80    -0.80
  O       52     1.87   4.99   0.00   0.00   6.85    -0.85
  O       53     1.87   4.99   0.00   0.00   6.86    -0.86
  O       54     1.86   4.94   0.00   0.00   6.80    -0.80
  O       55     1.87   4.99   0.00   0.00   6.85    -0.85
  O       56     1.87   4.99   0.00   0.00   6.86    -0.86
  Zr       1     2.37   6.50   1.92   0.00  10.79     1.21
  Zr       2     2.37   6.47   1.93   0.00  10.76     1.24
  Zr       3     2.37   6.50   1.92   0.00  10.79     1.21
  Zr       4     2.37   6.48   1.92   0.00  10.78     1.22
[...]
  La       2     2.10   6.19   1.19   0.00   9.48     1.52
  La       3     2.06   6.15   1.19   0.00   9.41     1.59
  La       4     2.01   6.15   1.19   0.00   9.36     1.64
  La       5     2.08   6.17   1.19   0.00   9.44     1.56
  La       6     2.08   6.17   1.19   0.00   9.45     1.55
  La       7     2.01   6.15   1.19   0.00   9.36     1.64
  La       8     2.11   6.19   1.19   0.00   9.49     1.51
  La       9     2.08   6.17   1.19   0.00   9.44     1.56
  La      10     2.07   6.17   1.19   0.00   9.43     1.57
  La      11     2.04   6.15   1.19   0.00   9.39     1.61
  La      12     2.11   6.19   1.19   0.00   9.49     1.51
  La      13     2.08   6.17   1.19   0.00   9.45     1.55
  La      14     2.05   6.19   1.19   0.00   9.43     1.57
  La      15     2.01   6.15   1.19   0.00   9.36     1.64
  La      16     2.07   6.17   1.19   0.00   9.43     1.57

            Bond              Population      Length (A)
         O 45 -- Sn 6              0.35        2.10086
         O 53 -- Sn 2              0.35        2.10097
         O 39 -- Sn 1              0.35        2.10301
         O 49 -- Sn 1              0.35        2.10327
         O 9  -- Sn 5              0.34        2.10421
         O 56 -- Sn 3              0.35        2.10436
         O 30 -- Sn 5              0.34        2.10438
         O 36 -- Sn 7              0.35        2.10451
         O 14 -- Sn 5              0.34        2.10589
         O 18 -- Sn 2              0.35        2.10594
         O 24 -- Sn 5              0.34        2.10598
         O 27 -- Sn 6              0.35        2.10621
         O 44 -- Sn 5              0.34        2.10665
         O 52 -- Sn 5              0.34        2.10684
         O 16 -- Sn 7              0.35        2.10696
         O 47 -- Sn 1              0.34        2.10715
         O 34 -- Sn 1              0.34        2.10717
         O 22 -- Sn 3              0.35        2.10720
         O 48 -- Sn 4              0.34        2.10795
         O 33 -- Sn 4              0.34        2.10811
         O 26 -- Sn 2              0.34        2.10848
         O 19 -- Sn 6              0.34        2.10851
         O 17 -- Sn 7              0.34        2.11005
         O 19 -- Sn 3              0.33        2.11005
         O 26 -- Sn 7              0.33        2.11010
         O 28 -- Sn 3              0.34        2.11023
         O 55 -- Sn 2              0.34        2.11034
         O 35 -- Sn 6              0.34        2.11040
         O 29 -- Zr 4              0.41        2.11044
         O 15 -- Sn 4              0.33        2.11136
         O 21 -- Sn 4              0.33        2.11145
         O 31 -- Sn 6              0.34        2.11170
         O 12 -- Sn 2              0.34        2.11179
         O 21 -- Sn 2              0.33        2.11196
         O 15 -- Sn 6              0.33        2.11197
         O 10 -- Zr 7              0.41        2.11205
         O 29 -- Zr 9              0.41        2.11292
         O 10 -- Zr 5              0.41        2.11307
         O 42 -- Zr 8              0.42        2.11338
         O 38 -- Zr 6              0.42        2.11416
         O 38 -- Zr 2              0.42        2.11424
         O 43 -- Zr 9              0.42        2.11428
         O 51 -- Zr 5              0.42        2.11462
         O 42 -- Zr 2              0.42        2.11464
         O 32 -- Sn 4              0.34        2.11527
         O 11 -- Sn 4              0.34        2.11550
         O 20 -- Zr 6              0.42        2.11570
         O 13 -- Zr 8              0.42        2.11575
         O 25 -- Zr 7              0.42        2.11576
         O 53 -- Zr 3              0.44        2.11589
         O 37 -- Sn 1              0.33        2.11595
         O 51 -- Zr 2              0.42        2.11605
         O 32 -- Sn 7              0.34        2.11607
         O 41 -- Sn 1              0.33        2.11608
         O 43 -- Zr 2              0.42        2.11608
         O 23 -- Zr 6              0.42        2.11620
         O 11 -- Sn 3              0.34        2.11634
         O 50 -- Zr 1              0.43        2.11641
         O 25 -- Zr 8              0.42        2.11672
         O 20 -- Zr 4              0.42        2.11691
[...]
         O 35 -- O 43             -0.03        2.82639
         O 48 -- O 50             -0.03        2.82647
         O 36 -- O 46             -0.03        2.82672
         O 33 -- O 40             -0.03        2.82693
         O 51 -- O 55             -0.03        2.82699
         O 18 -- O 25             -0.03        2.82704
         O 20 -- O 28             -0.03        2.82707
         O 17 -- O 25             -0.03        2.82720
         O 20 -- O 27             -0.03        2.82722
         O 18 -- O 50             -0.03        2.82803
         O 27 -- O 40             -0.03        2.82886
         O 22 -- O 43             -0.03        2.83153
         O 16 -- O 51             -0.03        2.83214
         O 16 -- O 31             -0.03        2.83347
         O 12 -- O 22             -0.03        2.83416

Initialisation time =     25.03 s
Calculation time    =   2774.97 s
Finalisation time   =      0.12 s
Total time          =   2800.12 s

Overall parallel efficiency rating: Good (72%)

Data was distributed by:-
G-vector (64-way); efficiency rating: Good (75%)
k-point (14-way); efficiency rating: Excellent (94%)