 Compiled for linux_x86_64_ifort16 on Sat, 23 Jul 2016 23:44:54 +0100
 from code version
 203e84763863+ Castep161_branch Fri, 04 Mar 2016 19:21:07 +0000
 Compiler: Intel Fortran 16.0.3.210; Optimisation: fast
 MATHLIBS: Intel MKL(11.3.3) (LAPACK version 3.6.0)
 FFT Lib : mkl
 Fundamental constants values: CODATA 2010

 Run started: Thu, 22 Feb 2018 14:41:15 +0000
 |           N   N    M   M    RRRR                |
 |           NN  N    MM MM    R   R               |
 |           N N N    M M M    RRRR                |
 |           N  NN    M   M    R  R                |
 |           N   N    M   M    R   R               |
 | Welcome to Materials Studio CASTEP-NMR          |
 | Authors:                                        |
 | J.R. Yates, C.J. Pickard, F. Mauri              |
 | Contributors:                                   |
 | T.F.G. Green, S.A. Joyce                        |
 | Copyright (c) 2004 - 2015                       |
 | Please cite the appropriate publications in all |
 | work arising from your use of CASTEP NMR.       |
 | For NMR Shielding Tensors cite:                 |
 |    "All-electron magnetic response with         |
 |    pseudopotentials: NMR chemical shifts",      |
 |    C. J. Pickard, F. Mauri;                     |
 |    Physical Review B63 245101 (2001), and       |
 |    "Calculation of NMR Chemical Shifts          |
 |    for extended systems using                   |
 |    Ultrasoft Pseudopotentials",                 |
 |    J. R. Yates, C. J. Pickard and F. Mauri      |
 |    Physical Review B76 024401 (2007)            |
 | For Electric Field Gradients cite:              |
 |   "Accurate First Principles Prediction of 17O  |
 |    NMR Parameters in SiO2: Assignment of the    |
 |    Zeolite Ferrierite Spectrum"                 |
 |    M. Profeta, F. Mauri and C. J. Pickard       |
 |    J. Amer. Chem. Soc. 125 541 (2003)           |
 | For Spin-Spin (J) Couplings cite:               |
 |   "A first principles theory of NMR J-coupling  |
 |   in solid-state systems"                       |
 |   S.A. Joyce, J.R. Yates, C.J. Pickard, F. Mauri|
 |   J. Chem. Phys. 127 204107 (2007)              |
 |   "Relativistic NMR J-coupling with ultrasoft   |
 |   pseudopotentials and the zeroth-order regular |
 |   approximation"                                |
 |   T.F.G. Green and J.R. Yates                   |
 |   J. Chem. Phys. 140 234106 (2014)              |

 Atomic calculation performed for O: 1s2 2s2 2p4

 Converged in 44 iterations to an ae energy of -2040.855 eV

 Atomic calculation performed for O: 1s2 2s2 2p4

 Exceeded max iterations: converged to 0.000000062 eV

   | Pseudopotential Report - Date of generation 22-02-2018   |
   | Element: O Ionic charge:  6.00 Level of theory: PBE      |
   | Atomic Solver: ZORA (scalar)                             |
   |               Reference Electronic Structure             |
   |         Orbital         Occupation         Energy        |
   |            2s              2.000           -0.881        |
   |            2p              4.000           -0.332        |
   |                 Pseudopotential Definition               |
   |        Beta     l      e      Rc     scheme   norm       |
   |          1      0   -0.881   1.100     qc      0         |
   |          2      0    0.250   1.100     qc      0         |
   |          3      1   -0.332   1.100     qc      0         |
   |          4      1    0.250   1.100     qc      0         |
   |         loc     2    0.000   1.100     pn      0         |
   | Augmentation charge Rinner = 0.769                       |
   | Partial core correction Rc = 0.769                       |
   | "2|1.1|15|18|20|20:21(qc=7)"                             |
   |      Author: Chris J. Pickard, Cambridge University      |

 Atomic calculation performed for Zr: 1s2 2s2 2p6 3s2 3p6 3d10 4s2 4p6 4d2 5s2

[...]

 Atomic calculation performed for Zr: 1s2 2s2 2p6 3s2 3p6 3d10 4s2 4p6 4d2 5s2

[...]

 Warning: ion_atom_descreen_psp: negative charge density encountered
   | Pseudopotential Report - Date of generation 22-02-2018   |
   | Element: Zr Ionic charge: 12.00 Level of theory: PBE     |
   | Atomic Solver: ZORA (scalar)                             |
   |               Reference Electronic Structure             |
   |         Orbital         Occupation         Energy        |
   |            4s              2.000           -2.003        |
   |            4p              6.000           -1.193        |
   |            5s              2.000           -0.163        |
   |            4d              2.000           -0.132        |
   |                 Pseudopotential Definition               |
   |        Beta     l      e      Rc     scheme   norm       |
   |          1      0   -2.003   2.105     qc      0         |
   |          2      0   -0.163   2.105     qc      0         |
   |          3      0    0.250   2.105     qc      0         |
   |          4      1   -1.193   2.105     qc      0         |
   |          5      1    0.250   2.105     qc      0         |
   |          6      2   -0.132   2.105     qc      0         |
   |          7      2    0.250   2.105     qc      0         |
   |         loc     3    0.000   2.105     pn      0         |
   | Augmentation charge Rinner = 1.471                       |
   | Partial core correction Rc = 1.471                       |
   | "3|2.1|7|8|9|40U:50:41:42"                               |
   |      Author: Chris J. Pickard, Cambridge University      |

 Atomic calculation performed for Sn:

[...]

 Atomic calculation performed for Sn:

[...]

   | Pseudopotential Report - Date of generation 22-02-2018   |
   | Element: Sn Ionic charge: 14.00 Level of theory: PBE     |
   | Atomic Solver: ZORA (scalar)                             |
   |               Reference Electronic Structure             |
   |         Orbital         Occupation         Energy        |
   |            4d             10.000           -0.950        |
   |            5s              2.000           -0.388        |
   |            5p              2.000           -0.136        |
   |                 Pseudopotential Definition               |
   |        Beta     l      e      Rc     scheme   norm       |
   |          1      0   -0.388   2.199     qc      0         |
   |          2      0    0.250   2.199     qc      0         |
   |          3      1   -0.136   2.199     qc      0         |
   |          4      1    0.250   2.199     qc      0         |
   |          5      2   -0.950   2.199     qc      0         |
   |          6      2    0.250   2.199     qc      0         |
   |         loc     3    0.000   2.199     pn      0         |
   | Augmentation charge Rinner = 1.537                       |
   | Partial core correction Rc = 1.537                       |
   | "3|2.2|7|8|9|50:51:42"                                   |
   |      Author: Chris J. Pickard, Cambridge University      |

 Atomic calculation performed for La:

 Converged in 56 iterations to an ae energy of -230121.495 eV

 Atomic calculation performed for La:

 Exceeded max iterations: converged to 0.000000907 eV

 Warning: ion_atom_descreen_psp: negative charge density encountered
   | Pseudopotential Report - Date of generation 22-02-2018   |
   | Element: La Ionic charge: 11.00 Level of theory: PBE     |
   | Atomic Solver: ZORA (scalar)                             |
   |               Reference Electronic Structure             |
   |         Orbital         Occupation         Energy        |
   |            5s              2.000           -1.430        |
   |            5p              6.000           -0.823        |
   |            6s              2.000           -0.135        |
   |            5d              1.000           -0.114        |
   |                 Pseudopotential Definition               |
   |        Beta     l      e      Rc     scheme   norm       |
   |          1      0   -1.430   2.298     qc      0         |
   |          2      0   -0.135   2.298     qc      0         |
   |          3      0    0.250   2.298     qc      0         |
   |          4      1   -0.823   2.298     qc      0         |
   |          5      1    0.250   2.298     qc      0         |
   |          6      2   -0.114   2.298     qc      0         |
   |          7      2    0.250   2.298     qc      0         |
   |         loc     2    0.000   2.298     pn      0         |
   | Augmentation charge Rinner = 1.606                       |
   | Partial core correction Rc = 1.606                       |
   | "2|2.3|5|6|7|50U:60:51:52(qc=4.5)"                       |
   |      Author: Chris J. Pickard, Cambridge University      |

 Pseudo atomic calculation performed for O 2s2 2p4

 Converged in 39 iterations to a total energy of -432.6554 eV

 Pseudo atomic calculation performed for Zr 4s2 4p6 4d2 5s2

[...]

 Calculation parallelised over 56 processes.
 Data is distributed by G-vector(4-way) and k-point(14-way)

 ************************************ Title ************************************
 nmr testing

 ***************************** General Parameters ******************************

 output verbosity                               : normal  (1)
 write checkpoint data to                       : 01.check
 type of calculation                            : Magnetic Resonance
 stress calculation                             : on
 density difference calculation                 : off
 electron localisation func (ELF) calculation   : off
 Hirshfeld analysis                             : off
 unlimited duration calculation
 timing information                             : on
 write final potential to formatted file        : off
 write final density to formatted file          : off
 write structure in CIF formatted file          : on
 write structure in CELL formatted file         : on
 write BibTeX reference list                    : on
 write OTFG pseudopotential files               : on
 checkpoint writing                             : both castep_bin and check files

 output         length unit                     : A
 output           mass unit                     : amu
 output           time unit                     : ps
 output         charge unit                     : e
 output           spin unit                     : hbar/2
 output         energy unit                     : eV
 output          force unit                     : eV/A
 output       velocity unit                     : A/ps
 output       pressure unit                     : GPa
 output     inv_length unit                     : 1/A
 output      frequency unit                     : cm-1
 output force constant unit                     : eV/A**2
 output         volume unit                     : A**3
 output   IR intensity unit                     : (D/A)**2/amu
 output         dipole unit                     : D
 output         efield unit                     : eV/A/e
 output        entropy unit                     : J/mol/K

 wavefunctions paging                           : none
 random number generator seed                   : randomised (144116784)
 data distribution                              : optimal for this architecture
[...]
  |    O          41      -88.43      85.04      0.22  -3.184E+00   0.06 |
  |    O          42      -88.44      84.99      0.22  -3.184E+00   0.06 |
  |    O          43      -88.43      85.04      0.22  -3.184E+00   0.06 |
  |    O          44      -88.44      85.00      0.22  -3.184E+00   0.06 |
  |    O          45      -88.38      84.96      0.22  -3.184E+00   0.06 |
  |    O          46      -88.44      84.99      0.22  -3.184E+00   0.06 |
  |    O          47      -88.44      84.99      0.22  -3.184E+00   0.06 |
  |    O          48      -88.39      84.96      0.22  -3.184E+00   0.06 |
  |    O          49      -88.44      84.99      0.22  -3.184E+00   0.06 |
  |    O          50      -88.38      84.96      0.22  -3.184E+00   0.06 |
  |    O          51      -88.44      84.99      0.22  -3.184E+00   0.06 |
  |    O          52      -88.39      84.96      0.22  -3.184E+00   0.06 |
  |    O          53      -88.44      84.99      0.22  -3.184E+00   0.06 |
  |    O          54      -88.39      84.96      0.22  -3.184E+00   0.06 |
  |    O          55      -88.44      85.00      0.22  -3.184E+00   0.06 |
  |    O          56      -88.39      84.96      0.22  -3.184E+00   0.06 |
  |    Zr          1     1598.64    -110.76      0.00  -3.336E+01   0.00 |
  |    Zr          2     1598.46    -110.72      0.00  -3.337E+01   0.01 |
  |    Zr          3     1598.46    -110.72      0.00  -3.337E+01   0.01 |
  |    Zr          4     1598.46    -110.72      0.00  -3.337E+01   0.01 |
[...]
  |    La          2     4650.03     655.06      0.00  -8.728E+01   0.00 |
  |    La          3     4650.03     655.06      0.00  -8.728E+01   0.00 |
  |    La          4     4650.03     655.06      0.00  -8.728E+01   0.00 |
  |    La          5     4551.55     382.29      0.03  -7.577E+01   0.08 |
  |    La          6     4551.55     382.29      0.03  -7.577E+01   0.08 |
  |    La          7     4551.55     382.29      0.03  -7.577E+01   0.08 |
  |    La          8     4551.56     382.17      0.03  -7.571E+01   0.08 |
  |    La          9     4551.57     382.35      0.03  -7.577E+01   0.07 |
  |    La         10     4551.57     382.35      0.03  -7.577E+01   0.07 |
  |    La         11     4551.57     382.35      0.03  -7.577E+01   0.07 |
  |    La         12     4551.57     382.35      0.03  -7.577E+01   0.07 |
  |    La         13     4551.56     382.17      0.03  -7.571E+01   0.08 |
  |    La         14     4551.57     382.35      0.03  -7.577E+01   0.07 |
  |    La         15     4551.57     382.35      0.03  -7.577E+01   0.07 |
  |    La         16     4551.56     382.17      0.03  -7.571E+01   0.08 |

 *********************** Forces ***********************
 *            Cartesian components (eV/A)             *
 *                   x            y            z      *
 * O         1     -0.00002     -0.00002     -0.00002 *
 * O         2     -0.00065     -0.00069      0.00004 *
 * O         3     -0.00069      0.00004     -0.00066 *
 * O         4      0.00004     -0.00065     -0.00069 *
 * O         5      0.00069      0.00065     -0.00004 *
 * O         6      0.00002      0.00002      0.00002 *
 * O         7      0.00066     -0.00004      0.00069 *
 * O         8     -0.00004      0.00069      0.00066 *
 * O         9      0.00057      0.00346      0.00156 *
 * O        10     -0.00057     -0.00348      0.00186 *
 * O        11     -0.00073      0.00372     -0.00161 *
 * O        12      0.00058     -0.00379     -0.00197 *
 * O        13      0.00156      0.00056      0.00346 *
 * O        14      0.00186     -0.00057     -0.00348 *
 * O        15     -0.00161     -0.00072      0.00373 *
 * O        16     -0.00196      0.00057     -0.00379 *
 * O        17      0.00346      0.00156      0.00057 *
 * O        18     -0.00347      0.00186     -0.00057 *
 * O        19      0.00373     -0.00161     -0.00072 *
 * O        20     -0.00379     -0.00197      0.00058 *
 * O        21      0.00348      0.00057     -0.00186 *
 * O        22     -0.00346     -0.00056     -0.00156 *
 * O        23      0.00379     -0.00057      0.00197 *
 * O        24     -0.00372      0.00072      0.00161 *
 * O        25      0.00072      0.00161     -0.00372 *
 * O        26     -0.00058      0.00197      0.00379 *
 * O        27     -0.00057     -0.00156     -0.00346 *
 * O        28      0.00057     -0.00186      0.00348 *
 * O        29      0.00197      0.00379     -0.00058 *
 * O        30      0.00161     -0.00373      0.00072 *
 * O        31     -0.00186      0.00347      0.00057 *
 * O        32     -0.00156     -0.00346     -0.00057 *
 * O        33     -0.00028     -0.02576      0.01057 *
 * O        34      0.00043      0.02582      0.01089 *
 * O        35      0.01057     -0.00028     -0.02576 *
 * O        36      0.01089      0.00043      0.02581 *
 * O        37     -0.02577      0.01057     -0.00028 *
 * O        38      0.02582      0.01089      0.00043 *
 * O        39      0.02576      0.00028     -0.01057 *
 * O        40     -0.02582     -0.00043     -0.01089 *
 * O        41     -0.00043     -0.01089     -0.02582 *
 * O        42      0.00028     -0.01057      0.02576 *
 * O        43     -0.01089     -0.02582     -0.00043 *
 * O        44     -0.01057      0.02576      0.00029 *
 * O        45     -0.00025      0.01079      0.02582 *
 * O        46      0.00028      0.01079     -0.02567 *
 * O        47      0.01078     -0.02567      0.00028 *
 * O        48      0.01079      0.02582     -0.00025 *
 * O        49     -0.01079     -0.00028      0.02567 *
 * O        50     -0.01079      0.00026     -0.02582 *
 * O        51     -0.00028      0.02567     -0.01079 *
 * O        52      0.00025     -0.02582     -0.01079 *
 * O        53      0.02567     -0.01079     -0.00028 *
 * O        54     -0.02582     -0.01079      0.00026 *
 * O        55     -0.02567      0.00028      0.01079 *
 * O        56      0.02582     -0.00026      0.01079 *
 * Zr        1      0.00000     -0.00000     -0.00001 *
 * Zr        2      0.00001     -0.00003      0.00001 *
 * Zr        3     -0.00001     -0.00000      0.00001 *
 * Zr        4     -0.00000      0.00003     -0.00001 *
[...]
 * La        2     -0.00002      0.00003     -0.00001 *
 * La        3      0.00002      0.00000     -0.00002 *
 * La        4      0.00000     -0.00003      0.00002 *
 * La        5     -0.00556      0.00555     -0.00000 *
 * La        6      0.00556      0.00000     -0.00556 *
 * La        7      0.00000     -0.00555      0.00556 *
 * La        8     -0.00000      0.00563     -0.00563 *
 * La        9     -0.00007     -0.00565     -0.00553 *
 * La       10      0.00007      0.00554      0.00564 *
 * La       11      0.00564      0.00008      0.00555 *
 * La       12     -0.00564     -0.00554     -0.00007 *
 * La       13     -0.00562     -0.00000      0.00562 *
 * La       14     -0.00554     -0.00008     -0.00564 *
 * La       15      0.00554      0.00565      0.00007 *
 * La       16      0.00563     -0.00562      0.00001 *

 ***************** Stress Tensor *****************
 *          Cartesian components (GPa)           *
 *             x             y             z     *
 *  x      0.000524      0.000034      0.000037  *
 *  y      0.000034      0.000542      0.000035  *
 *  z      0.000037      0.000035      0.000533  *
 *  Pressure:   -0.0005                          *

[...]

 Pseudo atomic calculation performed for Sn 4d10 5s2 5p2

[...]

 Pseudo atomic calculation performed for La 5s2 5p6 5d1 6s2

 Converged in 34 iterations to a total energy of -968.0372 eV

Charge spilling parameter for spin component 1 = 0.26%

     Atomic Populations (Mulliken)
Species   Ion     s      p      d      f     Total  Charge (e)
  O        1     1.87   5.00   0.00   0.00   6.87    -0.87
  O        2     1.87   5.00   0.00   0.00   6.87    -0.87
  O        3     1.87   5.00   0.00   0.00   6.87    -0.87
  O        4     1.87   5.00   0.00   0.00   6.87    -0.87
  O        5     1.87   5.00   0.00   0.00   6.87    -0.87
  O        6     1.87   5.00   0.00   0.00   6.87    -0.87
  O        7     1.87   5.00   0.00   0.00   6.87    -0.87
  O        8     1.87   5.00   0.00   0.00   6.87    -0.87
  O        9     1.88   5.03   0.00   0.00   6.91    -0.91
  O       10     1.88   5.03   0.00   0.00   6.91    -0.91
  O       11     1.88   5.03   0.00   0.00   6.91    -0.91
  O       12     1.88   5.03   0.00   0.00   6.91    -0.91
  O       13     1.88   5.03   0.00   0.00   6.91    -0.91
  O       14     1.88   5.03   0.00   0.00   6.91    -0.91
  O       15     1.88   5.03   0.00   0.00   6.91    -0.91
  O       16     1.88   5.03   0.00   0.00   6.91    -0.91
  O       17     1.88   5.03   0.00   0.00   6.91    -0.91
  O       18     1.88   5.03   0.00   0.00   6.91    -0.91
  O       19     1.88   5.03   0.00   0.00   6.91    -0.91
  O       20     1.88   5.03   0.00   0.00   6.91    -0.91
  O       21     1.88   5.03   0.00   0.00   6.91    -0.91
  O       22     1.88   5.03   0.00   0.00   6.91    -0.91
  O       23     1.88   5.03   0.00   0.00   6.91    -0.91
  O       24     1.88   5.03   0.00   0.00   6.91    -0.91
  O       25     1.88   5.03   0.00   0.00   6.91    -0.91
  O       26     1.88   5.03   0.00   0.00   6.91    -0.91
  O       27     1.88   5.03   0.00   0.00   6.91    -0.91
  O       28     1.88   5.03   0.00   0.00   6.91    -0.91
  O       29     1.88   5.03   0.00   0.00   6.91    -0.91
  O       30     1.88   5.03   0.00   0.00   6.91    -0.91
  O       31     1.88   5.03   0.00   0.00   6.91    -0.91
  O       32     1.88   5.03   0.00   0.00   6.91    -0.91
  O       33     1.87   4.99   0.00   0.00   6.86    -0.86
  O       34     1.87   4.99   0.00   0.00   6.86    -0.86
  O       35     1.87   4.99   0.00   0.00   6.86    -0.86
  O       36     1.87   4.99   0.00   0.00   6.86    -0.86
  O       37     1.87   4.99   0.00   0.00   6.86    -0.86
  O       38     1.87   4.99   0.00   0.00   6.86    -0.86
  O       39     1.87   4.99   0.00   0.00   6.86    -0.86
  O       40     1.87   4.99   0.00   0.00   6.86    -0.86
  O       41     1.87   4.99   0.00   0.00   6.86    -0.86
  O       42     1.87   4.99   0.00   0.00   6.86    -0.86
  O       43     1.87   4.99   0.00   0.00   6.86    -0.86
  O       44     1.87   4.99   0.00   0.00   6.86    -0.86
  O       45     1.87   4.99   0.00   0.00   6.86    -0.86
  O       46     1.87   4.99   0.00   0.00   6.86    -0.86
  O       47     1.87   4.99   0.00   0.00   6.86    -0.86
  O       48     1.87   4.99   0.00   0.00   6.86    -0.86
  O       49     1.87   4.99   0.00   0.00   6.86    -0.86
  O       50     1.87   4.99   0.00   0.00   6.86    -0.86
  O       51     1.87   4.99   0.00   0.00   6.86    -0.86
  O       52     1.87   4.99   0.00   0.00   6.86    -0.86
  O       53     1.87   4.99   0.00   0.00   6.86    -0.86
  O       54     1.87   4.99   0.00   0.00   6.86    -0.86
  O       55     1.87   4.99   0.00   0.00   6.86    -0.86
  O       56     1.87   4.99   0.00   0.00   6.86    -0.86
  Zr       1     2.37   6.49   1.92   0.00  10.78     1.22
  Zr       2     2.37   6.49   1.92   0.00  10.78     1.22
  Zr       3     2.37   6.49   1.92   0.00  10.78     1.22
  Zr       4     2.37   6.49   1.92   0.00  10.78     1.22
[...]
  La       2     2.04   6.17   1.20   0.00   9.41     1.59
  La       3     2.04   6.17   1.20   0.00   9.41     1.59
  La       4     2.04   6.17   1.20   0.00   9.41     1.59
  La       5     2.08   6.19   1.19   0.00   9.46     1.54
  La       6     2.08   6.19   1.19   0.00   9.46     1.54
  La       7     2.08   6.19   1.19   0.00   9.46     1.54
  La       8     2.08   6.19   1.19   0.00   9.46     1.54
  La       9     2.08   6.19   1.19   0.00   9.46     1.54
  La      10     2.08   6.19   1.19   0.00   9.46     1.54
  La      11     2.08   6.19   1.19   0.00   9.46     1.54
  La      12     2.08   6.19   1.19   0.00   9.46     1.54
  La      13     2.08   6.19   1.19   0.00   9.46     1.54
  La      14     2.08   6.19   1.19   0.00   9.46     1.54
  La      15     2.08   6.19   1.19   0.00   9.46     1.54
  La      16     2.08   6.19   1.19   0.00   9.46     1.54

            Bond              Population      Length (A)
         O 56 -- Sn 6              0.34        2.10631
         O 52 -- Sn 10             0.34        2.10631
         O 50 -- Sn 8              0.34        2.10631
         O 54 -- Sn 5              0.34        2.10631
         O 45 -- Sn 11             0.34        2.10631
         O 48 -- Sn 7              0.34        2.10631
         O 39 -- Sn 5              0.34        2.10633
         O 35 -- Sn 11             0.34        2.10633
         O 33 -- Sn 7              0.34        2.10633
         O 42 -- Sn 8              0.34        2.10633
         O 44 -- Sn 10             0.34        2.10633
         O 37 -- Sn 6              0.34        2.10633
         O 38 -- Sn 4              0.34        2.10633
         O 41 -- Sn 12             0.34        2.10633
         O 36 -- Sn 12             0.34        2.10633
         O 43 -- Sn 9              0.34        2.10633
         O 34 -- Sn 9              0.34        2.10633
         O 40 -- Sn 4              0.34        2.10633
         O 47 -- Sn 2              0.34        2.10634
         O 53 -- Sn 3              0.34        2.10634
         O 55 -- Sn 3              0.34        2.10634
         O 49 -- Sn 1              0.34        2.10634
         O 51 -- Sn 2              0.34        2.10634
         O 46 -- Sn 1              0.34        2.10634
         O 22 -- Sn 6              0.34        2.11098
         O 9  -- Sn 10             0.34        2.11098
         O 13 -- Sn 8              0.34        2.11098
         O 17 -- Sn 5              0.34        2.11098
         O 32 -- Sn 7              0.34        2.11098
         O 27 -- Sn 11             0.34        2.11098
         O 20 -- Sn 4              0.34        2.11104
         O 16 -- Sn 12             0.34        2.11104
         O 26 -- Sn 12             0.34        2.11104
         O 29 -- Sn 9              0.34        2.11104
         O 23 -- Sn 4              0.34        2.11104
         O 12 -- Sn 9              0.34        2.11104
         O 31 -- Sn 2              0.34        2.11106
         O 18 -- Sn 3              0.34        2.11106
         O 14 -- Sn 1              0.34        2.11106
         O 28 -- Sn 1              0.34        2.11106
         O 21 -- Sn 3              0.34        2.11106
         O 10 -- Sn 2              0.34        2.11106
         O 24 -- Sn 5              0.34        2.11107
         O 15 -- Sn 11             0.34        2.11107
         O 11 -- Sn 7              0.34        2.11107
         O 25 -- Sn 8              0.34        2.11107
         O 30 -- Sn 10             0.34        2.11107
         O 19 -- Sn 6              0.34        2.11107
         O 29 -- Sn 1              0.33        2.11421
         O 12 -- Sn 3              0.33        2.11421
         O 20 -- Sn 1              0.33        2.11421
         O 23 -- Sn 2              0.33        2.11421
         O 26 -- Sn 3              0.33        2.11421
         O 16 -- Sn 2              0.33        2.11421
         O 13 -- Sn 9              0.33        2.11426
         O 32 -- Sn 12             0.33        2.11426
         O 27 -- Sn 4              0.33        2.11426
         O 17 -- Sn 12             0.33        2.11426
         O 22 -- Sn 9              0.33        2.11426
         O 9  -- Sn 4              0.33        2.11426
[...]
         O 37 -- O 39             -0.03        2.82110
         O 35 -- O 42             -0.03        2.82110
         O 33 -- O 44             -0.03        2.82110
         O 36 -- O 44             -0.03        2.83645
         O 35 -- O 43             -0.03        2.83645
         O 34 -- O 39             -0.03        2.83645
         O 37 -- O 41             -0.03        2.83645
         O 33 -- O 40             -0.03        2.83645
         O 38 -- O 42             -0.03        2.83645
         O 48 -- O 50             -0.03        2.83645
         O 45 -- O 54             -0.03        2.83645
         O 52 -- O 56             -0.03        2.83645
         O 51 -- O 55             -0.03        2.83648
         O 47 -- O 49             -0.03        2.83648
         O 46 -- O 53             -0.03        2.83648

Writing analysis data to 01.castep_bin

Writing model to 01.check

 A BibTeX formatted list of references used in this run has been written to
 01.bib

Initialisation time =     53.88 s
Calculation time    =  33826.13 s
Finalisation time   =     38.32 s
Total time          =  33918.34 s

Overall parallel efficiency rating: Good (79%)

Data was distributed by:-
G-vector (4-way); efficiency rating: Good (79%)
k-point (14-way); efficiency rating: Excellent (99%)