 Compiled for linux_x86_64_ifort16 on Sat, 23 Jul 2016 23:44:54 +0100
 from code version
 203e84763863+ Castep161_branch Fri, 04 Mar 2016 19:21:07 +0000
 Compiler: Intel Fortran 16.0.3.210; Optimisation: fast
 MATHLIBS: Intel MKL(11.3.3) (LAPACK version 3.6.0)
 FFT Lib : mkl
 Fundamental constants values: CODATA 2010

 Run started: Fri, 23 Feb 2018 11:54:01 +0000
 |           N   N    M   M    RRRR                |
 |           NN  N    MM MM    R   R               |
 |           N N N    M M M    RRRR                |
 |           N  NN    M   M    R  R                |
 |           N   N    M   M    R   R               |
 | Welcome to Materials Studio CASTEP-NMR          |
 | Authors:                                        |
 | J.R. Yates, C.J. Pickard, F. Mauri              |
 | Contributors:                                   |
 | T.F.G. Green, S.A. Joyce                        |
 | Copyright (c) 2004 - 2015                       |
 | Please cite the appropriate publications in all |
 | work arising from your use of CASTEP NMR.       |
 | For NMR Shielding Tensors cite:                 |
 |    "All-electron magnetic response with         |
 |    pseudopotentials: NMR chemical shifts",      |
 |    C. J. Pickard, F. Mauri;                     |
 |    Physical Review B63 245101 (2001), and       |
 |    "Calculation of NMR Chemical Shifts          |
 |    for extended systems using                   |
 |    Ultrasoft Pseudopotentials",                 |
 |    J. R. Yates, C. J. Pickard and F. Mauri      |
 |    Physical Review B76 024401 (2007)            |
 | For Electric Field Gradients cite:              |
 |   "Accurate First Principles Prediction of 17O  |
 |    NMR Parameters in SiO2: Assignment of the    |
 |    Zeolite Ferrierite Spectrum"                 |
 |    M. Profeta, F. Mauri and C. J. Pickard       |
 |    J. Amer. Chem. Soc. 125 541 (2003)           |
 | For Spin-Spin (J) Couplings cite:               |
 |   "A first principles theory of NMR J-coupling  |
 |   in solid-state systems"                       |
 |   S.A. Joyce, J.R. Yates, C.J. Pickard, F. Mauri|
 |   J. Chem. Phys. 127 204107 (2007)              |
 |   "Relativistic NMR J-coupling with ultrasoft   |
 |   pseudopotentials and the zeroth-order regular |
 |   approximation"                                |
 |   T.F.G. Green and J.R. Yates                   |
 |   J. Chem. Phys. 140 234106 (2014)              |

 Atomic calculation performed for O: 1s2 2s2 2p4

 Converged in 44 iterations to an ae energy of -2040.855 eV

 Atomic calculation performed for O: 1s2 2s2 2p4

 Exceeded max iterations: converged to 0.000000062 eV

   | Pseudopotential Report - Date of generation 23-02-2018   |
   | Element: O Ionic charge:  6.00 Level of theory: PBE      |
   | Atomic Solver: ZORA (scalar)                             |
   |               Reference Electronic Structure             |
   |         Orbital         Occupation         Energy        |
   |            2s              2.000           -0.881        |
   |            2p              4.000           -0.332        |
   |                 Pseudopotential Definition               |
   |        Beta     l      e      Rc     scheme   norm       |
   |          1      0   -0.881   1.100     qc      0         |
   |          2      0    0.250   1.100     qc      0         |
   |          3      1   -0.332   1.100     qc      0         |
   |          4      1    0.250   1.100     qc      0         |
   |         loc     2    0.000   1.100     pn      0         |
   | Augmentation charge Rinner = 0.769                       |
   | Partial core correction Rc = 0.769                       |
   | "2|1.1|15|18|20|20:21(qc=7)"                             |
   |      Author: Chris J. Pickard, Cambridge University      |

 Atomic calculation performed for Zr: 1s2 2s2 2p6 3s2 3p6 3d10 4s2 4p6 4d2 5s2

[...]

 Atomic calculation performed for Zr: 1s2 2s2 2p6 3s2 3p6 3d10 4s2 4p6 4d2 5s2

[...]

 Warning: ion_atom_descreen_psp: negative charge density encountered
   | Pseudopotential Report - Date of generation 23-02-2018   |
   | Element: Zr Ionic charge: 12.00 Level of theory: PBE     |
   | Atomic Solver: ZORA (scalar)                             |
   |               Reference Electronic Structure             |
   |         Orbital         Occupation         Energy        |
   |            4s              2.000           -2.003        |
   |            4p              6.000           -1.193        |
   |            5s              2.000           -0.163        |
   |            4d              2.000           -0.132        |
   |                 Pseudopotential Definition               |
   |        Beta     l      e      Rc     scheme   norm       |
   |          1      0   -2.003   2.105     qc      0         |
   |          2      0   -0.163   2.105     qc      0         |
   |          3      0    0.250   2.105     qc      0         |
   |          4      1   -1.193   2.105     qc      0         |
   |          5      1    0.250   2.105     qc      0         |
   |          6      2   -0.132   2.105     qc      0         |
   |          7      2    0.250   2.105     qc      0         |
   |         loc     3    0.000   2.105     pn      0         |
   | Augmentation charge Rinner = 1.471                       |
   | Partial core correction Rc = 1.471                       |
   | "3|2.1|7|8|9|40U:50:41:42"                               |
   |      Author: Chris J. Pickard, Cambridge University      |

 Atomic calculation performed for Sn:

[...]

 Atomic calculation performed for Sn:

[...]

   | Pseudopotential Report - Date of generation 23-02-2018   |
   | Element: Sn Ionic charge: 14.00 Level of theory: PBE     |
   | Atomic Solver: ZORA (scalar)                             |
   |               Reference Electronic Structure             |
   |         Orbital         Occupation         Energy        |
   |            4d             10.000           -0.950        |
   |            5s              2.000           -0.388        |
   |            5p              2.000           -0.136        |
   |                 Pseudopotential Definition               |
   |        Beta     l      e      Rc     scheme   norm       |
   |          1      0   -0.388   2.199     qc      0         |
   |          2      0    0.250   2.199     qc      0         |
   |          3      1   -0.136   2.199     qc      0         |
   |          4      1    0.250   2.199     qc      0         |
   |          5      2   -0.950   2.199     qc      0         |
   |          6      2    0.250   2.199     qc      0         |
   |         loc     3    0.000   2.199     pn      0         |
   | Augmentation charge Rinner = 1.537                       |
   | Partial core correction Rc = 1.537                       |
   | "3|2.2|7|8|9|50:51:42"                                   |
   |      Author: Chris J. Pickard, Cambridge University      |

 Atomic calculation performed for La:

 Converged in 56 iterations to an ae energy of -230121.495 eV

 Atomic calculation performed for La:

 Exceeded max iterations: converged to 0.000000907 eV

 Warning: ion_atom_descreen_psp: negative charge density encountered
   | Pseudopotential Report - Date of generation 23-02-2018   |
   | Element: La Ionic charge: 11.00 Level of theory: PBE     |
   | Atomic Solver: ZORA (scalar)                             |
   |               Reference Electronic Structure             |
   |         Orbital         Occupation         Energy        |
   |            5s              2.000           -1.430        |
   |            5p              6.000           -0.823        |
   |            6s              2.000           -0.135        |
   |            5d              1.000           -0.114        |
   |                 Pseudopotential Definition               |
   |        Beta     l      e      Rc     scheme   norm       |
   |          1      0   -1.430   2.298     qc      0         |
   |          2      0   -0.135   2.298     qc      0         |
   |          3      0    0.250   2.298     qc      0         |
   |          4      1   -0.823   2.298     qc      0         |
   |          5      1    0.250   2.298     qc      0         |
   |          6      2   -0.114   2.298     qc      0         |
   |          7      2    0.250   2.298     qc      0         |
   |         loc     2    0.000   2.298     pn      0         |
   | Augmentation charge Rinner = 1.606                       |
   | Partial core correction Rc = 1.606                       |
   | "2|2.3|5|6|7|50U:60:51:52(qc=4.5)"                       |
   |      Author: Chris J. Pickard, Cambridge University      |

 Pseudo atomic calculation performed for O 2s2 2p4

 Converged in 39 iterations to a total energy of -432.6554 eV

 Pseudo atomic calculation performed for Zr 4s2 4p6 4d2 5s2

[...]

 Calculation parallelised over 56 processes.
 Data is distributed by G-vector(4-way) and k-point(14-way)

 ************************************ Title ************************************
 nmr testing

 ***************************** General Parameters ******************************

 output verbosity                               : normal  (1)
 write checkpoint data to                       : 03.check
 type of calculation                            : Magnetic Resonance
 stress calculation                             : on
 density difference calculation                 : off
 electron localisation func (ELF) calculation   : off
 Hirshfeld analysis                             : off
 unlimited duration calculation
 timing information                             : on
 write final potential to formatted file        : off
 write final density to formatted file          : off
 write structure in CIF formatted file          : on
 write structure in CELL formatted file         : on
 write BibTeX reference list                    : on
 write OTFG pseudopotential files               : on
 checkpoint writing                             : both castep_bin and check files

 output         length unit                     : A
 output           mass unit                     : amu
 output           time unit                     : ps
 output         charge unit                     : e
 output           spin unit                     : hbar/2
 output         energy unit                     : eV
 output          force unit                     : eV/A
 output       velocity unit                     : A/ps
 output       pressure unit                     : GPa
 output     inv_length unit                     : 1/A
 output      frequency unit                     : cm-1
 output force constant unit                     : eV/A**2
 output         volume unit                     : A**3
 output   IR intensity unit                     : (D/A)**2/amu
 output         dipole unit                     : D
 output         efield unit                     : eV/A/e
 output        entropy unit                     : J/mol/K

 wavefunctions paging                           : none
 random number generator seed                   : randomised (115403035)
 data distribution                              : optimal for this architecture
[...]
  |    O          41      -15.48     -42.05      0.64   3.847E+00   0.93 |
  |    O          42      -86.95      86.19      0.26  -3.162E+00   0.06 |
  |    O          43      -85.02      85.52      0.13  -3.173E+00   0.05 |
  |    O          44      -85.76      85.46      0.23  -3.171E+00   0.07 |
  |    O          45      -88.87      84.90      0.18  -3.174E+00   0.06 |
  |    O          46      -87.24      86.20      0.09  -3.226E+00   0.07 |
  |    O          47      -17.53     -43.20      0.62   3.834E+00   0.94 |
  |    O          48      -92.33      93.44      0.26  -3.170E+00   0.07 |
  |    O          49      -17.53     -43.13      0.63   3.834E+00   0.94 |
  |    O          50      -92.33      93.47      0.26  -3.170E+00   0.07 |
  |    O          51      -87.24      86.20      0.09  -3.226E+00   0.07 |
  |    O          52      -88.87      84.90      0.18  -3.174E+00   0.06 |
  |    O          53     -160.79     148.80      0.85   1.031E+00   0.66 |
  |    O          54      -86.84      85.62      0.12  -3.190E+00   0.04 |
  |    O          55     -160.79     148.87      0.85   1.031E+00   0.66 |
  |    O          56      -86.84      85.62      0.12  -3.190E+00   0.04 |
  |    Zr          1     1599.25    -108.14      0.01  -3.352E+01   0.01 |
  |    Zr          2     1613.62    -115.23      0.06  -3.440E+01   0.12 |
  |    Zr          3     1613.62    -115.24      0.06  -3.440E+01   0.12 |
  |    Zr          4     1627.61    -118.87      0.08  -3.540E+01   0.10 |
[...]
  |    La          2     4605.85     525.77      0.05  -8.255E+01   0.10 |
  |    La          3     4605.85     525.78      0.05  -8.255E+01   0.10 |
  |    La          4     4646.33     657.18      0.01  -8.523E+01   0.04 |
  |    La          5     4601.02     530.67      0.05  -8.075E+01   0.08 |
  |    La          6     4601.02     530.67      0.05  -8.075E+01   0.08 |
  |    La          7     4557.77     378.52      0.03  -7.767E+01   0.10 |
  |    La          8     4555.30     396.76      0.04  -7.628E+01   0.09 |
  |    La          9     4599.41     513.28      0.06  -7.940E+01   0.06 |
  |    La         10     4599.41     513.26      0.06  -7.940E+01   0.06 |
  |    La         11     4502.63     227.33      0.01  -7.182E+01   0.00 |
  |    La         12     4502.63     227.33      0.01  -7.182E+01   0.00 |
  |    La         13     4553.03     388.14      0.05  -7.598E+01   0.08 |
  |    La         14     4550.44     383.54      0.04  -7.646E+01   0.10 |
  |    La         15     4550.44     383.51      0.05  -7.646E+01   0.10 |
  |    La         16     4553.03     388.13      0.05  -7.598E+01   0.08 |

 *********************** Forces ***********************
 *            Cartesian components (eV/A)             *
 *                   x            y            z      *
 * O         1      0.00074     -0.01179      0.00255 *
 * O         2     -0.00133     -0.00265     -0.00022 *
 * O         3      0.00076      0.00274     -0.00472 *
 * O         4     -0.00046      0.00635      0.00550 *
 * O         5     -0.00076      0.00472     -0.00274 *
 * O         6     -0.00074     -0.00255      0.01179 *
 * O         7      0.00133      0.00022      0.00265 *
 * O         8      0.00046     -0.00550     -0.00635 *
 * O         9      0.00027     -0.00557      0.00372 *
 * O        10     -0.00564     -0.00968      0.00143 *
 * O        11     -0.00434     -0.00343      0.00658 *
 * O        12     -0.00834     -0.02618     -0.01359 *
 * O        13     -0.00546      0.01057     -0.00029 *
 * O        14      0.00307     -0.00018     -0.00123 *
 * O        15     -0.00513     -0.00489      0.00250 *
 * O        16      0.00658     -0.00050      0.00147 *
 * O        17      0.01835      0.00871     -0.00620 *
 * O        18      0.02645     -0.01462      0.00418 *
 * O        19      0.01030      0.00129      0.00003 *
 * O        20     -0.00181     -0.00233      0.01353 *
 * O        21     -0.02646     -0.00418      0.01462 *
 * O        22     -0.01835      0.00620     -0.00871 *
 * O        23      0.00181     -0.01352      0.00233 *
 * O        24     -0.01030     -0.00004     -0.00128 *
 * O        25      0.00434     -0.00658      0.00343 *
 * O        26      0.00834      0.01358      0.02617 *
 * O        27     -0.00026     -0.00372      0.00557 *
 * O        28      0.00565     -0.00143      0.00968 *
 * O        29     -0.00657     -0.00147      0.00051 *
 * O        30      0.00513     -0.00251      0.00490 *
 * O        31     -0.00306      0.00123      0.00019 *
 * O        32      0.00545      0.00029     -0.01057 *
 * O        33     -0.00641     -0.02838      0.00449 *
 * O        34     -0.00554     -0.00715     -0.00826 *
 * O        35      0.01574      0.00705     -0.01905 *
 * O        36      0.01545      0.00171      0.01857 *
 * O        37      0.00647     -0.00158      0.00328 *
 * O        38      0.03331      0.01588      0.00338 *
 * O        39     -0.00646     -0.00328      0.00158 *
 * O        40     -0.03332     -0.00338     -0.01589 *
 * O        41      0.00554      0.00827      0.00716 *
 * O        42      0.00641     -0.00449      0.02837 *
 * O        43     -0.01545     -0.01856     -0.00171 *
 * O        44     -0.01574      0.01906     -0.00705 *
 * O        45      0.00354      0.01325      0.01230 *
 * O        46      0.00187      0.01786     -0.02535 *
 * O        47     -0.00750     -0.00179      0.00159 *
 * O        48      0.00861      0.01652      0.00306 *
 * O        49      0.00751     -0.00159      0.00179 *
 * O        50     -0.00862     -0.00306     -0.01654 *
 * O        51     -0.00187      0.02535     -0.01786 *
 * O        52     -0.00354     -0.01231     -0.01325 *
 * O        53      0.00009      0.00047      0.00385 *
 * O        54     -0.01971     -0.01330     -0.00040 *
 * O        55     -0.00009     -0.00385     -0.00047 *
 * O        56      0.01971      0.00040      0.01330 *
 * Zr        1     -0.00000     -0.03206      0.03206 *
 * Zr        2     -0.00810     -0.02225     -0.02416 *
 * Zr        3      0.00810      0.02416      0.02225 *
 * Zr        4     -0.00000     -0.01035      0.01035 *
[...]
 * La        2     -0.00224     -0.01023      0.00263 *
 * La        3      0.00224     -0.00264      0.01023 *
 * La        4     -0.00000     -0.00144      0.00144 *
 * La        5     -0.01167      0.00283      0.00812 *
 * La        6      0.01167     -0.00811     -0.00283 *
 * La        7      0.00000      0.00332     -0.00331 *
 * La        8     -0.00000      0.00046     -0.00047 *
 * La        9      0.00345     -0.01012     -0.02463 *
 * La       10     -0.00345      0.02463      0.01011 *
 * La       11      0.00326      0.00879      0.00375 *
 * La       12     -0.00326     -0.00375     -0.00879 *
 * La       13      0.00947      0.00719      0.01201 *
 * La       14     -0.00422     -0.00226      0.00151 *
 * La       15      0.00422     -0.00151      0.00226 *
 * La       16     -0.00948     -0.01201     -0.00719 *

 ***************** Stress Tensor *****************
 *          Cartesian components (GPa)           *
 *             x             y             z     *
 *  x      0.007321     -0.005883     -0.005883  *
 *  y     -0.005883     -0.003281     -0.001958  *
 *  z     -0.005883     -0.001958     -0.003281  *
 *  Pressure:   -0.0003                          *

[...]

 Pseudo atomic calculation performed for Sn 4d10 5s2 5p2

[...]

 Pseudo atomic calculation performed for La 5s2 5p6 5d1 6s2

 Converged in 34 iterations to a total energy of -968.0372 eV

Charge spilling parameter for spin component 1 = 0.26%

     Atomic Populations (Mulliken)
Species   Ion     s      p      d      f     Total  Charge (e)
  O        1     1.87   5.00   0.00   0.00   6.87    -0.87
  O        2     1.87   5.00   0.00   0.00   6.87    -0.87
  O        3     1.87   5.00   0.00   0.00   6.87    -0.87
  O        4     1.87   5.00   0.00   0.00   6.87    -0.87
  O        5     1.87   5.00   0.00   0.00   6.87    -0.87
  O        6     1.87   5.00   0.00   0.00   6.87    -0.87
  O        7     1.87   5.00   0.00   0.00   6.87    -0.87
  O        8     1.87   5.00   0.00   0.00   6.87    -0.87
  O        9     1.88   5.03   0.00   0.00   6.91    -0.91
  O       10     1.88   5.03   0.00   0.00   6.91    -0.91
  O       11     1.88   5.03   0.00   0.00   6.91    -0.91
  O       12     1.87   4.99   0.00   0.00   6.86    -0.86
  O       13     1.88   5.03   0.00   0.00   6.91    -0.91
  O       14     1.88   5.03   0.00   0.00   6.91    -0.91
  O       15     1.88   5.03   0.00   0.00   6.91    -0.91
  O       16     1.88   5.03   0.00   0.00   6.91    -0.91
  O       17     1.88   5.03   0.00   0.00   6.91    -0.91
  O       18     1.87   4.99   0.00   0.00   6.86    -0.86
  O       19     1.88   5.03   0.00   0.00   6.91    -0.91
  O       20     1.88   5.03   0.00   0.00   6.91    -0.91
  O       21     1.87   4.99   0.00   0.00   6.86    -0.86
  O       22     1.88   5.03   0.00   0.00   6.91    -0.91
  O       23     1.88   5.03   0.00   0.00   6.91    -0.91
  O       24     1.88   5.03   0.00   0.00   6.91    -0.91
  O       25     1.88   5.03   0.00   0.00   6.91    -0.91
  O       26     1.87   4.99   0.00   0.00   6.86    -0.86
  O       27     1.88   5.03   0.00   0.00   6.91    -0.91
  O       28     1.88   5.03   0.00   0.00   6.91    -0.91
  O       29     1.88   5.03   0.00   0.00   6.91    -0.91
  O       30     1.88   5.03   0.00   0.00   6.91    -0.91
  O       31     1.88   5.03   0.00   0.00   6.91    -0.91
  O       32     1.88   5.03   0.00   0.00   6.91    -0.91
  O       33     1.87   4.99   0.00   0.00   6.86    -0.86
  O       34     1.88   5.03   0.00   0.00   6.91    -0.91
  O       35     1.87   4.99   0.00   0.00   6.86    -0.86
  O       36     1.87   4.99   0.00   0.00   6.86    -0.86
  O       37     1.89   5.03   0.00   0.00   6.91    -0.91
  O       38     1.87   4.99   0.00   0.00   6.86    -0.86
  O       39     1.89   5.03   0.00   0.00   6.91    -0.91
  O       40     1.87   4.99   0.00   0.00   6.86    -0.86
  O       41     1.88   5.03   0.00   0.00   6.91    -0.91
  O       42     1.87   4.99   0.00   0.00   6.86    -0.86
  O       43     1.87   4.99   0.00   0.00   6.86    -0.86
  O       44     1.87   4.99   0.00   0.00   6.86    -0.86
  O       45     1.87   4.99   0.00   0.00   6.86    -0.86
  O       46     1.87   4.99   0.00   0.00   6.86    -0.86
  O       47     1.89   5.03   0.00   0.00   6.91    -0.91
  O       48     1.87   4.99   0.00   0.00   6.86    -0.86
  O       49     1.89   5.03   0.00   0.00   6.91    -0.91
  O       50     1.87   4.99   0.00   0.00   6.86    -0.86
  O       51     1.87   4.99   0.00   0.00   6.86    -0.86
  O       52     1.87   4.99   0.00   0.00   6.86    -0.86
  O       53     1.86   4.95   0.00   0.00   6.80    -0.80
  O       54     1.87   4.99   0.00   0.00   6.86    -0.86
  O       55     1.86   4.95   0.00   0.00   6.80    -0.80
  O       56     1.87   4.99   0.00   0.00   6.86    -0.86
  Zr       1     2.37   6.49   1.92   0.00  10.78     1.22
  Zr       2     2.36   6.48   1.92   0.00  10.77     1.23
  Zr       3     2.36   6.48   1.92   0.00  10.77     1.23
  Zr       4     2.36   6.47   1.92   0.00  10.76     1.24
[...]
  La       2     2.07   6.18   1.20   0.00   9.44     1.56
  La       3     2.07   6.18   1.20   0.00   9.44     1.56
  La       4     2.03   6.17   1.20   0.00   9.39     1.61
  La       5     2.06   6.18   1.20   0.00   9.43     1.57
  La       6     2.06   6.18   1.20   0.00   9.43     1.57
  La       7     2.09   6.19   1.19   0.00   9.48     1.52
  La       8     2.08   6.19   1.19   0.00   9.46     1.54
  La       9     2.06   6.18   1.19   0.00   9.44     1.56
  La      10     2.06   6.18   1.19   0.00   9.44     1.56
  La      11     2.11   6.20   1.19   0.00   9.50     1.50
  La      12     2.11   6.20   1.19   0.00   9.50     1.50
  La      13     2.08   6.19   1.19   0.00   9.47     1.53
  La      14     2.08   6.19   1.19   0.00   9.47     1.53
  La      15     2.08   6.19   1.19   0.00   9.47     1.53
  La      16     2.08   6.19   1.19   0.00   9.47     1.53

            Bond              Population      Length (A)
         O 44 -- Sn 10             0.34        2.10174
         O 35 -- Sn 11             0.34        2.10174
         O 40 -- Sn 4              0.34        2.10396
         O 38 -- Sn 4              0.34        2.10396
         O 22 -- Sn 6              0.35        2.10409
         O 17 -- Sn 5              0.35        2.10409
         O 21 -- Sn 7              0.34        2.10450
         O 18 -- Sn 8              0.34        2.10450
         O 16 -- Sn 12             0.34        2.10471
         O 29 -- Sn 9              0.34        2.10471
         O 50 -- Sn 8              0.34        2.10514
         O 48 -- Sn 7              0.34        2.10514
         O 46 -- Sn 2              0.34        2.10533
         O 51 -- Sn 3              0.34        2.10533
         O 45 -- Sn 11             0.34        2.10620
         O 52 -- Sn 10             0.34        2.10620
         O 12 -- Sn 9              0.34        2.10745
         O 26 -- Sn 12             0.34        2.10745
         O 56 -- Sn 6              0.34        2.10750
         O 54 -- Sn 5              0.34        2.10750
         O 22 -- Sn 9              0.33        2.10799
         O 17 -- Sn 12             0.33        2.10799
         O 30 -- Sn 8              0.34        2.10824
         O 15 -- Sn 7              0.34        2.10824
         O 16 -- Sn 3              0.33        2.10845
         O 29 -- Sn 2              0.33        2.10845
         O 33 -- Sn 7              0.34        2.10853
         O 42 -- Sn 8              0.34        2.10853
         O 41 -- Sn 12             0.34        2.10862
         O 34 -- Sn 9              0.34        2.10862
         O 30 -- Sn 10             0.34        2.10882
         O 15 -- Sn 11             0.34        2.10882
         O 28 -- Sn 2              0.34        2.10890
         O 10 -- Sn 3              0.34        2.10890
         O 36 -- Sn 12             0.34        2.11027
         O 43 -- Sn 9              0.34        2.11027
         O 34 -- Sn 1              0.33        2.11074
         O 41 -- Sn 1              0.33        2.11074
         O 10 -- Sn 5              0.33        2.11096
         O 28 -- Sn 6              0.33        2.11096
         O 11 -- Sn 7              0.34        2.11108
         O 25 -- Sn 8              0.34        2.11108
         O 27 -- Sn 11             0.34        2.11158
         O 9  -- Sn 10             0.34        2.11158
         O 37 -- Sn 1              0.34        2.11299
         O 39 -- Sn 1              0.34        2.11299
         O 53 -- Zr 3              0.41        2.11319
         O 55 -- Zr 2              0.41        2.11319
         O 47 -- Sn 1              0.34        2.11323
         O 49 -- Sn 1              0.34        2.11323
         O 47 -- Sn 3              0.33        2.11327
         O 49 -- Sn 2              0.33        2.11327
         O 9  -- Sn 4              0.33        2.11356
         O 27 -- Sn 4              0.33        2.11356
         O 37 -- Sn 6              0.33        2.11424
         O 39 -- Sn 5              0.33        2.11424
         O 25 -- Sn 5              0.33        2.11447
         O 11 -- Sn 6              0.33        2.11447
         O 50 -- Zr 1              0.44        2.11482
         O 48 -- Zr 1              0.44        2.11482
[...]
         O 48 -- O 50             -0.03        2.82336
         O 18 -- O 21             -0.03        2.82523
         O 46 -- O 53             -0.03        2.82709
         O 51 -- O 55             -0.03        2.82709
         O 36 -- O 46             -0.03        2.83192
         O 43 -- O 51             -0.03        2.83192
         O 54 -- O 56             -0.03        2.83399
         O 33 -- O 40             -0.03        2.83422
         O 38 -- O 42             -0.03        2.83422
         O 52 -- O 56             -0.03        2.83503
         O 45 -- O 54             -0.03        2.83503
         O 18 -- O 26             -0.03        2.83583
         O 12 -- O 21             -0.03        2.83583
         O 36 -- O 44             -0.03        2.83672
         O 35 -- O 43             -0.03        2.83672

Writing analysis data to 03.castep_bin

Writing model to 03.check

 A BibTeX formatted list of references used in this run has been written to
 03.bib

Initialisation time =     54.10 s
Calculation time    =  34175.79 s
Finalisation time   =     64.38 s
Total time          =  34294.27 s

Overall parallel efficiency rating: Good (79%)

Data was distributed by:-
G-vector (4-way); efficiency rating: Good (79%)
k-point (14-way); efficiency rating: Excellent (99%)