 Compiled for linux_x86_64_ifort16 on Sat, 23 Jul 2016 23:44:54 +0100
 from code version
 203e84763863+ Castep161_branch Fri, 04 Mar 2016 19:21:07 +0000
 Compiler: Intel Fortran 16.0.3.210; Optimisation: fast
 MATHLIBS: Intel MKL(11.3.3) (LAPACK version 3.6.0)
 FFT Lib : mkl
 Fundamental constants values: CODATA 2010

 Run started: Fri, 23 Feb 2018 21:25:52 +0000
 |           N   N    M   M    RRRR                |
 |           NN  N    MM MM    R   R               |
 |           N N N    M M M    RRRR                |
 |           N  NN    M   M    R  R                |
 |           N   N    M   M    R   R               |
 | Welcome to Materials Studio CASTEP-NMR          |
 | Authors:                                        |
 | J.R. Yates, C.J. Pickard, F. Mauri              |
 | Contributors:                                   |
 | T.F.G. Green, S.A. Joyce                        |
 | Copyright (c) 2004 - 2015                       |
 | Please cite the appropriate publications in all |
 | work arising from your use of CASTEP NMR.       |
 | For NMR Shielding Tensors cite:                 |
 |    "All-electron magnetic response with         |
 |    pseudopotentials: NMR chemical shifts",      |
 |    C. J. Pickard, F. Mauri;                     |
 |    Physical Review B63 245101 (2001), and       |
 |    "Calculation of NMR Chemical Shifts          |
 |    for extended systems using                   |
 |    Ultrasoft Pseudopotentials",                 |
 |    J. R. Yates, C. J. Pickard and F. Mauri      |
 |    Physical Review B76 024401 (2007)            |
 | For Electric Field Gradients cite:              |
 |   "Accurate First Principles Prediction of 17O  |
 |    NMR Parameters in SiO2: Assignment of the    |
 |    Zeolite Ferrierite Spectrum"                 |
 |    M. Profeta, F. Mauri and C. J. Pickard       |
 |    J. Amer. Chem. Soc. 125 541 (2003)           |
 | For Spin-Spin (J) Couplings cite:               |
 |   "A first principles theory of NMR J-coupling  |
 |   in solid-state systems"                       |
 |   S.A. Joyce, J.R. Yates, C.J. Pickard, F. Mauri|
 |   J. Chem. Phys. 127 204107 (2007)              |
 |   "Relativistic NMR J-coupling with ultrasoft   |
 |   pseudopotentials and the zeroth-order regular |
 |   approximation"                                |
 |   T.F.G. Green and J.R. Yates                   |
 |   J. Chem. Phys. 140 234106 (2014)              |

 Atomic calculation performed for O: 1s2 2s2 2p4

 Converged in 44 iterations to an ae energy of -2040.855 eV

 Atomic calculation performed for O: 1s2 2s2 2p4

 Exceeded max iterations: converged to 0.000000062 eV

   | Pseudopotential Report - Date of generation 23-02-2018   |
   | Element: O Ionic charge:  6.00 Level of theory: PBE      |
   | Atomic Solver: ZORA (scalar)                             |
   |               Reference Electronic Structure             |
   |         Orbital         Occupation         Energy        |
   |            2s              2.000           -0.881        |
   |            2p              4.000           -0.332        |
   |                 Pseudopotential Definition               |
   |        Beta     l      e      Rc     scheme   norm       |
   |          1      0   -0.881   1.100     qc      0         |
   |          2      0    0.250   1.100     qc      0         |
   |          3      1   -0.332   1.100     qc      0         |
   |          4      1    0.250   1.100     qc      0         |
   |         loc     2    0.000   1.100     pn      0         |
   | Augmentation charge Rinner = 0.769                       |
   | Partial core correction Rc = 0.769                       |
   | "2|1.1|15|18|20|20:21(qc=7)"                             |
   |      Author: Chris J. Pickard, Cambridge University      |

 Atomic calculation performed for Zr: 1s2 2s2 2p6 3s2 3p6 3d10 4s2 4p6 4d2 5s2

[...]

 Atomic calculation performed for Zr: 1s2 2s2 2p6 3s2 3p6 3d10 4s2 4p6 4d2 5s2

[...]

 Warning: ion_atom_descreen_psp: negative charge density encountered
   | Pseudopotential Report - Date of generation 23-02-2018   |
   | Element: Zr Ionic charge: 12.00 Level of theory: PBE     |
   | Atomic Solver: ZORA (scalar)                             |
   |               Reference Electronic Structure             |
   |         Orbital         Occupation         Energy        |
   |            4s              2.000           -2.003        |
   |            4p              6.000           -1.193        |
   |            5s              2.000           -0.163        |
   |            4d              2.000           -0.132        |
   |                 Pseudopotential Definition               |
   |        Beta     l      e      Rc     scheme   norm       |
   |          1      0   -2.003   2.105     qc      0         |
   |          2      0   -0.163   2.105     qc      0         |
   |          3      0    0.250   2.105     qc      0         |
   |          4      1   -1.193   2.105     qc      0         |
   |          5      1    0.250   2.105     qc      0         |
   |          6      2   -0.132   2.105     qc      0         |
   |          7      2    0.250   2.105     qc      0         |
   |         loc     3    0.000   2.105     pn      0         |
   | Augmentation charge Rinner = 1.471                       |
   | Partial core correction Rc = 1.471                       |
   | "3|2.1|7|8|9|40U:50:41:42"                               |
   |      Author: Chris J. Pickard, Cambridge University      |

 Atomic calculation performed for Sn:

[...]

 Atomic calculation performed for Sn:

[...]

   | Pseudopotential Report - Date of generation 23-02-2018   |
   | Element: Sn Ionic charge: 14.00 Level of theory: PBE     |
   | Atomic Solver: ZORA (scalar)                             |
   |               Reference Electronic Structure             |
   |         Orbital         Occupation         Energy        |
   |            4d             10.000           -0.950        |
   |            5s              2.000           -0.388        |
   |            5p              2.000           -0.136        |
   |                 Pseudopotential Definition               |
   |        Beta     l      e      Rc     scheme   norm       |
   |          1      0   -0.388   2.199     qc      0         |
   |          2      0    0.250   2.199     qc      0         |
   |          3      1   -0.136   2.199     qc      0         |
   |          4      1    0.250   2.199     qc      0         |
   |          5      2   -0.950   2.199     qc      0         |
   |          6      2    0.250   2.199     qc      0         |
   |         loc     3    0.000   2.199     pn      0         |
   | Augmentation charge Rinner = 1.537                       |
   | Partial core correction Rc = 1.537                       |
   | "3|2.2|7|8|9|50:51:42"                                   |
   |      Author: Chris J. Pickard, Cambridge University      |

 Atomic calculation performed for La:

 Converged in 56 iterations to an ae energy of -230121.495 eV

 Atomic calculation performed for La:

 Exceeded max iterations: converged to 0.000000907 eV

 Warning: ion_atom_descreen_psp: negative charge density encountered
   | Pseudopotential Report - Date of generation 23-02-2018   |
   | Element: La Ionic charge: 11.00 Level of theory: PBE     |
   | Atomic Solver: ZORA (scalar)                             |
   |               Reference Electronic Structure             |
   |         Orbital         Occupation         Energy        |
   |            5s              2.000           -1.430        |
   |            5p              6.000           -0.823        |
   |            6s              2.000           -0.135        |
   |            5d              1.000           -0.114        |
   |                 Pseudopotential Definition               |
   |        Beta     l      e      Rc     scheme   norm       |
   |          1      0   -1.430   2.298     qc      0         |
   |          2      0   -0.135   2.298     qc      0         |
   |          3      0    0.250   2.298     qc      0         |
   |          4      1   -0.823   2.298     qc      0         |
   |          5      1    0.250   2.298     qc      0         |
   |          6      2   -0.114   2.298     qc      0         |
   |          7      2    0.250   2.298     qc      0         |
   |         loc     2    0.000   2.298     pn      0         |
   | Augmentation charge Rinner = 1.606                       |
   | Partial core correction Rc = 1.606                       |
   | "2|2.3|5|6|7|50U:60:51:52(qc=4.5)"                       |
   |      Author: Chris J. Pickard, Cambridge University      |

 Pseudo atomic calculation performed for O 2s2 2p4

 Converged in 39 iterations to a total energy of -432.6554 eV

 Pseudo atomic calculation performed for Zr 4s2 4p6 4d2 5s2

[...]

 Calculation parallelised over 56 processes.
 Data is distributed by G-vector(4-way) and k-point(14-way)

 ************************************ Title ************************************
 nmr testing

 ***************************** General Parameters ******************************

 output verbosity                               : normal  (1)
 write checkpoint data to                       : 04.check
 type of calculation                            : Magnetic Resonance
 stress calculation                             : on
 density difference calculation                 : off
 electron localisation func (ELF) calculation   : off
 Hirshfeld analysis                             : off
 unlimited duration calculation
 timing information                             : on
 write final potential to formatted file        : off
 write final density to formatted file          : off
 write structure in CIF formatted file          : on
 write structure in CELL formatted file         : on
 write BibTeX reference list                    : on
 write OTFG pseudopotential files               : on
 checkpoint writing                             : both castep_bin and check files

 output         length unit                     : A
 output           mass unit                     : amu
 output           time unit                     : ps
 output         charge unit                     : e
 output           spin unit                     : hbar/2
 output         energy unit                     : eV
 output          force unit                     : eV/A
 output       velocity unit                     : A/ps
 output       pressure unit                     : GPa
 output     inv_length unit                     : 1/A
 output      frequency unit                     : cm-1
 output force constant unit                     : eV/A**2
 output         volume unit                     : A**3
 output   IR intensity unit                     : (D/A)**2/amu
 output         dipole unit                     : D
 output         efield unit                     : eV/A/e
 output        entropy unit                     : J/mol/K

 wavefunctions paging                           : none
 random number generator seed                   : randomised (212553586)
 data distribution                              : optimal for this architecture
[...]
  |    O          41      -19.25     -41.97      0.66   3.818E+00   0.93 |
  |    O          42      -88.71      86.03      0.06  -3.219E+00   0.08 |
  |    O          43      -86.54      86.79      0.14  -3.163E+00   0.05 |
  |    O          44      -84.64      87.96      0.19  -3.164E+00   0.06 |
  |    O          45      -85.42      87.15      0.21  -3.201E+00   0.05 |
  |    O          46      -84.83      87.06      0.14  -3.162E+00   0.04 |
  |    O          47      -20.19      36.62      0.85   3.873E+00   0.89 |
  |    O          48      -89.38      86.15      0.24  -3.161E+00   0.06 |
  |    O          49      -20.19      36.62      0.85   3.873E+00   0.89 |
  |    O          50      -89.38      86.15      0.24  -3.161E+00   0.06 |
  |    O          51      -84.83      87.05      0.14  -3.162E+00   0.04 |
  |    O          52      -85.42      87.15      0.21  -3.201E+00   0.05 |
  |    O          53      -87.32      85.83      0.28  -3.226E+00   0.08 |
  |    O          54      -88.72      86.55      0.10  -3.162E+00   0.04 |
  |    O          55      -87.32      85.84      0.28  -3.226E+00   0.08 |
  |    O          56      -88.72      86.55      0.10  -3.162E+00   0.04 |
  |    Zr          1     1598.43    -108.02      0.02  -3.335E+01   0.07 |
  |    Zr          2     1612.89    -116.45      0.12  -3.431E+01   0.07 |
  |    Zr          3     1612.89    -116.45      0.12  -3.431E+01   0.07 |
  |    Zr          4     1627.94    -118.41      0.11  -3.539E+01   0.05 |
[...]
  |    La          2     4606.22     527.03      0.06  -8.254E+01   0.08 |
  |    La          3     4606.23     527.03      0.06  -8.254E+01   0.08 |
  |    La          4     4697.87     768.93      0.03  -8.906E+01   0.06 |
  |    La          5     4551.59     385.37      0.04  -7.617E+01   0.07 |
  |    La          6     4551.59     385.37      0.04  -7.617E+01   0.07 |
  |    La          7     4608.26     547.31      0.05  -8.229E+01   0.19 |
  |    La          8     4501.36     228.71      0.02  -7.158E+01   0.00 |
  |    La          9     4599.74     513.15      0.08  -7.957E+01   0.06 |
  |    La         10     4599.74     513.15      0.08  -7.957E+01   0.06 |
  |    La         11     4553.22     390.90      0.06  -7.637E+01   0.10 |
  |    La         12     4553.22     390.90      0.06  -7.637E+01   0.10 |
  |    La         13     4543.14     392.31      0.06  -7.492E+01   0.08 |
  |    La         14     4560.57     379.99      0.04  -7.752E+01   0.11 |
  |    La         15     4560.57     379.98      0.04  -7.752E+01   0.11 |
  |    La         16     4543.14     392.31      0.06  -7.492E+01   0.08 |

 *********************** Forces ***********************
 *            Cartesian components (eV/A)             *
 *                   x            y            z      *
 * O         1     -0.00238      0.00163     -0.00184 *
 * O         2     -0.00014      0.00246      0.00067 *
 * O         3     -0.00122     -0.00155      0.00022 *
 * O         4      0.00168     -0.00130     -0.00276 *
 * O         5      0.00122     -0.00022      0.00155 *
 * O         6      0.00238      0.00184     -0.00163 *
 * O         7      0.00014     -0.00067     -0.00246 *
 * O         8     -0.00168      0.00276      0.00130 *
 * O         9     -0.00104      0.00682     -0.00191 *
 * O        10      0.00331     -0.00587      0.00046 *
 * O        11     -0.00296     -0.00075      0.00350 *
 * O        12     -0.00327     -0.00275     -0.00120 *
 * O        13     -0.00169     -0.00092      0.00066 *
 * O        14      0.00189     -0.00334     -0.00485 *
 * O        15     -0.00298      0.00150      0.00476 *
 * O        16      0.00399     -0.00194      0.00015 *
 * O        17      0.00639      0.00039     -0.00146 *
 * O        18     -0.00249     -0.00076      0.00280 *
 * O        19      0.00163      0.00002      0.00221 *
 * O        20      0.00243      0.00910     -0.00717 *
 * O        21      0.00249     -0.00280      0.00076 *
 * O        22     -0.00639      0.00146     -0.00039 *
 * O        23     -0.00243      0.00718     -0.00910 *
 * O        24     -0.00163     -0.00221     -0.00002 *
 * O        25      0.00296     -0.00350      0.00075 *
 * O        26      0.00327      0.00120      0.00275 *
 * O        27      0.00104      0.00191     -0.00682 *
 * O        28     -0.00330     -0.00046      0.00587 *
 * O        29     -0.00399     -0.00016      0.00194 *
 * O        30      0.00298     -0.00476     -0.00150 *
 * O        31     -0.00189      0.00485      0.00334 *
 * O        32      0.00168     -0.00067      0.00092 *
 * O        33      0.00554      0.00035      0.00146 *
 * O        34      0.00148     -0.00370     -0.00084 *
 * O        35     -0.00348     -0.00019     -0.00898 *
 * O        36      0.00343      0.00830      0.00933 *
 * O        37      0.00015     -0.00161     -0.00231 *
 * O        38      0.00214     -0.00077     -0.01325 *
 * O        39     -0.00015      0.00231      0.00161 *
 * O        40     -0.00214      0.01325      0.00077 *
 * O        41     -0.00148      0.00084      0.00370 *
 * O        42     -0.00554     -0.00146     -0.00035 *
 * O        43     -0.00342     -0.00933     -0.00830 *
 * O        44      0.00348      0.00898      0.00019 *
 * O        45      0.00203     -0.00322      0.00723 *
 * O        46      0.00652      0.00659     -0.00776 *
 * O        47     -0.00094      0.00003      0.00284 *
 * O        48     -0.00762      0.00370      0.00192 *
 * O        49      0.00093     -0.00284     -0.00003 *
 * O        50      0.00762     -0.00192     -0.00370 *
 * O        51     -0.00652      0.00776     -0.00659 *
 * O        52     -0.00203     -0.00723      0.00322 *
 * O        53      0.00609      0.00660      0.00615 *
 * O        54     -0.00427     -0.00269      0.00501 *
 * O        55     -0.00609     -0.00615     -0.00660 *
 * O        56      0.00427     -0.00501      0.00269 *
 * Zr        1      0.00000      0.00705     -0.00705 *
 * Zr        2      0.00463     -0.00167      0.01261 *
 * Zr        3     -0.00463     -0.01261      0.00167 *
 * Zr        4      0.00000     -0.01055      0.01055 *
[...]
 * La        2      0.00537     -0.00084      0.00387 *
 * La        3     -0.00537     -0.00387      0.00084 *
 * La        4      0.00000     -0.01245      0.01245 *
 * La        5     -0.00258      0.01245     -0.00575 *
 * La        6      0.00258      0.00575     -0.01245 *
 * La        7      0.00000     -0.00203      0.00203 *
 * La        8      0.00000      0.00272     -0.00272 *
 * La        9      0.00239     -0.01916     -0.00193 *
 * La       10     -0.00239      0.00193      0.01916 *
 * La       11     -0.00371      0.00339      0.00398 *
 * La       12      0.00371     -0.00398     -0.00339 *
 * La       13     -0.01017     -0.00678     -0.00031 *
 * La       14     -0.00331      0.00268     -0.00495 *
 * La       15      0.00331      0.00495     -0.00268 *
 * La       16      0.01017      0.00031      0.00678 *

 ***************** Stress Tensor *****************
 *          Cartesian components (GPa)           *
 *             x             y             z     *
 *  x      0.003958     -0.000430     -0.000429  *
 *  y     -0.000430     -0.001710      0.003026  *
 *  z     -0.000429      0.003026     -0.001710  *
 *  Pressure:   -0.0002                          *

[...]

 Pseudo atomic calculation performed for Sn 4d10 5s2 5p2

[...]

 Pseudo atomic calculation performed for La 5s2 5p6 5d1 6s2

 Converged in 34 iterations to a total energy of -968.0372 eV

Charge spilling parameter for spin component 1 = 0.26%

     Atomic Populations (Mulliken)
Species   Ion     s      p      d      f     Total  Charge (e)
  O        1     1.87   5.00   0.00   0.00   6.87    -0.87
  O        2     1.87   5.00   0.00   0.00   6.87    -0.87
  O        3     1.87   5.00   0.00   0.00   6.87    -0.87
  O        4     1.87   5.00   0.00   0.00   6.87    -0.87
  O        5     1.87   5.00   0.00   0.00   6.87    -0.87
  O        6     1.87   5.00   0.00   0.00   6.87    -0.87
  O        7     1.87   5.00   0.00   0.00   6.87    -0.87
  O        8     1.87   5.00   0.00   0.00   6.87    -0.87
  O        9     1.87   4.99   0.00   0.00   6.86    -0.86
  O       10     1.88   5.03   0.00   0.00   6.91    -0.91
  O       11     1.88   5.03   0.00   0.00   6.91    -0.91
  O       12     1.88   5.03   0.00   0.00   6.91    -0.91
  O       13     1.88   5.03   0.00   0.00   6.91    -0.91
  O       14     1.88   5.03   0.00   0.00   6.91    -0.91
  O       15     1.88   5.03   0.00   0.00   6.91    -0.91
  O       16     1.88   5.03   0.00   0.00   6.91    -0.91
  O       17     1.88   5.03   0.00   0.00   6.91    -0.91
  O       18     1.88   5.03   0.00   0.00   6.91    -0.91
  O       19     1.88   5.03   0.00   0.00   6.91    -0.91
  O       20     1.87   4.99   0.00   0.00   6.86    -0.86
  O       21     1.88   5.03   0.00   0.00   6.91    -0.91
  O       22     1.88   5.03   0.00   0.00   6.91    -0.91
  O       23     1.87   4.99   0.00   0.00   6.86    -0.86
  O       24     1.88   5.03   0.00   0.00   6.91    -0.91
  O       25     1.88   5.03   0.00   0.00   6.91    -0.91
  O       26     1.88   5.03   0.00   0.00   6.91    -0.91
  O       27     1.87   4.99   0.00   0.00   6.86    -0.86
  O       28     1.88   5.03   0.00   0.00   6.91    -0.91
  O       29     1.88   5.03   0.00   0.00   6.91    -0.91
  O       30     1.88   5.03   0.00   0.00   6.91    -0.91
  O       31     1.88   5.03   0.00   0.00   6.91    -0.91
  O       32     1.88   5.03   0.00   0.00   6.91    -0.91
  O       33     1.87   4.99   0.00   0.00   6.86    -0.86
  O       34     1.89   5.03   0.00   0.00   6.91    -0.91
  O       35     1.87   4.99   0.00   0.00   6.86    -0.86
  O       36     1.87   4.99   0.00   0.00   6.86    -0.86
  O       37     1.89   5.03   0.00   0.00   6.91    -0.91
  O       38     1.86   4.95   0.00   0.00   6.80    -0.80
  O       39     1.89   5.03   0.00   0.00   6.91    -0.91
  O       40     1.86   4.95   0.00   0.00   6.80    -0.80
  O       41     1.89   5.03   0.00   0.00   6.91    -0.91
  O       42     1.87   4.99   0.00   0.00   6.86    -0.86
  O       43     1.87   4.99   0.00   0.00   6.86    -0.86
  O       44     1.87   4.99   0.00   0.00   6.86    -0.86
  O       45     1.87   4.99   0.00   0.00   6.86    -0.86
  O       46     1.87   4.99   0.00   0.00   6.86    -0.86
  O       47     1.88   5.03   0.00   0.00   6.91    -0.91
  O       48     1.87   4.99   0.00   0.00   6.86    -0.86
  O       49     1.88   5.03   0.00   0.00   6.91    -0.91
  O       50     1.87   4.99   0.00   0.00   6.86    -0.86
  O       51     1.87   4.99   0.00   0.00   6.86    -0.86
  O       52     1.87   4.99   0.00   0.00   6.86    -0.86
  O       53     1.87   4.99   0.00   0.00   6.86    -0.86
  O       54     1.87   4.99   0.00   0.00   6.86    -0.86
  O       55     1.87   4.99   0.00   0.00   6.86    -0.86
  O       56     1.87   4.99   0.00   0.00   6.86    -0.86
  Zr       1     2.36   6.49   1.92   0.00  10.78     1.22
  Zr       2     2.37   6.48   1.92   0.00  10.77     1.23
  Zr       3     2.37   6.48   1.92   0.00  10.77     1.23
  Zr       4     2.36   6.48   1.92   0.00  10.76     1.24
[...]
  La       2     2.06   6.18   1.20   0.00   9.44     1.56
  La       3     2.06   6.18   1.20   0.00   9.44     1.56
  La       4     2.00   6.16   1.20   0.00   9.36     1.64
  La       5     2.08   6.19   1.19   0.00   9.47     1.53
  La       6     2.08   6.19   1.19   0.00   9.47     1.53
  La       7     2.05   6.18   1.20   0.00   9.43     1.57
  La       8     2.12   6.20   1.19   0.00   9.51     1.49
  La       9     2.06   6.18   1.19   0.00   9.44     1.56
  La      10     2.06   6.18   1.19   0.00   9.44     1.56
  La      11     2.08   6.19   1.19   0.00   9.46     1.54
  La      12     2.08   6.19   1.19   0.00   9.46     1.54
  La      13     2.09   6.19   1.19   0.00   9.47     1.53
  La      14     2.08   6.19   1.19   0.00   9.46     1.54
  La      15     2.08   6.19   1.19   0.00   9.46     1.54
  La      16     2.09   6.19   1.19   0.00   9.47     1.53

            Bond              Population      Length (A)
         O 52 -- Sn 10             0.35        2.10032
         O 45 -- Sn 11             0.35        2.10032
         O 55 -- Sn 4              0.34        2.10174
         O 53 -- Sn 4              0.34        2.10174
         O 9  -- Sn 10             0.35        2.10179
         O 27 -- Sn 11             0.35        2.10179
         O 42 -- Sn 8              0.34        2.10340
         O 33 -- Sn 7              0.34        2.10340
         O 36 -- Sn 12             0.34        2.10432
         O 43 -- Sn 9              0.34        2.10432
         O 10 -- Sn 3              0.34        2.10542
         O 28 -- Sn 2              0.34        2.10542
         O 35 -- Sn 11             0.34        2.10579
         O 44 -- Sn 10             0.34        2.10579
         O 16 -- Sn 12             0.34        2.10660
         O 29 -- Sn 9              0.34        2.10660
         O 50 -- Sn 8              0.34        2.10699
         O 48 -- Sn 7              0.34        2.10699
         O 23 -- Sn 3              0.34        2.10740
         O 20 -- Sn 2              0.34        2.10740
         O 15 -- Sn 11             0.34        2.10757
         O 30 -- Sn 10             0.34        2.10757
         O 49 -- Sn 1              0.34        2.10794
         O 47 -- Sn 1              0.34        2.10794
         O 16 -- Sn 3              0.34        2.10831
         O 29 -- Sn 2              0.34        2.10831
         O 10 -- Sn 5              0.33        2.10835
         O 28 -- Sn 6              0.33        2.10835
         O 46 -- Sn 2              0.34        2.10884
         O 51 -- Sn 3              0.34        2.10884
         O 56 -- Sn 6              0.34        2.10896
         O 54 -- Sn 5              0.34        2.10896
         O 15 -- Sn 7              0.33        2.10946
         O 30 -- Sn 8              0.33        2.10946
         O 19 -- Sn 6              0.34        2.10994
         O 24 -- Sn 5              0.34        2.10994
         O 21 -- Sn 4              0.34        2.11020
         O 18 -- Sn 4              0.34        2.11020
         O 22 -- Sn 6              0.34        2.11032
         O 17 -- Sn 5              0.34        2.11032
         O 49 -- Sn 2              0.33        2.11097
         O 47 -- Sn 3              0.33        2.11097
         O 37 -- Sn 6              0.33        2.11180
         O 39 -- Sn 5              0.33        2.11180
         O 22 -- Sn 9              0.33        2.11190
         O 17 -- Sn 12             0.33        2.11190
         O 21 -- Sn 7              0.33        2.11197
         O 18 -- Sn 8              0.33        2.11197
         O 39 -- Sn 1              0.33        2.11221
         O 37 -- Sn 1              0.33        2.11221
         O 34 -- Sn 9              0.33        2.11341
         O 41 -- Sn 12             0.33        2.11341
         O 25 -- Sn 8              0.34        2.11470
         O 11 -- Sn 7              0.34        2.11470
         O 34 -- Sn 1              0.33        2.11480
         O 41 -- Sn 1              0.33        2.11480
         O 24 -- Sn 10             0.33        2.11500
         O 19 -- Sn 11             0.33        2.11500
         O 26 -- Sn 12             0.34        2.11562
         O 12 -- Sn 9              0.34        2.11562
[...]
         O 33 -- O 40             -0.03        2.82752
         O 38 -- O 42             -0.03        2.82752
         O 9  -- O 23             -0.03        2.83258
         O 20 -- O 27             -0.03        2.83258
         O 54 -- O 56             -0.03        2.83291
         O 51 -- O 55             -0.03        2.83346
         O 46 -- O 53             -0.03        2.83346
         O 52 -- O 56             -0.03        2.83375
         O 45 -- O 54             -0.03        2.83375
         O 36 -- O 46             -0.03        2.83654
         O 43 -- O 51             -0.03        2.83654
         O 48 -- O 50             -0.03        2.83772
         O 20 -- O 23             -0.03        2.83789
         O 36 -- O 44             -0.03        2.83858
         O 35 -- O 43             -0.03        2.83858

Writing analysis data to 04.castep_bin

Writing model to 04.check

 A BibTeX formatted list of references used in this run has been written to
 04.bib

Initialisation time =     53.84 s
Calculation time    =  34524.53 s
Finalisation time   =     45.13 s
Total time          =  34623.50 s

Overall parallel efficiency rating: Good (78%)

Data was distributed by:-
G-vector (4-way); efficiency rating: Good (79%)
k-point (14-way); efficiency rating: Excellent (98%)