 Compiled for linux_x86_64_ifort16 on Sat, 23 Jul 2016 23:44:54 +0100
 from code version
 203e84763863+ Castep161_branch Fri, 04 Mar 2016 19:21:07 +0000
 Compiler: Intel Fortran 16.0.3.210; Optimisation: fast
 MATHLIBS: Intel MKL(11.3.3) (LAPACK version 3.6.0)
 FFT Lib : mkl
 Fundamental constants values: CODATA 2010

 Run started: Sat, 24 Feb 2018 07:03:12 +0000
 |           N   N    M   M    RRRR                |
 |           NN  N    MM MM    R   R               |
 |           N N N    M M M    RRRR                |
 |           N  NN    M   M    R  R                |
 |           N   N    M   M    R   R               |
 | Welcome to Materials Studio CASTEP-NMR          |
 | Authors:                                        |
 | J.R. Yates, C.J. Pickard, F. Mauri              |
 | Contributors:                                   |
 | T.F.G. Green, S.A. Joyce                        |
 | Copyright (c) 2004 - 2015                       |
 | Please cite the appropriate publications in all |
 | work arising from your use of CASTEP NMR.       |
 | For NMR Shielding Tensors cite:                 |
 |    "All-electron magnetic response with         |
 |    pseudopotentials: NMR chemical shifts",      |
 |    C. J. Pickard, F. Mauri;                     |
 |    Physical Review B63 245101 (2001), and       |
 |    "Calculation of NMR Chemical Shifts          |
 |    for extended systems using                   |
 |    Ultrasoft Pseudopotentials",                 |
 |    J. R. Yates, C. J. Pickard and F. Mauri      |
 |    Physical Review B76 024401 (2007)            |
 | For Electric Field Gradients cite:              |
 |   "Accurate First Principles Prediction of 17O  |
 |    NMR Parameters in SiO2: Assignment of the    |
 |    Zeolite Ferrierite Spectrum"                 |
 |    M. Profeta, F. Mauri and C. J. Pickard       |
 |    J. Amer. Chem. Soc. 125 541 (2003)           |
 | For Spin-Spin (J) Couplings cite:               |
 |   "A first principles theory of NMR J-coupling  |
 |   in solid-state systems"                       |
 |   S.A. Joyce, J.R. Yates, C.J. Pickard, F. Mauri|
 |   J. Chem. Phys. 127 204107 (2007)              |
 |   "Relativistic NMR J-coupling with ultrasoft   |
 |   pseudopotentials and the zeroth-order regular |
 |   approximation"                                |
 |   T.F.G. Green and J.R. Yates                   |
 |   J. Chem. Phys. 140 234106 (2014)              |

 Atomic calculation performed for O: 1s2 2s2 2p4

 Converged in 44 iterations to an ae energy of -2040.855 eV

 Atomic calculation performed for O: 1s2 2s2 2p4

 Exceeded max iterations: converged to 0.000000062 eV

   | Pseudopotential Report - Date of generation 24-02-2018   |
   | Element: O Ionic charge:  6.00 Level of theory: PBE      |
   | Atomic Solver: ZORA (scalar)                             |
   |               Reference Electronic Structure             |
   |         Orbital         Occupation         Energy        |
   |            2s              2.000           -0.881        |
   |            2p              4.000           -0.332        |
   |                 Pseudopotential Definition               |
   |        Beta     l      e      Rc     scheme   norm       |
   |          1      0   -0.881   1.100     qc      0         |
   |          2      0    0.250   1.100     qc      0         |
   |          3      1   -0.332   1.100     qc      0         |
   |          4      1    0.250   1.100     qc      0         |
   |         loc     2    0.000   1.100     pn      0         |
   | Augmentation charge Rinner = 0.769                       |
   | Partial core correction Rc = 0.769                       |
   | "2|1.1|15|18|20|20:21(qc=7)"                             |
   |      Author: Chris J. Pickard, Cambridge University      |

 Atomic calculation performed for Zr: 1s2 2s2 2p6 3s2 3p6 3d10 4s2 4p6 4d2 5s2

[...]

 Atomic calculation performed for Zr: 1s2 2s2 2p6 3s2 3p6 3d10 4s2 4p6 4d2 5s2

[...]

 Warning: ion_atom_descreen_psp: negative charge density encountered
   | Pseudopotential Report - Date of generation 24-02-2018   |
   | Element: Zr Ionic charge: 12.00 Level of theory: PBE     |
   | Atomic Solver: ZORA (scalar)                             |
   |               Reference Electronic Structure             |
   |         Orbital         Occupation         Energy        |
   |            4s              2.000           -2.003        |
   |            4p              6.000           -1.193        |
   |            5s              2.000           -0.163        |
   |            4d              2.000           -0.132        |
   |                 Pseudopotential Definition               |
   |        Beta     l      e      Rc     scheme   norm       |
   |          1      0   -2.003   2.105     qc      0         |
   |          2      0   -0.163   2.105     qc      0         |
   |          3      0    0.250   2.105     qc      0         |
   |          4      1   -1.193   2.105     qc      0         |
   |          5      1    0.250   2.105     qc      0         |
   |          6      2   -0.132   2.105     qc      0         |
   |          7      2    0.250   2.105     qc      0         |
   |         loc     3    0.000   2.105     pn      0         |
   | Augmentation charge Rinner = 1.471                       |
   | Partial core correction Rc = 1.471                       |
   | "3|2.1|7|8|9|40U:50:41:42"                               |
   |      Author: Chris J. Pickard, Cambridge University      |

 Atomic calculation performed for Sn:

[...]

 Atomic calculation performed for Sn:

[...]

   | Pseudopotential Report - Date of generation 24-02-2018   |
   | Element: Sn Ionic charge: 14.00 Level of theory: PBE     |
   | Atomic Solver: ZORA (scalar)                             |
   |               Reference Electronic Structure             |
   |         Orbital         Occupation         Energy        |
   |            4d             10.000           -0.950        |
   |            5s              2.000           -0.388        |
   |            5p              2.000           -0.136        |
   |                 Pseudopotential Definition               |
   |        Beta     l      e      Rc     scheme   norm       |
   |          1      0   -0.388   2.199     qc      0         |
   |          2      0    0.250   2.199     qc      0         |
   |          3      1   -0.136   2.199     qc      0         |
   |          4      1    0.250   2.199     qc      0         |
   |          5      2   -0.950   2.199     qc      0         |
   |          6      2    0.250   2.199     qc      0         |
   |         loc     3    0.000   2.199     pn      0         |
   | Augmentation charge Rinner = 1.537                       |
   | Partial core correction Rc = 1.537                       |
   | "3|2.2|7|8|9|50:51:42"                                   |
   |      Author: Chris J. Pickard, Cambridge University      |

 Atomic calculation performed for La:

 Converged in 56 iterations to an ae energy of -230121.495 eV

 Atomic calculation performed for La:

 Exceeded max iterations: converged to 0.000000907 eV

 Warning: ion_atom_descreen_psp: negative charge density encountered
   | Pseudopotential Report - Date of generation 24-02-2018   |
   | Element: La Ionic charge: 11.00 Level of theory: PBE     |
   | Atomic Solver: ZORA (scalar)                             |
   |               Reference Electronic Structure             |
   |         Orbital         Occupation         Energy        |
   |            5s              2.000           -1.430        |
   |            5p              6.000           -0.823        |
   |            6s              2.000           -0.135        |
   |            5d              1.000           -0.114        |
   |                 Pseudopotential Definition               |
   |        Beta     l      e      Rc     scheme   norm       |
   |          1      0   -1.430   2.298     qc      0         |
   |          2      0   -0.135   2.298     qc      0         |
   |          3      0    0.250   2.298     qc      0         |
   |          4      1   -0.823   2.298     qc      0         |
   |          5      1    0.250   2.298     qc      0         |
   |          6      2   -0.114   2.298     qc      0         |
   |          7      2    0.250   2.298     qc      0         |
   |         loc     2    0.000   2.298     pn      0         |
   | Augmentation charge Rinner = 1.606                       |
   | Partial core correction Rc = 1.606                       |
   | "2|2.3|5|6|7|50U:60:51:52(qc=4.5)"                       |
   |      Author: Chris J. Pickard, Cambridge University      |

 Pseudo atomic calculation performed for O 2s2 2p4

 Converged in 39 iterations to a total energy of -432.6554 eV

 Pseudo atomic calculation performed for Zr 4s2 4p6 4d2 5s2

[...]

 Calculation parallelised over 56 processes.
 Data is distributed by G-vector(4-way) and k-point(14-way)

 ************************************ Title ************************************
 nmr testing

 ***************************** General Parameters ******************************

 output verbosity                               : normal  (1)
 write checkpoint data to                       : 05.check
 type of calculation                            : Magnetic Resonance
 stress calculation                             : on
 density difference calculation                 : off
 electron localisation func (ELF) calculation   : off
 Hirshfeld analysis                             : off
 unlimited duration calculation
 timing information                             : on
 write final potential to formatted file        : off
 write final density to formatted file          : off
 write structure in CIF formatted file          : on
 write structure in CELL formatted file         : on
 write BibTeX reference list                    : on
 write OTFG pseudopotential files               : on
 checkpoint writing                             : both castep_bin and check files

 output         length unit                     : A
 output           mass unit                     : amu
 output           time unit                     : ps
 output         charge unit                     : e
 output           spin unit                     : hbar/2
 output         energy unit                     : eV
 output          force unit                     : eV/A
 output       velocity unit                     : A/ps
 output       pressure unit                     : GPa
 output     inv_length unit                     : 1/A
 output      frequency unit                     : cm-1
 output force constant unit                     : eV/A**2
 output         volume unit                     : A**3
 output   IR intensity unit                     : (D/A)**2/amu
 output         dipole unit                     : D
 output         efield unit                     : eV/A/e
 output        entropy unit                     : J/mol/K

 wavefunctions paging                           : none
 random number generator seed                   : randomised (70313942)
 data distribution                              : optimal for this architecture
[...]
  |    O          41      -17.91     -42.31      0.61   3.831E+00   0.93 |
  |    O          42      -88.92      87.08      0.06  -3.196E+00   0.07 |
  |    O          43      -86.06      87.41      0.14  -3.186E+00   0.04 |
  |    O          44        1.62      67.97      0.96   3.801E+00   0.96 |
  |    O          45      -85.66      87.16      0.20  -3.207E+00   0.05 |
  |    O          46      -85.09      87.15      0.18  -3.153E+00   0.04 |
  |    O          47      -19.08      37.45      0.63   3.937E+00   0.86 |
  |    O          48      -90.53      86.18      0.08  -3.168E+00   0.04 |
  |    O          49      -87.89      86.42      0.16  -3.206E+00   0.06 |
  |    O          50      -87.88      86.49      0.21  -3.165E+00   0.06 |
  |    O          51      -85.09      87.16      0.18  -3.153E+00   0.04 |
  |    O          52      -85.66      87.16      0.20  -3.207E+00   0.05 |
  |    O          53      -19.08      37.45      0.63   3.937E+00   0.86 |
  |    O          54      -90.53      86.18      0.08  -3.168E+00   0.04 |
  |    O          55      -87.89      86.42      0.16  -3.206E+00   0.06 |
  |    O          56      -87.88      86.48      0.21  -3.165E+00   0.06 |
  |    Zr          1     1599.80    -107.93      0.04  -3.361E+01   0.10 |
  |    Zr          2     1612.95    -114.54      0.14  -3.446E+01   0.06 |
  |    Zr          3     1612.95    -114.54      0.14  -3.446E+01   0.06 |
  |    Zr          4     1629.52    -121.17      0.18  -3.560E+01   0.13 |
[...]
  |    La          2     4550.83     388.70      0.05  -7.637E+01   0.06 |
  |    La          3     4607.78     522.21      0.05  -8.211E+01   0.08 |
  |    La          4     4653.79     660.55      0.07  -8.552E+01   0.13 |
  |    La          5     4550.83     388.70      0.05  -7.637E+01   0.06 |
  |    La          6     4607.78     522.21      0.05  -8.211E+01   0.08 |
  |    La          7     4653.79     660.55      0.07  -8.552E+01   0.13 |
  |    La          8     4501.61     229.04      0.04  -7.163E+01   0.02 |
  |    La          9     4543.67     393.06      0.08  -7.503E+01   0.10 |
  |    La         10     4607.90     510.55      0.07  -8.093E+01   0.06 |
  |    La         11     4543.66     393.06      0.08  -7.503E+01   0.10 |
  |    La         12     4607.90     510.55      0.07  -8.093E+01   0.06 |
  |    La         13     4492.37     235.41      0.04  -7.077E+01   0.01 |
  |    La         14     4561.37     380.86      0.04  -7.750E+01   0.09 |
  |    La         15     4561.37     380.86      0.04  -7.750E+01   0.09 |
  |    La         16     4594.36     554.93      0.08  -7.908E+01   0.15 |

 *********************** Forces ***********************
 *            Cartesian components (eV/A)             *
 *                   x            y            z      *
 * O         1      0.00320     -0.00007      0.00077 *
 * O         2     -0.00051      0.00225      0.00676 *
 * O         3      0.00185     -0.00100     -0.00034 *
 * O         4     -0.00569     -0.00232     -0.00298 *
 * O         5     -0.00185      0.00100      0.00034 *
 * O         6     -0.00320      0.00007     -0.00077 *
 * O         7      0.00569      0.00232      0.00298 *
 * O         8      0.00051     -0.00225     -0.00676 *
 * O         9     -0.00319      0.02756      0.02347 *
 * O        10      0.00225      0.00285      0.00035 *
 * O        11     -0.01193     -0.00055      0.00605 *
 * O        12      0.00264      0.00838      0.00661 *
 * O        13      0.01194      0.00458      0.00488 *
 * O        14     -0.02055      0.00407      0.02079 *
 * O        15      0.00552     -0.00517      0.00127 *
 * O        16     -0.00165      0.00445     -0.00739 *
 * O        17      0.00121     -0.00382      0.00433 *
 * O        18      0.00110      0.00071     -0.00952 *
 * O        19      0.00380     -0.00611      0.00408 *
 * O        20     -0.00053      0.00923     -0.00248 *
 * O        21      0.00453      0.00492     -0.00967 *
 * O        22     -0.01194     -0.00458     -0.00488 *
 * O        23     -0.02608      0.00357     -0.02924 *
 * O        24     -0.00552      0.00517     -0.00126 *
 * O        25      0.01193      0.00054     -0.00606 *
 * O        26     -0.00174     -0.00069     -0.00223 *
 * O        27      0.00319     -0.02757     -0.02347 *
 * O        28      0.00211      0.03248     -0.02606 *
 * O        29      0.02308      0.03294      0.00211 *
 * O        30     -0.00380      0.00611     -0.00407 *
 * O        31     -0.00080      0.00337      0.00885 *
 * O        32     -0.00121      0.00382     -0.00433 *
 * O        33     -0.00225     -0.00285     -0.00035 *
 * O        34     -0.00264     -0.00837     -0.00660 *
 * O        35      0.02055     -0.00407     -0.02079 *
 * O        36      0.00165     -0.00445      0.00738 *
 * O        37     -0.00110     -0.00071      0.00952 *
 * O        38      0.00054     -0.00923      0.00248 *
 * O        39     -0.00452     -0.00492      0.00967 *
 * O        40      0.02610     -0.00357      0.02924 *
 * O        41      0.00174      0.00069      0.00223 *
 * O        42     -0.00211     -0.03248      0.02606 *
 * O        43     -0.02309     -0.03294     -0.00211 *
 * O        44      0.00080     -0.00337     -0.00886 *
 * O        45      0.00754      0.01608      0.02526 *
 * O        46      0.00244     -0.02417      0.02176 *
 * O        47     -0.00581      0.00822     -0.00226 *
 * O        48      0.01899      0.02596     -0.00534 *
 * O        49      0.03245      0.00346     -0.02318 *
 * O        50     -0.01414     -0.00295     -0.03128 *
 * O        51     -0.00244      0.02417     -0.02176 *
 * O        52     -0.00753     -0.01608     -0.02526 *
 * O        53      0.00582     -0.00822      0.00225 *
 * O        54     -0.01900     -0.02596      0.00535 *
 * O        55     -0.03246     -0.00346      0.02318 *
 * O        56      0.01414      0.00295      0.03128 *
 * Zr        1     -0.00000      0.00000     -0.00000 *
 * Zr        2      0.00195      0.01512     -0.02959 *
 * Zr        3     -0.00195     -0.01512      0.02959 *
 * Zr        4      0.00000     -0.00000      0.00000 *
[...]
 * La        2      0.00248     -0.00375     -0.00551 *
 * La        3     -0.01244      0.00959     -0.00307 *
 * La        4      0.00464      0.01023      0.01373 *
 * La        5     -0.00248      0.00375      0.00551 *
 * La        6      0.01244     -0.00959      0.00307 *
 * La        7     -0.00464     -0.01023     -0.01373 *
 * La        8     -0.00000      0.00000      0.00000 *
 * La        9      0.00450      0.00427     -0.00455 *
 * La       10      0.00094      0.00461      0.00846 *
 * La       11     -0.00450     -0.00427      0.00455 *
 * La       12     -0.00094     -0.00462     -0.00846 *
 * La       13      0.00000     -0.00000     -0.00000 *
 * La       14      0.00927     -0.00400      0.00397 *
 * La       15     -0.00927      0.00399     -0.00396 *
 * La       16     -0.00000     -0.00000      0.00000 *

 ***************** Stress Tensor *****************
 *          Cartesian components (GPa)           *
 *             x             y             z     *
 *  x     -0.003161      0.007599      0.000219  *
 *  y      0.007599     -0.001178     -0.000488  *
 *  z      0.000219     -0.000488      0.003062  *
 *  Pressure:    0.0004                          *

[...]

 Pseudo atomic calculation performed for Sn 4d10 5s2 5p2

[...]

 Pseudo atomic calculation performed for La 5s2 5p6 5d1 6s2

 Converged in 34 iterations to a total energy of -968.0372 eV

Charge spilling parameter for spin component 1 = 0.26%

     Atomic Populations (Mulliken)
Species   Ion     s      p      d      f     Total  Charge (e)
  O        1     1.87   5.00   0.00   0.00   6.87    -0.87
  O        2     1.87   5.00   0.00   0.00   6.87    -0.87
  O        3     1.87   5.00   0.00   0.00   6.87    -0.87
  O        4     1.87   5.00   0.00   0.00   6.87    -0.87
  O        5     1.87   5.00   0.00   0.00   6.87    -0.87
  O        6     1.87   5.00   0.00   0.00   6.87    -0.87
  O        7     1.87   5.00   0.00   0.00   6.87    -0.87
  O        8     1.87   5.00   0.00   0.00   6.87    -0.87
  O        9     1.87   4.99   0.00   0.00   6.86    -0.86
  O       10     1.88   5.03   0.00   0.00   6.91    -0.91
  O       11     1.88   5.03   0.00   0.00   6.91    -0.91
  O       12     1.88   5.03   0.00   0.00   6.91    -0.91
  O       13     1.88   5.03   0.00   0.00   6.91    -0.91
  O       14     1.87   4.99   0.00   0.00   6.86    -0.86
  O       15     1.88   5.03   0.00   0.00   6.91    -0.91
  O       16     1.88   5.03   0.00   0.00   6.91    -0.91
  O       17     1.89   5.03   0.00   0.00   6.91    -0.91
  O       18     1.88   5.03   0.00   0.00   6.91    -0.91
  O       19     1.88   5.03   0.00   0.00   6.91    -0.91
  O       20     1.86   4.95   0.00   0.00   6.80    -0.80
  O       21     1.88   5.03   0.00   0.00   6.91    -0.91
  O       22     1.88   5.03   0.00   0.00   6.91    -0.91
  O       23     1.87   4.99   0.00   0.00   6.86    -0.86
  O       24     1.88   5.03   0.00   0.00   6.91    -0.91
  O       25     1.88   5.03   0.00   0.00   6.91    -0.91
  O       26     1.89   5.03   0.00   0.00   6.91    -0.91
  O       27     1.87   4.99   0.00   0.00   6.86    -0.86
  O       28     1.87   4.99   0.00   0.00   6.86    -0.86
  O       29     1.87   4.99   0.00   0.00   6.86    -0.86
  O       30     1.88   5.03   0.00   0.00   6.91    -0.91
  O       31     1.88   5.03   0.00   0.00   6.91    -0.91
  O       32     1.89   5.03   0.00   0.00   6.91    -0.91
  O       33     1.88   5.03   0.00   0.00   6.91    -0.91
  O       34     1.88   5.03   0.00   0.00   6.91    -0.91
  O       35     1.87   4.99   0.00   0.00   6.86    -0.86
  O       36     1.88   5.03   0.00   0.00   6.91    -0.91
  O       37     1.88   5.03   0.00   0.00   6.91    -0.91
  O       38     1.86   4.95   0.00   0.00   6.80    -0.80
  O       39     1.88   5.03   0.00   0.00   6.91    -0.91
  O       40     1.87   4.99   0.00   0.00   6.86    -0.86
  O       41     1.89   5.03   0.00   0.00   6.91    -0.91
  O       42     1.87   4.99   0.00   0.00   6.86    -0.86
  O       43     1.87   4.99   0.00   0.00   6.86    -0.86
  O       44     1.88   5.03   0.00   0.00   6.91    -0.91
  O       45     1.87   4.99   0.00   0.00   6.86    -0.86
  O       46     1.87   4.99   0.00   0.00   6.86    -0.86
  O       47     1.88   5.03   0.00   0.00   6.91    -0.91
  O       48     1.87   4.99   0.00   0.00   6.86    -0.86
  O       49     1.87   4.99   0.00   0.00   6.86    -0.86
  O       50     1.87   4.99   0.00   0.00   6.86    -0.86
  O       51     1.87   4.99   0.00   0.00   6.86    -0.86
  O       52     1.87   4.99   0.00   0.00   6.86    -0.86
  O       53     1.88   5.03   0.00   0.00   6.91    -0.91
  O       54     1.87   4.99   0.00   0.00   6.86    -0.86
  O       55     1.87   4.99   0.00   0.00   6.86    -0.86
  O       56     1.87   4.99   0.00   0.00   6.86    -0.86
  Zr       1     2.36   6.49   1.92   0.00  10.77     1.23
  Zr       2     2.36   6.48   1.92   0.00  10.77     1.23
  Zr       3     2.36   6.48   1.92   0.00  10.77     1.23
  Zr       4     2.36   6.48   1.92   0.00  10.76     1.24
[...]
  La       2     2.10   6.19   1.19   0.00   9.48     1.52
  La       3     2.05   6.18   1.19   0.00   9.43     1.57
  La       4     2.03   6.17   1.20   0.00   9.40     1.60
  La       5     2.10   6.19   1.19   0.00   9.48     1.52
  La       6     2.05   6.18   1.19   0.00   9.43     1.57
  La       7     2.03   6.17   1.20   0.00   9.40     1.60
  La       8     2.12   6.20   1.19   0.00   9.52     1.48
  La       9     2.09   6.18   1.19   0.00   9.47     1.53
  La      10     2.05   6.18   1.19   0.00   9.43     1.57
  La      11     2.09   6.18   1.19   0.00   9.47     1.53
  La      12     2.05   6.18   1.19   0.00   9.43     1.57
  La      13     2.12   6.20   1.19   0.00   9.50     1.50
  La      14     2.07   6.19   1.19   0.00   9.46     1.54
  La      15     2.07   6.19   1.19   0.00   9.46     1.54
  La      16     2.06   6.17   1.20   0.00   9.43     1.57

            Bond              Population      Length (A)
         O 45 -- Sn 11             0.35        2.10133
         O 52 -- Sn 10             0.35        2.10133
         O 27 -- Sn 11             0.35        2.10304
         O 9  -- Sn 10             0.35        2.10304
         O 43 -- Sn 9              0.35        2.10318
         O 29 -- Sn 9              0.35        2.10318
         O 47 -- Sn 2              0.34        2.10399
         O 53 -- Sn 4              0.34        2.10399
         O 33 -- Sn 1              0.34        2.10511
         O 10 -- Sn 3              0.34        2.10511
         O 28 -- Sn 6              0.34        2.10543
         O 42 -- Sn 8              0.34        2.10543
         O 47 -- Sn 3              0.33        2.10618
         O 53 -- Sn 1              0.33        2.10618
         O 49 -- Sn 2              0.34        2.10674
         O 55 -- Sn 4              0.34        2.10674
         O 56 -- Sn 6              0.34        2.10687
         O 50 -- Sn 8              0.34        2.10687
         O 19 -- Sn 6              0.33        2.10714
         O 30 -- Sn 8              0.33        2.10714
         O 33 -- Sn 7              0.33        2.10717
         O 10 -- Sn 5              0.33        2.10717
         O 16 -- Sn 3              0.34        2.10926
         O 36 -- Sn 1              0.34        2.10926
         O 36 -- Sn 12             0.34        2.10930
         O 16 -- Sn 12             0.34        2.10930
         O 19 -- Sn 11             0.33        2.10944
         O 30 -- Sn 10             0.33        2.10944
         O 40 -- Sn 1              0.34        2.10951
         O 23 -- Sn 3              0.34        2.10951
         O 14 -- Sn 10             0.34        2.10960
         O 35 -- Sn 11             0.34        2.10960
         O 21 -- Sn 7              0.33        2.10971
         O 39 -- Sn 5              0.33        2.10971
         O 21 -- Sn 4              0.34        2.11026
         O 39 -- Sn 2              0.34        2.11026
         O 48 -- Sn 7              0.34        2.11109
         O 54 -- Sn 5              0.34        2.11109
         O 51 -- Sn 3              0.34        2.11133
         O 46 -- Sn 1              0.34        2.11133
         O 24 -- Sn 10             0.34        2.11215
         O 15 -- Sn 11             0.34        2.11215
         O 26 -- Sn 12             0.34        2.11218
         O 41 -- Sn 12             0.34        2.11218
         O 22 -- Sn 6              0.34        2.11281
         O 13 -- Sn 8              0.34        2.11281
         O 24 -- Sn 5              0.33        2.11320
         O 15 -- Sn 7              0.33        2.11320
         O 18 -- Sn 4              0.33        2.11329
         O 37 -- Sn 2              0.33        2.11329
         O 13 -- Sn 9              0.33        2.11338
         O 22 -- Sn 9              0.33        2.11338
         O 32 -- Sn 7              0.34        2.11366
         O 17 -- Sn 5              0.34        2.11366
         O 37 -- Sn 6              0.33        2.11430
         O 18 -- Sn 8              0.33        2.11430
         O 41 -- Sn 2              0.33        2.11527
         O 26 -- Sn 4              0.33        2.11527
         O 42 -- Zr 2              0.44        2.11538
         O 28 -- Zr 3              0.44        2.11538
[...]
         O 20 -- O 27             -0.03        2.82475
         O 20 -- O 23             -0.03        2.82543
         O 38 -- O 40             -0.03        2.82543
         O 9  -- O 23             -0.03        2.82723
         O 27 -- O 40             -0.03        2.82723
         O 45 -- O 54             -0.03        2.83071
         O 48 -- O 52             -0.03        2.83071
         O 51 -- O 55             -0.03        2.83102
         O 46 -- O 49             -0.03        2.83102
         O 29 -- O 46             -0.03        2.83288
         O 43 -- O 51             -0.03        2.83288
         O 54 -- O 56             -0.03        2.83360
         O 48 -- O 50             -0.03        2.83360
         O 14 -- O 29             -0.03        2.83480
         O 35 -- O 43             -0.03        2.83480

Writing analysis data to 05.castep_bin

Writing model to 05.check

 A BibTeX formatted list of references used in this run has been written to
 05.bib

Initialisation time =     54.08 s
Calculation time    =  34406.17 s
Finalisation time   =     57.94 s
Total time          =  34518.19 s

Overall parallel efficiency rating: Good (78%)

Data was distributed by:-
G-vector (4-way); efficiency rating: Good (79%)
k-point (14-way); efficiency rating: Excellent (98%)