 Compiled for linux_x86_64_ifort16 on Sat, 23 Jul 2016 23:44:54 +0100
 from code version
 203e84763863+ Castep161_branch Fri, 04 Mar 2016 19:21:07 +0000
 Compiler: Intel Fortran 16.0.3.210; Optimisation: fast
 MATHLIBS: Intel MKL(11.3.3) (LAPACK version 3.6.0)
 FFT Lib : mkl
 Fundamental constants values: CODATA 2010

 Run started: Sat, 24 Feb 2018 17:11:20 +0000
 |           N   N    M   M    RRRR                |
 |           NN  N    MM MM    R   R               |
 |           N N N    M M M    RRRR                |
 |           N  NN    M   M    R  R                |
 |           N   N    M   M    R   R               |
 | Welcome to Materials Studio CASTEP-NMR          |
 | Authors:                                        |
 | J.R. Yates, C.J. Pickard, F. Mauri              |
 | Contributors:                                   |
 | T.F.G. Green, S.A. Joyce                        |
 | Copyright (c) 2004 - 2015                       |
 | Please cite the appropriate publications in all |
 | work arising from your use of CASTEP NMR.       |
 | For NMR Shielding Tensors cite:                 |
 |    "All-electron magnetic response with         |
 |    pseudopotentials: NMR chemical shifts",      |
 |    C. J. Pickard, F. Mauri;                     |
 |    Physical Review B63 245101 (2001), and       |
 |    "Calculation of NMR Chemical Shifts          |
 |    for extended systems using                   |
 |    Ultrasoft Pseudopotentials",                 |
 |    J. R. Yates, C. J. Pickard and F. Mauri      |
 |    Physical Review B76 024401 (2007)            |
 | For Electric Field Gradients cite:              |
 |   "Accurate First Principles Prediction of 17O  |
 |    NMR Parameters in SiO2: Assignment of the    |
 |    Zeolite Ferrierite Spectrum"                 |
 |    M. Profeta, F. Mauri and C. J. Pickard       |
 |    J. Amer. Chem. Soc. 125 541 (2003)           |
 | For Spin-Spin (J) Couplings cite:               |
 |   "A first principles theory of NMR J-coupling  |
 |   in solid-state systems"                       |
 |   S.A. Joyce, J.R. Yates, C.J. Pickard, F. Mauri|
 |   J. Chem. Phys. 127 204107 (2007)              |
 |   "Relativistic NMR J-coupling with ultrasoft   |
 |   pseudopotentials and the zeroth-order regular |
 |   approximation"                                |
 |   T.F.G. Green and J.R. Yates                   |
 |   J. Chem. Phys. 140 234106 (2014)              |

 Atomic calculation performed for O: 1s2 2s2 2p4

 Converged in 44 iterations to an ae energy of -2040.855 eV

 Atomic calculation performed for O: 1s2 2s2 2p4

 Exceeded max iterations: converged to 0.000000062 eV

   | Pseudopotential Report - Date of generation 24-02-2018   |
   | Element: O Ionic charge:  6.00 Level of theory: PBE      |
   | Atomic Solver: ZORA (scalar)                             |
   |               Reference Electronic Structure             |
   |         Orbital         Occupation         Energy        |
   |            2s              2.000           -0.881        |
   |            2p              4.000           -0.332        |
   |                 Pseudopotential Definition               |
   |        Beta     l      e      Rc     scheme   norm       |
   |          1      0   -0.881   1.100     qc      0         |
   |          2      0    0.250   1.100     qc      0         |
   |          3      1   -0.332   1.100     qc      0         |
   |          4      1    0.250   1.100     qc      0         |
   |         loc     2    0.000   1.100     pn      0         |
   | Augmentation charge Rinner = 0.769                       |
   | Partial core correction Rc = 0.769                       |
   | "2|1.1|15|18|20|20:21(qc=7)"                             |
   |      Author: Chris J. Pickard, Cambridge University      |

 Atomic calculation performed for Zr: 1s2 2s2 2p6 3s2 3p6 3d10 4s2 4p6 4d2 5s2

[...]

 Atomic calculation performed for Zr: 1s2 2s2 2p6 3s2 3p6 3d10 4s2 4p6 4d2 5s2

[...]

 Warning: ion_atom_descreen_psp: negative charge density encountered
   | Pseudopotential Report - Date of generation 24-02-2018   |
   | Element: Zr Ionic charge: 12.00 Level of theory: PBE     |
   | Atomic Solver: ZORA (scalar)                             |
   |               Reference Electronic Structure             |
   |         Orbital         Occupation         Energy        |
   |            4s              2.000           -2.003        |
   |            4p              6.000           -1.193        |
   |            5s              2.000           -0.163        |
   |            4d              2.000           -0.132        |
   |                 Pseudopotential Definition               |
   |        Beta     l      e      Rc     scheme   norm       |
   |          1      0   -2.003   2.105     qc      0         |
   |          2      0   -0.163   2.105     qc      0         |
   |          3      0    0.250   2.105     qc      0         |
   |          4      1   -1.193   2.105     qc      0         |
   |          5      1    0.250   2.105     qc      0         |
   |          6      2   -0.132   2.105     qc      0         |
   |          7      2    0.250   2.105     qc      0         |
   |         loc     3    0.000   2.105     pn      0         |
   | Augmentation charge Rinner = 1.471                       |
   | Partial core correction Rc = 1.471                       |
   | "3|2.1|7|8|9|40U:50:41:42"                               |
   |      Author: Chris J. Pickard, Cambridge University      |

 Atomic calculation performed for Sn:

[...]

 Atomic calculation performed for Sn:

[...]

   | Pseudopotential Report - Date of generation 24-02-2018   |
   | Element: Sn Ionic charge: 14.00 Level of theory: PBE     |
   | Atomic Solver: ZORA (scalar)                             |
   |               Reference Electronic Structure             |
   |         Orbital         Occupation         Energy        |
   |            4d             10.000           -0.950        |
   |            5s              2.000           -0.388        |
   |            5p              2.000           -0.136        |
   |                 Pseudopotential Definition               |
   |        Beta     l      e      Rc     scheme   norm       |
   |          1      0   -0.388   2.199     qc      0         |
   |          2      0    0.250   2.199     qc      0         |
   |          3      1   -0.136   2.199     qc      0         |
   |          4      1    0.250   2.199     qc      0         |
   |          5      2   -0.950   2.199     qc      0         |
   |          6      2    0.250   2.199     qc      0         |
   |         loc     3    0.000   2.199     pn      0         |
   | Augmentation charge Rinner = 1.537                       |
   | Partial core correction Rc = 1.537                       |
   | "3|2.2|7|8|9|50:51:42"                                   |
   |      Author: Chris J. Pickard, Cambridge University      |

 Atomic calculation performed for La:

 Converged in 56 iterations to an ae energy of -230121.495 eV

 Atomic calculation performed for La:

 Exceeded max iterations: converged to 0.000000907 eV

 Warning: ion_atom_descreen_psp: negative charge density encountered
   | Pseudopotential Report - Date of generation 24-02-2018   |
   | Element: La Ionic charge: 11.00 Level of theory: PBE     |
   | Atomic Solver: ZORA (scalar)                             |
   |               Reference Electronic Structure             |
   |         Orbital         Occupation         Energy        |
   |            5s              2.000           -1.430        |
   |            5p              6.000           -0.823        |
   |            6s              2.000           -0.135        |
   |            5d              1.000           -0.114        |
   |                 Pseudopotential Definition               |
   |        Beta     l      e      Rc     scheme   norm       |
   |          1      0   -1.430   2.298     qc      0         |
   |          2      0   -0.135   2.298     qc      0         |
   |          3      0    0.250   2.298     qc      0         |
   |          4      1   -0.823   2.298     qc      0         |
   |          5      1    0.250   2.298     qc      0         |
   |          6      2   -0.114   2.298     qc      0         |
   |          7      2    0.250   2.298     qc      0         |
   |         loc     2    0.000   2.298     pn      0         |
   | Augmentation charge Rinner = 1.606                       |
   | Partial core correction Rc = 1.606                       |
   | "2|2.3|5|6|7|50U:60:51:52(qc=4.5)"                       |
   |      Author: Chris J. Pickard, Cambridge University      |

 Pseudo atomic calculation performed for O 2s2 2p4

 Converged in 39 iterations to a total energy of -432.6554 eV

 Pseudo atomic calculation performed for Zr 4s2 4p6 4d2 5s2

[...]

 Calculation parallelised over 56 processes.
 Data is distributed by G-vector(4-way) and k-point(14-way)

 ************************************ Title ************************************
 nmr testing

 ***************************** General Parameters ******************************

 output verbosity                               : normal  (1)
 write checkpoint data to                       : 06.check
 type of calculation                            : Magnetic Resonance
 stress calculation                             : on
 density difference calculation                 : off
 electron localisation func (ELF) calculation   : off
 Hirshfeld analysis                             : off
 unlimited duration calculation
 timing information                             : on
 write final potential to formatted file        : off
 write final density to formatted file          : off
 write structure in CIF formatted file          : on
 write structure in CELL formatted file         : on
 write BibTeX reference list                    : on
 write OTFG pseudopotential files               : on
 checkpoint writing                             : both castep_bin and check files

 output         length unit                     : A
 output           mass unit                     : amu
 output           time unit                     : ps
 output         charge unit                     : e
 output           spin unit                     : hbar/2
 output         energy unit                     : eV
 output          force unit                     : eV/A
 output       velocity unit                     : A/ps
 output       pressure unit                     : GPa
 output     inv_length unit                     : 1/A
 output      frequency unit                     : cm-1
 output force constant unit                     : eV/A**2
 output         volume unit                     : A**3
 output   IR intensity unit                     : (D/A)**2/amu
 output         dipole unit                     : D
 output         efield unit                     : eV/A/e
 output        entropy unit                     : J/mol/K

 wavefunctions paging                           : none
 random number generator seed                   : randomised (171123255)
 data distribution                              : optimal for this architecture
[...]
  |    O          41       -9.17      57.26      0.86   3.827E+00   0.94 |
  |    O          42      -87.10      86.97      0.18  -3.186E+00   0.05 |
  |    O          43      -88.15      87.49      0.13  -3.184E+00   0.04 |
  |    O          44       -9.76      60.10      0.49   3.879E+00   0.90 |
  |    O          45      -87.09      86.02      0.07  -3.227E+00   0.07 |
  |    O          46      -89.58      87.21      0.10  -3.142E+00   0.04 |
  |    O          47       -7.50      55.87      0.84   3.886E+00   0.90 |
  |    O          48      -88.39      84.08      0.10  -3.168E+00   0.06 |
  |    O          49      -87.07      87.78      0.13  -3.184E+00   0.03 |
  |    O          50      -84.92      87.17      0.18  -3.167E+00   0.05 |
  |    O          51      -87.07      87.80      0.13  -3.184E+00   0.03 |
  |    O          52      -84.93      87.15      0.18  -3.167E+00   0.05 |
  |    O          53      -16.60     -37.37      0.84   3.909E+00   0.90 |
  |    O          54     -162.41     141.35      0.88   1.015E+00   0.63 |
  |    O          55      -89.58      87.20      0.10  -3.142E+00   0.04 |
  |    O          56      -87.09      86.02      0.07  -3.227E+00   0.07 |
  |    Zr          1     1613.42    -116.53      0.14  -3.452E+01   0.02 |
  |    Zr          2     1599.58    -106.31      0.04  -3.367E+01   0.03 |
  |    Zr          3     1599.58    -106.31      0.04  -3.367E+01   0.03 |
  |    Zr          4     1614.89    -112.31      0.10  -3.468E+01   0.06 |
[...]
  |    La          2     4542.78     394.68      0.06  -7.487E+01   0.08 |
  |    La          3     4652.36     656.30      0.08  -8.540E+01   0.12 |
  |    La          4     4607.65     520.44      0.06  -8.197E+01   0.08 |
  |    La          5     4542.78     394.68      0.06  -7.487E+01   0.08 |
  |    La          6     4607.65     520.46      0.06  -8.197E+01   0.08 |
  |    La          7     4652.36     656.29      0.08  -8.540E+01   0.12 |
  |    La          8     4552.06     385.14      0.07  -7.607E+01   0.08 |
  |    La          9     4491.88     236.64      0.02  -7.043E+01   0.00 |
  |    La         10     4608.14     543.96      0.05  -8.206E+01   0.17 |
  |    La         11     4483.09     241.52      0.02  -6.924E+01   0.00 |
  |    La         12     4560.33     376.66      0.04  -7.726E+01   0.07 |
  |    La         13     4552.06     385.14      0.07  -7.607E+01   0.08 |
  |    La         14     4560.33     376.64      0.04  -7.726E+01   0.07 |
  |    La         15     4608.14     543.95      0.05  -8.206E+01   0.17 |
  |    La         16     4600.65     548.41      0.05  -8.032E+01   0.14 |

 *********************** Forces ***********************
 *            Cartesian components (eV/A)             *
 *                   x            y            z      *
 * O         1     -0.00050     -0.00050      0.00132 *
 * O         2     -0.00355      0.00364      0.00138 *
 * O         3      0.00364     -0.00354      0.00138 *
 * O         4     -0.00411     -0.00411     -0.00329 *
 * O         5      0.00064      0.00089     -0.00041 *
 * O         6      0.00097      0.00096     -0.00087 *
 * O         7      0.00447      0.00447     -0.00650 *
 * O         8      0.00089      0.00064     -0.00041 *
 * O         9      0.00562      0.00076     -0.00237 *
 * O        10      0.00065     -0.02945      0.03155 *
 * O        11     -0.00564     -0.00603      0.00844 *
 * O        12      0.00846      0.00314      0.00682 *
 * O        13      0.00077      0.00562     -0.00237 *
 * O        14     -0.02443     -0.00138      0.02608 *
 * O        15     -0.00603     -0.00564      0.00843 *
 * O        16      0.00168      0.00864     -0.00422 *
 * O        17     -0.03222     -0.03223     -0.00111 *
 * O        18     -0.00584      0.00676     -0.00372 *
 * O        19     -0.00094     -0.00094     -0.00063 *
 * O        20     -0.03538     -0.01970     -0.00493 *
 * O        21      0.01289      0.00166     -0.01109 *
 * O        22     -0.00618     -0.01016     -0.00463 *
 * O        23     -0.00049     -0.00113     -0.00529 *
 * O        24      0.02003     -0.00263     -0.02671 *
 * O        25     -0.00263      0.02003     -0.02671 *
 * O        26     -0.00146     -0.00501      0.00151 *
 * O        27     -0.01017     -0.00618     -0.00462 *
 * O        28     -0.00157      0.02353     -0.03193 *
 * O        29      0.02708      0.02870      0.00320 *
 * O        30      0.00001      0.00001      0.00256 *
 * O        31      0.00149     -0.00116      0.00592 *
 * O        32      0.00477      0.00477     -0.00506 *
 * O        33      0.00165      0.01289     -0.01109 *
 * O        34     -0.00113     -0.00049     -0.00528 *
 * O        35      0.02353     -0.00158     -0.03193 *
 * O        36     -0.00501     -0.00148      0.00151 *
 * O        37     -0.00116      0.00149      0.00592 *
 * O        38      0.02870      0.02708      0.00320 *
 * O        39     -0.02946      0.00065      0.03155 *
 * O        40      0.00314      0.00845      0.00683 *
 * O        41      0.00864      0.00169     -0.00421 *
 * O        42     -0.00138     -0.02443      0.02608 *
 * O        43     -0.01970     -0.03538     -0.00493 *
 * O        44      0.00676     -0.00585     -0.00372 *
 * O        45      0.00601      0.01666      0.02308 *
 * O        46      0.00074     -0.02792      0.02913 *
 * O        47      0.00329      0.00329     -0.00982 *
 * O        48      0.01478      0.01478     -0.00082 *
 * O        49      0.03158      0.00191     -0.02525 *
 * O        50     -0.01468     -0.00478     -0.02250 *
 * O        51      0.00191      0.03158     -0.02525 *
 * O        52     -0.00478     -0.01468     -0.02250 *
 * O        53     -0.00051     -0.00050      0.00449 *
 * O        54     -0.00115     -0.00116      0.00775 *
 * O        55     -0.02793      0.00074      0.02914 *
 * O        56      0.01666      0.00601      0.02308 *
 * Zr        1      0.00763      0.00762     -0.03000 *
 * Zr        2     -0.00283      0.00663      0.00244 *
 * Zr        3      0.00663     -0.00282      0.00244 *
 * Zr        4     -0.00075     -0.00075     -0.03061 *
[...]
 * La        2      0.00352     -0.00341     -0.00273 *
 * La        3     -0.01349      0.00635      0.01165 *
 * La        4      0.00547     -0.00023      0.00794 *
 * La        5     -0.00341      0.00352     -0.00273 *
 * La        6     -0.00023      0.00548      0.00795 *
 * La        7      0.00635     -0.01349      0.01165 *
 * La        8     -0.00243      0.00565     -0.00296 *
 * La        9      0.00429      0.00429     -0.00411 *
 * La       10      0.00471      0.00244      0.00002 *
 * La       11      0.00065      0.00065      0.00658 *
 * La       12      0.00466     -0.00615     -0.00061 *
 * La       13      0.00565     -0.00243     -0.00296 *
 * La       14     -0.00614      0.00467     -0.00061 *
 * La       15      0.00244      0.00471      0.00003 *
 * La       16     -0.00113     -0.00113      0.00739 *

 ***************** Stress Tensor *****************
 *          Cartesian components (GPa)           *
 *             x             y             z     *
 *  x     -0.001950      0.004580     -0.001250  *
 *  y      0.004580     -0.001949     -0.001248  *
 *  z     -0.001250     -0.001248      0.004533  *
 *  Pressure:   -0.0002                          *

[...]

 Pseudo atomic calculation performed for Sn 4d10 5s2 5p2

[...]

 Pseudo atomic calculation performed for La 5s2 5p6 5d1 6s2

 Converged in 34 iterations to a total energy of -968.0372 eV

Charge spilling parameter for spin component 1 = 0.26%

     Atomic Populations (Mulliken)
Species   Ion     s      p      d      f     Total  Charge (e)
  O        1     1.87   5.00   0.00   0.00   6.87    -0.87
  O        2     1.87   5.00   0.00   0.00   6.87    -0.87
  O        3     1.87   5.00   0.00   0.00   6.87    -0.87
  O        4     1.87   5.00   0.00   0.00   6.87    -0.87
  O        5     1.87   5.00   0.00   0.00   6.87    -0.87
  O        6     1.87   5.00   0.00   0.00   6.87    -0.87
  O        7     1.87   5.00   0.00   0.00   6.87    -0.87
  O        8     1.87   5.00   0.00   0.00   6.87    -0.87
  O        9     1.88   5.03   0.00   0.00   6.91    -0.91
  O       10     1.87   4.99   0.00   0.00   6.86    -0.86
  O       11     1.88   5.03   0.00   0.00   6.91    -0.91
  O       12     1.88   5.03   0.00   0.00   6.91    -0.91
  O       13     1.88   5.03   0.00   0.00   6.91    -0.91
  O       14     1.87   4.99   0.00   0.00   6.86    -0.86
  O       15     1.88   5.03   0.00   0.00   6.91    -0.91
  O       16     1.88   5.03   0.00   0.00   6.91    -0.91
  O       17     1.87   4.99   0.00   0.00   6.86    -0.86
  O       18     1.88   5.03   0.00   0.00   6.91    -0.91
  O       19     1.88   5.03   0.00   0.00   6.91    -0.91
  O       20     1.87   4.99   0.00   0.00   6.86    -0.86
  O       21     1.88   5.03   0.00   0.00   6.91    -0.91
  O       22     1.88   5.03   0.00   0.00   6.91    -0.91
  O       23     1.88   5.03   0.00   0.00   6.91    -0.91
  O       24     1.87   4.99   0.00   0.00   6.86    -0.86
  O       25     1.87   4.99   0.00   0.00   6.86    -0.86
  O       26     1.88   5.03   0.00   0.00   6.91    -0.91
  O       27     1.88   5.03   0.00   0.00   6.91    -0.91
  O       28     1.87   4.99   0.00   0.00   6.86    -0.86
  O       29     1.87   4.99   0.00   0.00   6.86    -0.86
  O       30     1.88   5.03   0.00   0.00   6.91    -0.91
  O       31     1.88   5.03   0.00   0.00   6.91    -0.91
  O       32     1.88   5.03   0.00   0.00   6.91    -0.91
  O       33     1.88   5.03   0.00   0.00   6.91    -0.91
  O       34     1.88   5.03   0.00   0.00   6.91    -0.91
  O       35     1.87   4.99   0.00   0.00   6.86    -0.86
  O       36     1.88   5.03   0.00   0.00   6.91    -0.91
  O       37     1.88   5.03   0.00   0.00   6.91    -0.91
  O       38     1.87   4.99   0.00   0.00   6.86    -0.86
  O       39     1.87   4.99   0.00   0.00   6.86    -0.86
  O       40     1.88   5.03   0.00   0.00   6.91    -0.91
  O       41     1.88   5.03   0.00   0.00   6.91    -0.91
  O       42     1.87   4.99   0.00   0.00   6.86    -0.86
  O       43     1.87   4.99   0.00   0.00   6.86    -0.86
  O       44     1.88   5.03   0.00   0.00   6.91    -0.91
  O       45     1.87   4.99   0.00   0.00   6.86    -0.86
  O       46     1.87   4.99   0.00   0.00   6.86    -0.86
  O       47     1.88   5.03   0.00   0.00   6.91    -0.91
  O       48     1.87   4.99   0.00   0.00   6.86    -0.86
  O       49     1.87   4.99   0.00   0.00   6.86    -0.86
  O       50     1.87   4.99   0.00   0.00   6.86    -0.86
  O       51     1.87   4.99   0.00   0.00   6.86    -0.86
  O       52     1.87   4.99   0.00   0.00   6.86    -0.86
  O       53     1.88   5.03   0.00   0.00   6.91    -0.91
  O       54     1.86   4.95   0.00   0.00   6.81    -0.81
  O       55     1.87   4.99   0.00   0.00   6.86    -0.86
  O       56     1.87   4.99   0.00   0.00   6.86    -0.86
  Zr       1     2.37   6.49   1.92   0.00  10.77     1.23
  Zr       2     2.36   6.49   1.92   0.00  10.77     1.23
  Zr       3     2.36   6.49   1.92   0.00  10.77     1.23
  Zr       4     2.36   6.49   1.92   0.00  10.77     1.23
[...]
  La       2     2.11   6.18   1.20   0.00   9.49     1.51
  La       3     2.03   6.17   1.20   0.00   9.40     1.60
  La       4     2.05   6.18   1.19   0.00   9.42     1.58
  La       5     2.11   6.18   1.20   0.00   9.49     1.51
  La       6     2.05   6.18   1.19   0.00   9.42     1.58
  La       7     2.03   6.17   1.20   0.00   9.40     1.60
  La       8     2.08   6.19   1.19   0.00   9.46     1.54
  La       9     2.13   6.19   1.19   0.00   9.52     1.48
  La      10     2.05   6.18   1.20   0.00   9.43     1.57
  La      11     2.12   6.19   1.19   0.00   9.50     1.50
  La      12     2.07   6.20   1.19   0.00   9.46     1.54
  La      13     2.08   6.19   1.19   0.00   9.46     1.54
  La      14     2.07   6.20   1.19   0.00   9.46     1.54
  La      15     2.05   6.18   1.20   0.00   9.43     1.57
  La      16     2.06   6.18   1.20   0.00   9.43     1.57

            Bond              Population      Length (A)
         O 56 -- Sn 6              0.34        2.10216
         O 45 -- Sn 11             0.34        2.10216
         O 14 -- Sn 10             0.34        2.10332
         O 42 -- Sn 8              0.34        2.10332
         O 39 -- Sn 2              0.35        2.10348
         O 10 -- Sn 3              0.35        2.10348
         O 51 -- Sn 3              0.35        2.10640
         O 49 -- Sn 2              0.35        2.10640
         O 43 -- Sn 9              0.35        2.10679
         O 20 -- Sn 5              0.35        2.10679
         O 29 -- Sn 9              0.35        2.10698
         O 38 -- Sn 5              0.35        2.10698
         O 50 -- Sn 8              0.34        2.10699
         O 52 -- Sn 10             0.34        2.10699
         O 48 -- Sn 7              0.34        2.10705
         O 9  -- Sn 10             0.34        2.10719
         O 13 -- Sn 8              0.34        2.10719
         O 53 -- Sn 4              0.33        2.10748
         O 53 -- Sn 1              0.33        2.10748
         O 24 -- Sn 10             0.34        2.10828
         O 25 -- Sn 8              0.34        2.10828
         O 36 -- Sn 12             0.34        2.10852
         O 26 -- Sn 12             0.34        2.10852
         O 18 -- Sn 4              0.34        2.10925
         O 44 -- Sn 1              0.34        2.10925
         O 28 -- Sn 6              0.34        2.10932
         O 35 -- Sn 11             0.34        2.10932
         O 9  -- Sn 5              0.33        2.10974
         O 13 -- Sn 9              0.33        2.10974
         O 17 -- Sn 12             0.34        2.10975
         O 36 -- Sn 1              0.33        2.11029
         O 26 -- Sn 4              0.33        2.11029
         O 21 -- Sn 7              0.33        2.11068
         O 33 -- Sn 7              0.33        2.11068
         O 19 -- Sn 6              0.33        2.11081
         O 19 -- Sn 11             0.33        2.11081
         O 32 -- Sn 7              0.34        2.11092
         O 27 -- Sn 11             0.34        2.11127
         O 22 -- Sn 6              0.34        2.11127
         O 47 -- Sn 3              0.33        2.11145
         O 47 -- Sn 2              0.33        2.11145
         O 31 -- Sn 3              0.33        2.11159
         O 37 -- Sn 2              0.33        2.11159
         O 46 -- Sn 1              0.34        2.11187
         O 55 -- Sn 4              0.34        2.11187
         O 21 -- Sn 4              0.34        2.11190
         O 33 -- Sn 1              0.34        2.11190
         O 37 -- Sn 6              0.33        2.11199
         O 31 -- Sn 11             0.33        2.11199
         O 27 -- Sn 5              0.33        2.11238
         O 22 -- Sn 9              0.33        2.11238
         O 34 -- Sn 9              0.33        2.11260
         O 23 -- Sn 5              0.33        2.11260
         O 18 -- Sn 8              0.33        2.11265
         O 44 -- Sn 10             0.33        2.11265
         O 32 -- Sn 12             0.34        2.11328
         O 34 -- Sn 2              0.33        2.11352
         O 23 -- Sn 3              0.33        2.11352
         O 41 -- Sn 12             0.33        2.11482
         O 16 -- Sn 12             0.33        2.11482
[...]
         O 25 -- O 39             -0.03        2.82679
         O 20 -- O 49             -0.03        2.82805
         O 43 -- O 51             -0.03        2.82805
         O 38 -- O 42             -0.03        2.82849
         O 14 -- O 29             -0.03        2.82849
         O 38 -- O 55             -0.03        2.82890
         O 29 -- O 46             -0.03        2.82890
         O 51 -- O 55             -0.03        2.83092
         O 46 -- O 49             -0.03        2.83092
         O 17 -- O 24             -0.03        2.83158
         O 17 -- O 25             -0.03        2.83158
         O 20 -- O 28             -0.03        2.83175
         O 35 -- O 43             -0.03        2.83175
         O 48 -- O 52             -0.03        2.83661
         O 48 -- O 50             -0.03        2.83661

Writing analysis data to 06.castep_bin

Writing model to 06.check

 A BibTeX formatted list of references used in this run has been written to
 06.bib

Initialisation time =     55.42 s
Calculation time    =  34419.36 s
Finalisation time   =     37.05 s
Total time          =  34511.83 s

Overall parallel efficiency rating: Good (77%)

Data was distributed by:-
G-vector (4-way); efficiency rating: Good (79%)
k-point (14-way); efficiency rating: Excellent (96%)