 Compiled for linux_x86_64_ifort16 on Sat, 23 Jul 2016 23:44:54 +0100
 from code version
 203e84763863+ Castep161_branch Fri, 04 Mar 2016 19:21:07 +0000
 Compiler: Intel Fortran 16.0.3.210; Optimisation: fast
 MATHLIBS: Intel MKL(11.3.3) (LAPACK version 3.6.0)
 FFT Lib : mkl
 Fundamental constants values: CODATA 2010

 Run started: Sun, 25 Feb 2018 02:46:49 +0000
 |           N   N    M   M    RRRR                |
 |           NN  N    MM MM    R   R               |
 |           N N N    M M M    RRRR                |
 |           N  NN    M   M    R  R                |
 |           N   N    M   M    R   R               |
 | Welcome to Materials Studio CASTEP-NMR          |
 | Authors:                                        |
 | J.R. Yates, C.J. Pickard, F. Mauri              |
 | Contributors:                                   |
 | T.F.G. Green, S.A. Joyce                        |
 | Copyright (c) 2004 - 2015                       |
 | Please cite the appropriate publications in all |
 | work arising from your use of CASTEP NMR.       |
 | For NMR Shielding Tensors cite:                 |
 |    "All-electron magnetic response with         |
 |    pseudopotentials: NMR chemical shifts",      |
 |    C. J. Pickard, F. Mauri;                     |
 |    Physical Review B63 245101 (2001), and       |
 |    "Calculation of NMR Chemical Shifts          |
 |    for extended systems using                   |
 |    Ultrasoft Pseudopotentials",                 |
 |    J. R. Yates, C. J. Pickard and F. Mauri      |
 |    Physical Review B76 024401 (2007)            |
 | For Electric Field Gradients cite:              |
 |   "Accurate First Principles Prediction of 17O  |
 |    NMR Parameters in SiO2: Assignment of the    |
 |    Zeolite Ferrierite Spectrum"                 |
 |    M. Profeta, F. Mauri and C. J. Pickard       |
 |    J. Amer. Chem. Soc. 125 541 (2003)           |
 | For Spin-Spin (J) Couplings cite:               |
 |   "A first principles theory of NMR J-coupling  |
 |   in solid-state systems"                       |
 |   S.A. Joyce, J.R. Yates, C.J. Pickard, F. Mauri|
 |   J. Chem. Phys. 127 204107 (2007)              |
 |   "Relativistic NMR J-coupling with ultrasoft   |
 |   pseudopotentials and the zeroth-order regular |
 |   approximation"                                |
 |   T.F.G. Green and J.R. Yates                   |
 |   J. Chem. Phys. 140 234106 (2014)              |

 Atomic calculation performed for O: 1s2 2s2 2p4

 Converged in 44 iterations to an ae energy of -2040.855 eV

 Atomic calculation performed for O: 1s2 2s2 2p4

 Exceeded max iterations: converged to 0.000000062 eV

   | Pseudopotential Report - Date of generation 25-02-2018   |
   | Element: O Ionic charge:  6.00 Level of theory: PBE      |
   | Atomic Solver: ZORA (scalar)                             |
   |               Reference Electronic Structure             |
   |         Orbital         Occupation         Energy        |
   |            2s              2.000           -0.881        |
   |            2p              4.000           -0.332        |
   |                 Pseudopotential Definition               |
   |        Beta     l      e      Rc     scheme   norm       |
   |          1      0   -0.881   1.100     qc      0         |
   |          2      0    0.250   1.100     qc      0         |
   |          3      1   -0.332   1.100     qc      0         |
   |          4      1    0.250   1.100     qc      0         |
   |         loc     2    0.000   1.100     pn      0         |
   | Augmentation charge Rinner = 0.769                       |
   | Partial core correction Rc = 0.769                       |
   | "2|1.1|15|18|20|20:21(qc=7)"                             |
   |      Author: Chris J. Pickard, Cambridge University      |

 Atomic calculation performed for Zr: 1s2 2s2 2p6 3s2 3p6 3d10 4s2 4p6 4d2 5s2

[...]

 Atomic calculation performed for Zr: 1s2 2s2 2p6 3s2 3p6 3d10 4s2 4p6 4d2 5s2

[...]

 Warning: ion_atom_descreen_psp: negative charge density encountered
   | Pseudopotential Report - Date of generation 25-02-2018   |
   | Element: Zr Ionic charge: 12.00 Level of theory: PBE     |
   | Atomic Solver: ZORA (scalar)                             |
   |               Reference Electronic Structure             |
   |         Orbital         Occupation         Energy        |
   |            4s              2.000           -2.003        |
   |            4p              6.000           -1.193        |
   |            5s              2.000           -0.163        |
   |            4d              2.000           -0.132        |
   |                 Pseudopotential Definition               |
   |        Beta     l      e      Rc     scheme   norm       |
   |          1      0   -2.003   2.105     qc      0         |
   |          2      0   -0.163   2.105     qc      0         |
   |          3      0    0.250   2.105     qc      0         |
   |          4      1   -1.193   2.105     qc      0         |
   |          5      1    0.250   2.105     qc      0         |
   |          6      2   -0.132   2.105     qc      0         |
   |          7      2    0.250   2.105     qc      0         |
   |         loc     3    0.000   2.105     pn      0         |
   | Augmentation charge Rinner = 1.471                       |
   | Partial core correction Rc = 1.471                       |
   | "3|2.1|7|8|9|40U:50:41:42"                               |
   |      Author: Chris J. Pickard, Cambridge University      |

 Atomic calculation performed for Sn:

[...]

 Atomic calculation performed for Sn:

[...]

   | Pseudopotential Report - Date of generation 25-02-2018   |
   | Element: Sn Ionic charge: 14.00 Level of theory: PBE     |
   | Atomic Solver: ZORA (scalar)                             |
   |               Reference Electronic Structure             |
   |         Orbital         Occupation         Energy        |
   |            4d             10.000           -0.950        |
   |            5s              2.000           -0.388        |
   |            5p              2.000           -0.136        |
   |                 Pseudopotential Definition               |
   |        Beta     l      e      Rc     scheme   norm       |
   |          1      0   -0.388   2.199     qc      0         |
   |          2      0    0.250   2.199     qc      0         |
   |          3      1   -0.136   2.199     qc      0         |
   |          4      1    0.250   2.199     qc      0         |
   |          5      2   -0.950   2.199     qc      0         |
   |          6      2    0.250   2.199     qc      0         |
   |         loc     3    0.000   2.199     pn      0         |
   | Augmentation charge Rinner = 1.537                       |
   | Partial core correction Rc = 1.537                       |
   | "3|2.2|7|8|9|50:51:42"                                   |
   |      Author: Chris J. Pickard, Cambridge University      |

 Atomic calculation performed for La:

 Converged in 56 iterations to an ae energy of -230121.495 eV

 Atomic calculation performed for La:

 Exceeded max iterations: converged to 0.000000907 eV

 Warning: ion_atom_descreen_psp: negative charge density encountered
   | Pseudopotential Report - Date of generation 25-02-2018   |
   | Element: La Ionic charge: 11.00 Level of theory: PBE     |
   | Atomic Solver: ZORA (scalar)                             |
   |               Reference Electronic Structure             |
   |         Orbital         Occupation         Energy        |
   |            5s              2.000           -1.430        |
   |            5p              6.000           -0.823        |
   |            6s              2.000           -0.135        |
   |            5d              1.000           -0.114        |
   |                 Pseudopotential Definition               |
   |        Beta     l      e      Rc     scheme   norm       |
   |          1      0   -1.430   2.298     qc      0         |
   |          2      0   -0.135   2.298     qc      0         |
   |          3      0    0.250   2.298     qc      0         |
   |          4      1   -0.823   2.298     qc      0         |
   |          5      1    0.250   2.298     qc      0         |
   |          6      2   -0.114   2.298     qc      0         |
   |          7      2    0.250   2.298     qc      0         |
   |         loc     2    0.000   2.298     pn      0         |
   | Augmentation charge Rinner = 1.606                       |
   | Partial core correction Rc = 1.606                       |
   | "2|2.3|5|6|7|50U:60:51:52(qc=4.5)"                       |
   |      Author: Chris J. Pickard, Cambridge University      |

 Pseudo atomic calculation performed for O 2s2 2p4

 Converged in 39 iterations to a total energy of -432.6554 eV

 Pseudo atomic calculation performed for Zr 4s2 4p6 4d2 5s2

[...]

 Calculation parallelised over 56 processes.
 Data is distributed by G-vector(4-way) and k-point(14-way)

 ************************************ Title ************************************
 nmr testing

 ***************************** General Parameters ******************************

 output verbosity                               : normal  (1)
 write checkpoint data to                       : 07.check
 type of calculation                            : Magnetic Resonance
 stress calculation                             : on
 density difference calculation                 : off
 electron localisation func (ELF) calculation   : off
 Hirshfeld analysis                             : off
 unlimited duration calculation
 timing information                             : on
 write final potential to formatted file        : off
 write final density to formatted file          : off
 write structure in CIF formatted file          : on
 write structure in CELL formatted file         : on
 write BibTeX reference list                    : on
 write OTFG pseudopotential files               : on
 checkpoint writing                             : both castep_bin and check files

 output         length unit                     : A
 output           mass unit                     : amu
 output           time unit                     : ps
 output         charge unit                     : e
 output           spin unit                     : hbar/2
 output         energy unit                     : eV
 output          force unit                     : eV/A
 output       velocity unit                     : A/ps
 output       pressure unit                     : GPa
 output     inv_length unit                     : 1/A
 output      frequency unit                     : cm-1
 output force constant unit                     : eV/A**2
 output         volume unit                     : A**3
 output   IR intensity unit                     : (D/A)**2/amu
 output         dipole unit                     : D
 output         efield unit                     : eV/A/e
 output        entropy unit                     : J/mol/K

 wavefunctions paging                           : none
 random number generator seed                   : randomised (24651427)
 data distribution                              : optimal for this architecture
[...]
  |    O          41      -18.92      37.13      0.87   3.881E+00   0.90 |
  |    O          42      -90.52      86.56      0.16  -3.156E+00   0.06 |
  |    O          43      -87.01      85.10      0.17  -3.205E+00   0.06 |
  |    O          44       -9.00      59.25      0.82   3.824E+00   0.94 |
  |    O          45      -85.43      88.27      0.26  -3.167E+00   0.06 |
  |    O          46      -86.66      86.23      0.15  -3.149E+00   0.05 |
  |    O          47      -14.42     -38.25      0.85   3.905E+00   0.89 |
  |    O          48      -87.08      85.84      0.11  -3.168E+00   0.04 |
  |    O          49      -85.70      87.84      0.13  -3.146E+00   0.05 |
  |    O          50      -86.10      85.12      0.21  -3.173E+00   0.07 |
  |    O          51      -88.87      85.74      0.09  -3.169E+00   0.04 |
  |    O          52      -87.43      85.16      0.27  -3.228E+00   0.08 |
  |    O          53      -18.43     -38.06      0.89   3.877E+00   0.89 |
  |    O          54      -88.92      86.95      0.13  -3.230E+00   0.06 |
  |    O          55      -86.97      86.01      0.12  -3.168E+00   0.04 |
  |    O          56     -160.80     150.06      0.85   1.034E+00   0.66 |
  |    Zr          1     1613.72    -115.25      0.08  -3.445E+01   0.14 |
  |    Zr          2     1599.19    -107.44      0.04  -3.380E+01   0.04 |
  |    Zr          3     1614.41    -114.56      0.10  -3.469E+01   0.08 |
  |    Zr          4     1627.87    -120.00      0.14  -3.547E+01   0.07 |
[...]
  |    La          2     4598.43     520.56      0.07  -8.052E+01   0.06 |
  |    La          3     4599.33     525.51      0.07  -8.078E+01   0.08 |
  |    La          4     4607.90     519.83      0.06  -8.149E+01   0.09 |
  |    La          5     4552.06     395.23      0.04  -7.693E+01   0.08 |
  |    La          6     4599.04     523.39      0.08  -8.071E+01   0.11 |
  |    La          7     4652.29     625.19      0.01  -8.375E+01   0.02 |
  |    La          8     4552.92     389.32      0.06  -7.622E+01   0.11 |
  |    La          9     4545.05     399.68      0.06  -7.553E+01   0.09 |
  |    La         10     4558.62     379.57      0.05  -7.757E+01   0.09 |
  |    La         11     4492.61     237.22      0.01  -7.121E+01   0.01 |
  |    La         12     4551.13     385.58      0.07  -7.649E+01   0.10 |
  |    La         13     4502.76     226.25      0.03  -7.157E+01   0.01 |
  |    La         14     4609.34     524.62      0.06  -8.168E+01   0.09 |
  |    La         15     4561.62     378.21      0.05  -7.680E+01   0.10 |
  |    La         16     4647.96     665.78      0.08  -8.376E+01   0.10 |

 *********************** Forces ***********************
 *            Cartesian components (eV/A)             *
 *                   x            y            z      *
 * O         1     -0.00702      0.00069      0.00884 *
 * O         2     -0.01066      0.00888      0.01234 *
 * O         3     -0.00639     -0.00415      0.01230 *
 * O         4     -0.01176     -0.00770      0.00225 *
 * O         5      0.00635      0.00293     -0.00731 *
 * O         6      0.00714     -0.00125     -0.00997 *
 * O         7      0.02079      0.00831     -0.00871 *
 * O         8      0.01098      0.00059     -0.00874 *
 * O         9      0.01477      0.00927      0.00184 *
 * O        10      0.00211      0.00540      0.00800 *
 * O        11      0.00253      0.02411     -0.01780 *
 * O        12      0.00199      0.00280      0.00606 *
 * O        13      0.00423      0.01062      0.00100 *
 * O        14     -0.02052     -0.00251      0.01994 *
 * O        15      0.00619     -0.01101     -0.00235 *
 * O        16     -0.00503      0.00641     -0.00338 *
 * O        17     -0.00046      0.00180      0.01019 *
 * O        18     -0.00513     -0.00091     -0.01019 *
 * O        19     -0.01826      0.00674     -0.00378 *
 * O        20     -0.02962     -0.02166     -0.00558 *
 * O        21      0.00595     -0.00058     -0.01067 *
 * O        22      0.02123     -0.00402      0.01405 *
 * O        23      0.00365     -0.00165     -0.00825 *
 * O        24     -0.00187      0.01412      0.00042 *
 * O        25      0.00858     -0.00184      0.00181 *
 * O        26     -0.00953      0.00113      0.00732 *
 * O        27     -0.00634     -0.00048      0.00021 *
 * O        28     -0.00558      0.00022      0.00125 *
 * O        29      0.01459      0.02521      0.00152 *
 * O        30      0.00433      0.00274     -0.00466 *
 * O        31     -0.00220      0.00083      0.01075 *
 * O        32      0.00635      0.00867     -0.00171 *
 * O        33      0.00272      0.00179     -0.00587 *
 * O        34     -0.00893      0.00182     -0.00505 *
 * O        35      0.02173      0.00476     -0.01372 *
 * O        36     -0.00108     -0.00409      0.01104 *
 * O        37      0.02028     -0.01765      0.00285 *
 * O        38      0.02604      0.01745     -0.00104 *
 * O        39      0.00579     -0.00026     -0.00092 *
 * O        40      0.00386      0.00546      0.00138 *
 * O        41      0.00165     -0.00576     -0.01179 *
 * O        42      0.00351     -0.02396      0.01528 *
 * O        43     -0.01967     -0.02061      0.00143 *
 * O        44      0.00219      0.00324     -0.00654 *
 * O        45      0.00509      0.01019      0.02789 *
 * O        46     -0.00403     -0.02458      0.01912 *
 * O        47      0.00613     -0.00027     -0.00847 *
 * O        48      0.02594      0.02604     -0.00485 *
 * O        49      0.01984      0.00287     -0.02037 *
 * O        50     -0.01257     -0.00884     -0.02289 *
 * O        51      0.00107      0.02004     -0.02276 *
 * O        52     -0.00939     -0.01179     -0.02157 *
 * O        53     -0.00498     -0.00636      0.00666 *
 * O        54     -0.02687     -0.02382      0.00769 *
 * O        55     -0.01994     -0.00384      0.01527 *
 * O        56      0.00109      0.00389      0.00982 *
 * Zr        1     -0.00799      0.03123     -0.01408 *
 * Zr        2     -0.00728      0.01449      0.01240 *
 * Zr        3      0.02460     -0.00930      0.01456 *
 * Zr        4      0.01813      0.02891     -0.00495 *
[...]
 * La        2      0.00735     -0.02007     -0.00716 *
 * La        3     -0.00967     -0.00492     -0.00547 *
 * La        4     -0.00240      0.01223      0.01392 *
 * La        5      0.00350      0.00370     -0.00625 *
 * La        6      0.01465      0.00353      0.00567 *
 * La        7     -0.02017     -0.02837     -0.00902 *
 * La        8     -0.00229      0.00410     -0.00341 *
 * La        9      0.00463      0.00739     -0.00152 *
 * La       10      0.00107     -0.00295     -0.00142 *
 * La       11     -0.01162     -0.00249      0.00703 *
 * La       12     -0.00207     -0.00097     -0.00515 *
 * La       13      0.00166     -0.00488     -0.00257 *
 * La       14     -0.00484     -0.00106     -0.00276 *
 * La       15      0.00201      0.00193     -0.00999 *
 * La       16     -0.01409      0.00537      0.00803 *

 ***************** Stress Tensor *****************
 *          Cartesian components (GPa)           *
 *             x             y             z     *
 *  x      0.003346     -0.062645      0.010471  *
 *  y     -0.062645     -0.004685      0.061713  *
 *  z      0.010471      0.061713      0.012783  *
 *  Pressure:   -0.0038                          *

[...]

 Pseudo atomic calculation performed for Sn 4d10 5s2 5p2

[...]

 Pseudo atomic calculation performed for La 5s2 5p6 5d1 6s2

 Converged in 34 iterations to a total energy of -968.0372 eV

Charge spilling parameter for spin component 1 = 0.26%

     Atomic Populations (Mulliken)
Species   Ion     s      p      d      f     Total  Charge (e)
  O        1     1.87   5.00   0.00   0.00   6.87    -0.87
  O        2     1.87   5.00   0.00   0.00   6.87    -0.87
  O        3     1.87   5.00   0.00   0.00   6.87    -0.87
  O        4     1.87   5.00   0.00   0.00   6.87    -0.87
  O        5     1.87   5.00   0.00   0.00   6.87    -0.87
  O        6     1.87   5.00   0.00   0.00   6.87    -0.87
  O        7     1.87   5.00   0.00   0.00   6.87    -0.87
  O        8     1.87   5.00   0.00   0.00   6.87    -0.87
  O        9     1.88   5.03   0.00   0.00   6.91    -0.91
  O       10     1.88   5.03   0.00   0.00   6.91    -0.91
  O       11     1.87   4.99   0.00   0.00   6.86    -0.86
  O       12     1.88   5.03   0.00   0.00   6.91    -0.91
  O       13     1.88   5.03   0.00   0.00   6.91    -0.91
  O       14     1.87   4.99   0.00   0.00   6.86    -0.86
  O       15     1.88   5.03   0.00   0.00   6.91    -0.91
  O       16     1.89   5.03   0.00   0.00   6.91    -0.91
  O       17     1.88   5.03   0.00   0.00   6.91    -0.91
  O       18     1.88   5.03   0.00   0.00   6.91    -0.91
  O       19     1.87   4.99   0.00   0.00   6.86    -0.86
  O       20     1.87   4.99   0.00   0.00   6.86    -0.86
  O       21     1.88   5.03   0.00   0.00   6.91    -0.91
  O       22     1.87   4.99   0.00   0.00   6.86    -0.86
  O       23     1.88   5.03   0.00   0.00   6.91    -0.91
  O       24     1.88   5.03   0.00   0.00   6.91    -0.91
  O       25     1.88   5.03   0.00   0.00   6.91    -0.91
  O       26     1.88   5.03   0.00   0.00   6.91    -0.91
  O       27     1.88   5.03   0.00   0.00   6.91    -0.91
  O       28     1.86   4.95   0.00   0.00   6.80    -0.80
  O       29     1.87   4.99   0.00   0.00   6.86    -0.86
  O       30     1.88   5.03   0.00   0.00   6.91    -0.91
  O       31     1.88   5.03   0.00   0.00   6.91    -0.91
  O       32     1.88   5.03   0.00   0.00   6.91    -0.91
  O       33     1.88   5.03   0.00   0.00   6.91    -0.91
  O       34     1.88   5.03   0.00   0.00   6.91    -0.91
  O       35     1.87   4.99   0.00   0.00   6.86    -0.86
  O       36     1.89   5.03   0.00   0.00   6.91    -0.91
  O       37     1.87   4.99   0.00   0.00   6.86    -0.86
  O       38     1.87   4.99   0.00   0.00   6.86    -0.86
  O       39     1.88   5.03   0.00   0.00   6.91    -0.91
  O       40     1.88   5.03   0.00   0.00   6.91    -0.91
  O       41     1.88   5.03   0.00   0.00   6.91    -0.91
  O       42     1.87   4.99   0.00   0.00   6.86    -0.86
  O       43     1.87   4.99   0.00   0.00   6.86    -0.86
  O       44     1.88   5.03   0.00   0.00   6.91    -0.91
  O       45     1.87   4.99   0.00   0.00   6.86    -0.86
  O       46     1.87   4.99   0.00   0.00   6.86    -0.86
  O       47     1.88   5.03   0.00   0.00   6.91    -0.91
  O       48     1.87   4.99   0.00   0.00   6.86    -0.86
  O       49     1.87   4.99   0.00   0.00   6.86    -0.86
  O       50     1.87   4.99   0.00   0.00   6.86    -0.86
  O       51     1.87   4.99   0.00   0.00   6.86    -0.86
  O       52     1.87   4.99   0.00   0.00   6.86    -0.86
  O       53     1.88   5.03   0.00   0.00   6.91    -0.91
  O       54     1.87   4.99   0.00   0.00   6.86    -0.86
  O       55     1.87   4.99   0.00   0.00   6.86    -0.86
  O       56     1.86   4.95   0.00   0.00   6.80    -0.80
  Zr       1     2.36   6.48   1.92   0.00  10.77     1.23
  Zr       2     2.36   6.49   1.92   0.00  10.78     1.22
  Zr       3     2.36   6.48   1.92   0.00  10.77     1.23
  Zr       4     2.36   6.47   1.92   0.00  10.76     1.24
[...]
  La       2     2.08   6.18   1.20   0.00   9.46     1.54
  La       3     2.05   6.18   1.20   0.00   9.43     1.57
  La       4     2.05   6.18   1.19   0.00   9.43     1.57
  La       5     2.10   6.19   1.19   0.00   9.48     1.52
  La       6     2.06   6.18   1.20   0.00   9.43     1.57
  La       7     2.03   6.17   1.20   0.00   9.40     1.60
  La       8     2.08   6.19   1.19   0.00   9.47     1.53
  La       9     2.09   6.18   1.19   0.00   9.47     1.53
  La      10     2.09   6.19   1.19   0.00   9.48     1.52
  La      11     2.11   6.20   1.19   0.00   9.50     1.50
  La      12     2.08   6.19   1.19   0.00   9.47     1.53
  La      13     2.11   6.20   1.19   0.00   9.50     1.50
  La      14     2.05   6.18   1.19   0.00   9.43     1.57
  La      15     2.07   6.20   1.19   0.00   9.46     1.54
  La      16     2.03   6.17   1.20   0.00   9.40     1.60

            Bond              Population      Length (A)
         O 43 -- Sn 9              0.35        2.10175
         O 20 -- Sn 5              0.35        2.10175
         O 50 -- Sn 8              0.34        2.10217
         O 52 -- Sn 10             0.34        2.10294
         O 47 -- Sn 2              0.34        2.10461
         O 14 -- Sn 10             0.34        2.10465
         O 22 -- Sn 9              0.34        2.10471
         O 19 -- Sn 11             0.34        2.10472
         O 38 -- Sn 5              0.35        2.10477
         O 21 -- Sn 4              0.34        2.10483
         O 39 -- Sn 2              0.34        2.10527
         O 35 -- Sn 11             0.34        2.10538
         O 46 -- Sn 1              0.34        2.10592
         O 33 -- Sn 7              0.34        2.10611
         O 37 -- Sn 2              0.34        2.10639
         O 29 -- Sn 9              0.35        2.10655
         O 47 -- Sn 3              0.33        2.10677
         O 54 -- Sn 6              0.34        2.10693
         O 45 -- Sn 11             0.34        2.10718
         O 33 -- Sn 1              0.34        2.10727
         O 42 -- Sn 8              0.34        2.10752
         O 39 -- Sn 6              0.33        2.10763
         O 27 -- Sn 11             0.34        2.10779
         O 11 -- Sn 7              0.34        2.10793
         O 41 -- Sn 12             0.34        2.10796
         O 55 -- Sn 4              0.34        2.10828
         O 21 -- Sn 7              0.33        2.10831
         O 32 -- Sn 7              0.34        2.10872
         O 10 -- Sn 3              0.34        2.10895
         O 13 -- Sn 9              0.34        2.10901
         O 13 -- Sn 8              0.34        2.10908
         O 53 -- Sn 1              0.33        2.10947
         O 51 -- Sn 3              0.34        2.10961
         O 27 -- Sn 5              0.33        2.11026
         O 53 -- Sn 4              0.33        2.11093
         O 10 -- Sn 6              0.33        2.11098
         O 49 -- Sn 2              0.34        2.11100
         O 41 -- Sn 2              0.33        2.11100
         O 31 -- Sn 11             0.34        2.11107
         O 9  -- Sn 10             0.34        2.11181
         O 26 -- Sn 12             0.34        2.11190
         O 12 -- Sn 4              0.33        2.11228
         O 48 -- Sn 7              0.34        2.11230
         O 31 -- Sn 3              0.33        2.11231
         O 32 -- Sn 12             0.33        2.11252
         O 56 -- Zr 1              0.41        2.11260
         O 30 -- Sn 10             0.33        2.11273
         O 28 -- Zr 3              0.41        2.11292
         O 9  -- Sn 5              0.33        2.11294
         O 17 -- Sn 6              0.34        2.11316
         O 30 -- Sn 8              0.33        2.11318
         O 36 -- Sn 12             0.34        2.11334
         O 26 -- Sn 4              0.33        2.11349
         O 16 -- Sn 12             0.34        2.11351
         O 35 -- Zr 2              0.44        2.11377
         O 36 -- Sn 1              0.33        2.11384
         O 16 -- Sn 3              0.33        2.11401
         O 12 -- Sn 9              0.33        2.11453
         O 28 -- Zr 4              0.41        2.11518
         O 17 -- Sn 12             0.33        2.11545
[...]
         O 19 -- O 28             -0.03        2.82435
         O 54 -- O 56             -0.03        2.82564
         O 20 -- O 49             -0.03        2.82847
         O 14 -- O 29             -0.03        2.82940
         O 43 -- O 51             -0.03        2.82965
         O 38 -- O 55             -0.03        2.83129
         O 48 -- O 52             -0.03        2.83139
         O 38 -- O 42             -0.03        2.83140
         O 29 -- O 46             -0.03        2.83140
         O 51 -- O 55             -0.03        2.83171
         O 11 -- O 37             -0.03        2.83295
         O 46 -- O 49             -0.03        2.83387
         O 45 -- O 54             -0.03        2.83425
         O 48 -- O 50             -0.03        2.83587
         O 11 -- O 22             -0.03        2.83901

Writing analysis data to 07.castep_bin

Writing model to 07.check

 A BibTeX formatted list of references used in this run has been written to
 07.bib

Initialisation time =     54.47 s
Calculation time    =  34117.52 s
Finalisation time   =     43.39 s
Total time          =  34215.38 s

Overall parallel efficiency rating: Good (78%)

Data was distributed by:-
G-vector (4-way); efficiency rating: Good (79%)
k-point (14-way); efficiency rating: Excellent (98%)