 Compiled for linux_x86_64_ifort16 on Sat, 23 Jul 2016 23:44:54 +0100
 from code version
 203e84763863+ Castep161_branch Fri, 04 Mar 2016 19:21:07 +0000
 Compiler: Intel Fortran 16.0.3.210; Optimisation: fast
 MATHLIBS: Intel MKL(11.3.3) (LAPACK version 3.6.0)
 FFT Lib : mkl
 Fundamental constants values: CODATA 2010

 Run started: Sun, 25 Feb 2018 15:05:39 +0000
 |           N   N    M   M    RRRR                |
 |           NN  N    MM MM    R   R               |
 |           N N N    M M M    RRRR                |
 |           N  NN    M   M    R  R                |
 |           N   N    M   M    R   R               |
 | Welcome to Materials Studio CASTEP-NMR          |
 | Authors:                                        |
 | J.R. Yates, C.J. Pickard, F. Mauri              |
 | Contributors:                                   |
 | T.F.G. Green, S.A. Joyce                        |
 | Copyright (c) 2004 - 2015                       |
 | Please cite the appropriate publications in all |
 | work arising from your use of CASTEP NMR.       |
 | For NMR Shielding Tensors cite:                 |
 |    "All-electron magnetic response with         |
 |    pseudopotentials: NMR chemical shifts",      |
 |    C. J. Pickard, F. Mauri;                     |
 |    Physical Review B63 245101 (2001), and       |
 |    "Calculation of NMR Chemical Shifts          |
 |    for extended systems using                   |
 |    Ultrasoft Pseudopotentials",                 |
 |    J. R. Yates, C. J. Pickard and F. Mauri      |
 |    Physical Review B76 024401 (2007)            |
 | For Electric Field Gradients cite:              |
 |   "Accurate First Principles Prediction of 17O  |
 |    NMR Parameters in SiO2: Assignment of the    |
 |    Zeolite Ferrierite Spectrum"                 |
 |    M. Profeta, F. Mauri and C. J. Pickard       |
 |    J. Amer. Chem. Soc. 125 541 (2003)           |
 | For Spin-Spin (J) Couplings cite:               |
 |   "A first principles theory of NMR J-coupling  |
 |   in solid-state systems"                       |
 |   S.A. Joyce, J.R. Yates, C.J. Pickard, F. Mauri|
 |   J. Chem. Phys. 127 204107 (2007)              |
 |   "Relativistic NMR J-coupling with ultrasoft   |
 |   pseudopotentials and the zeroth-order regular |
 |   approximation"                                |
 |   T.F.G. Green and J.R. Yates                   |
 |   J. Chem. Phys. 140 234106 (2014)              |

 Atomic calculation performed for O: 1s2 2s2 2p4

 Converged in 44 iterations to an ae energy of -2040.855 eV

 Atomic calculation performed for O: 1s2 2s2 2p4

 Exceeded max iterations: converged to 0.000000062 eV

   | Pseudopotential Report - Date of generation 25-02-2018   |
   | Element: O Ionic charge:  6.00 Level of theory: PBE      |
   | Atomic Solver: ZORA (scalar)                             |
   |               Reference Electronic Structure             |
   |         Orbital         Occupation         Energy        |
   |            2s              2.000           -0.881        |
   |            2p              4.000           -0.332        |
   |                 Pseudopotential Definition               |
   |        Beta     l      e      Rc     scheme   norm       |
   |          1      0   -0.881   1.100     qc      0         |
   |          2      0    0.250   1.100     qc      0         |
   |          3      1   -0.332   1.100     qc      0         |
   |          4      1    0.250   1.100     qc      0         |
   |         loc     2    0.000   1.100     pn      0         |
   | Augmentation charge Rinner = 0.769                       |
   | Partial core correction Rc = 0.769                       |
   | "2|1.1|15|18|20|20:21(qc=7)"                             |
   |      Author: Chris J. Pickard, Cambridge University      |

 Atomic calculation performed for Zr: 1s2 2s2 2p6 3s2 3p6 3d10 4s2 4p6 4d2 5s2

[...]

 Atomic calculation performed for Zr: 1s2 2s2 2p6 3s2 3p6 3d10 4s2 4p6 4d2 5s2

[...]

 Warning: ion_atom_descreen_psp: negative charge density encountered
   | Pseudopotential Report - Date of generation 25-02-2018   |
   | Element: Zr Ionic charge: 12.00 Level of theory: PBE     |
   | Atomic Solver: ZORA (scalar)                             |
   |               Reference Electronic Structure             |
   |         Orbital         Occupation         Energy        |
   |            4s              2.000           -2.003        |
   |            4p              6.000           -1.193        |
   |            5s              2.000           -0.163        |
   |            4d              2.000           -0.132        |
   |                 Pseudopotential Definition               |
   |        Beta     l      e      Rc     scheme   norm       |
   |          1      0   -2.003   2.105     qc      0         |
   |          2      0   -0.163   2.105     qc      0         |
   |          3      0    0.250   2.105     qc      0         |
   |          4      1   -1.193   2.105     qc      0         |
   |          5      1    0.250   2.105     qc      0         |
   |          6      2   -0.132   2.105     qc      0         |
   |          7      2    0.250   2.105     qc      0         |
   |         loc     3    0.000   2.105     pn      0         |
   | Augmentation charge Rinner = 1.471                       |
   | Partial core correction Rc = 1.471                       |
   | "3|2.1|7|8|9|40U:50:41:42"                               |
   |      Author: Chris J. Pickard, Cambridge University      |

 Atomic calculation performed for Sn:

[...]

 Atomic calculation performed for Sn:

[...]

   | Pseudopotential Report - Date of generation 25-02-2018   |
   | Element: Sn Ionic charge: 14.00 Level of theory: PBE     |
   | Atomic Solver: ZORA (scalar)                             |
   |               Reference Electronic Structure             |
   |         Orbital         Occupation         Energy        |
   |            4d             10.000           -0.950        |
   |            5s              2.000           -0.388        |
   |            5p              2.000           -0.136        |
   |                 Pseudopotential Definition               |
   |        Beta     l      e      Rc     scheme   norm       |
   |          1      0   -0.388   2.199     qc      0         |
   |          2      0    0.250   2.199     qc      0         |
   |          3      1   -0.136   2.199     qc      0         |
   |          4      1    0.250   2.199     qc      0         |
   |          5      2   -0.950   2.199     qc      0         |
   |          6      2    0.250   2.199     qc      0         |
   |         loc     3    0.000   2.199     pn      0         |
   | Augmentation charge Rinner = 1.537                       |
   | Partial core correction Rc = 1.537                       |
   | "3|2.2|7|8|9|50:51:42"                                   |
   |      Author: Chris J. Pickard, Cambridge University      |

 Atomic calculation performed for La:

 Converged in 56 iterations to an ae energy of -230121.495 eV

 Atomic calculation performed for La:

 Exceeded max iterations: converged to 0.000000907 eV

 Warning: ion_atom_descreen_psp: negative charge density encountered
   | Pseudopotential Report - Date of generation 25-02-2018   |
   | Element: La Ionic charge: 11.00 Level of theory: PBE     |
   | Atomic Solver: ZORA (scalar)                             |
   |               Reference Electronic Structure             |
   |         Orbital         Occupation         Energy        |
   |            5s              2.000           -1.430        |
   |            5p              6.000           -0.823        |
   |            6s              2.000           -0.135        |
   |            5d              1.000           -0.114        |
   |                 Pseudopotential Definition               |
   |        Beta     l      e      Rc     scheme   norm       |
   |          1      0   -1.430   2.298     qc      0         |
   |          2      0   -0.135   2.298     qc      0         |
   |          3      0    0.250   2.298     qc      0         |
   |          4      1   -0.823   2.298     qc      0         |
   |          5      1    0.250   2.298     qc      0         |
   |          6      2   -0.114   2.298     qc      0         |
   |          7      2    0.250   2.298     qc      0         |
   |         loc     2    0.000   2.298     pn      0         |
   | Augmentation charge Rinner = 1.606                       |
   | Partial core correction Rc = 1.606                       |
   | "2|2.3|5|6|7|50U:60:51:52(qc=4.5)"                       |
   |      Author: Chris J. Pickard, Cambridge University      |

 Pseudo atomic calculation performed for O 2s2 2p4

 Converged in 39 iterations to a total energy of -432.6554 eV

 Pseudo atomic calculation performed for Zr 4s2 4p6 4d2 5s2

[...]

 Calculation parallelised over 56 processes.
 Data is distributed by G-vector(4-way) and k-point(14-way)

 ************************************ Title ************************************
 nmr testing

 ***************************** General Parameters ******************************

 output verbosity                               : normal  (1)
 write checkpoint data to                       : 08.check
 type of calculation                            : Magnetic Resonance
 stress calculation                             : on
 density difference calculation                 : off
 electron localisation func (ELF) calculation   : off
 Hirshfeld analysis                             : off
 unlimited duration calculation
 timing information                             : on
 write final potential to formatted file        : off
 write final density to formatted file          : off
 write structure in CIF formatted file          : on
 write structure in CELL formatted file         : on
 write BibTeX reference list                    : on
 write OTFG pseudopotential files               : on
 checkpoint writing                             : both castep_bin and check files

 output         length unit                     : A
 output           mass unit                     : amu
 output           time unit                     : ps
 output         charge unit                     : e
 output           spin unit                     : hbar/2
 output         energy unit                     : eV
 output          force unit                     : eV/A
 output       velocity unit                     : A/ps
 output       pressure unit                     : GPa
 output     inv_length unit                     : 1/A
 output      frequency unit                     : cm-1
 output force constant unit                     : eV/A**2
 output         volume unit                     : A**3
 output   IR intensity unit                     : (D/A)**2/amu
 output         dipole unit                     : D
 output         efield unit                     : eV/A/e
 output        entropy unit                     : J/mol/K

 wavefunctions paging                           : none
 random number generator seed                   : randomised (150541206)
 data distribution                              : optimal for this architecture
[...]
  |    O          41      -88.80      86.57      0.18  -3.166E+00   0.06 |
  |    O          42      -88.86      86.61      0.18  -3.166E+00   0.06 |
  |    O          43      -87.94      85.52      0.10  -3.204E+00   0.04 |
  |    O          44       -7.84      61.35      0.59   3.885E+00   0.91 |
  |    O          45      -88.80      86.57      0.18  -3.166E+00   0.06 |
  |    O          46      -88.86      86.61      0.18  -3.166E+00   0.06 |
  |    O          47       -7.85      61.34      0.59   3.885E+00   0.91 |
  |    O          48      -87.89      85.43      0.10  -3.204E+00   0.04 |
  |    O          49      -88.86      86.60      0.18  -3.166E+00   0.06 |
  |    O          50      -88.80      86.58      0.18  -3.166E+00   0.06 |
  |    O          51      -88.86      86.61      0.18  -3.166E+00   0.06 |
  |    O          52      -88.81      86.57      0.18  -3.166E+00   0.06 |
  |    O          53       -7.84      61.33      0.59   3.885E+00   0.91 |
  |    O          54      -87.89      85.43      0.10  -3.204E+00   0.04 |
  |    O          55      -88.86      86.61      0.18  -3.166E+00   0.06 |
  |    O          56      -88.81      86.57      0.18  -3.166E+00   0.06 |
  |    Zr          1     1598.80    -108.29      0.09  -3.342E+01   0.08 |
  |    Zr          2     1598.63    -108.31      0.08  -3.344E+01   0.07 |
  |    Zr          3     1598.63    -108.31      0.08  -3.344E+01   0.07 |
  |    Zr          4     1598.80    -108.29      0.09  -3.342E+01   0.08 |
[...]
  |    La          2     4599.68     552.41      0.05  -8.066E+01   0.14 |
  |    La          3     4606.16     516.26      0.06  -8.189E+01   0.07 |
  |    La          4     4606.16     516.25      0.06  -8.189E+01   0.07 |
  |    La          5     4599.68     552.41      0.05  -8.066E+01   0.14 |
  |    La          6     4606.16     516.26      0.06  -8.189E+01   0.07 |
  |    La          7     4606.16     516.25      0.06  -8.189E+01   0.07 |
  |    La          8     4493.49     232.71      0.04  -7.000E+01   0.00 |
  |    La          9     4493.49     232.90      0.04  -7.006E+01   0.00 |
  |    La         10     4606.16     516.26      0.06  -8.189E+01   0.07 |
  |    La         11     4493.48     232.90      0.04  -7.006E+01   0.00 |
  |    La         12     4606.16     516.26      0.06  -8.189E+01   0.07 |
  |    La         13     4493.49     232.71      0.04  -7.000E+01   0.00 |
  |    La         14     4606.16     516.25      0.06  -8.189E+01   0.07 |
  |    La         15     4606.16     516.25      0.06  -8.189E+01   0.07 |
  |    La         16     4599.70     552.37      0.05  -8.060E+01   0.14 |

 *********************** Forces ***********************
 *            Cartesian components (eV/A)             *
 *                   x            y            z      *
 * O         1     -0.00126     -0.00127     -0.00045 *
 * O         2      0.00070      0.00070     -0.00037 *
 * O         3      0.00070      0.00070     -0.00037 *
 * O         4     -0.00127     -0.00126     -0.00045 *
 * O         5     -0.00070     -0.00070      0.00037 *
 * O         6      0.00127      0.00127      0.00045 *
 * O         7      0.00126      0.00126      0.00045 *
 * O         8     -0.00070     -0.00070      0.00037 *
 * O         9      0.00557      0.00554      0.00662 *
 * O        10     -0.00571     -0.00552      0.00695 *
 * O        11     -0.00570     -0.00552      0.00695 *
 * O        12      0.00557      0.00554      0.00662 *
 * O        13      0.00554      0.00557      0.00662 *
 * O        14     -0.01960     -0.00170      0.02418 *
 * O        15     -0.00552     -0.00571      0.00695 *
 * O        16      0.01978      0.00173      0.02426 *
 * O        17      0.02420      0.02420     -0.00481 *
 * O        18      0.00094      0.00094      0.00095 *
 * O        19     -0.00071     -0.00071      0.00077 *
 * O        20     -0.02428     -0.02428     -0.00500 *
 * O        21      0.00552      0.00571     -0.00695 *
 * O        22     -0.00554     -0.00557     -0.00662 *
 * O        23     -0.00554     -0.00557     -0.00662 *
 * O        24      0.00552      0.00571     -0.00695 *
 * O        25      0.00571      0.00552     -0.00695 *
 * O        26     -0.00173     -0.01978     -0.02426 *
 * O        27     -0.00557     -0.00554     -0.00662 *
 * O        28      0.00170      0.01960     -0.02418 *
 * O        29      0.02428      0.02428      0.00500 *
 * O        30      0.00071      0.00071     -0.00077 *
 * O        31     -0.00094     -0.00094     -0.00095 *
 * O        32     -0.02420     -0.02420      0.00481 *
 * O        33      0.00570      0.00552     -0.00695 *
 * O        34     -0.00557     -0.00554     -0.00662 *
 * O        35      0.01960      0.00170     -0.02418 *
 * O        36     -0.01978     -0.00173     -0.02426 *
 * O        37     -0.00094     -0.00094     -0.00095 *
 * O        38      0.02428      0.02428      0.00500 *
 * O        39     -0.00552     -0.00571      0.00695 *
 * O        40      0.00554      0.00557      0.00662 *
 * O        41      0.00173      0.01978      0.02426 *
 * O        42     -0.00170     -0.01960      0.02418 *
 * O        43     -0.02428     -0.02428     -0.00500 *
 * O        44      0.00094      0.00094      0.00095 *
 * O        45      0.00173      0.01978      0.02426 *
 * O        46     -0.00170     -0.01960      0.02418 *
 * O        47     -0.00071     -0.00071      0.00077 *
 * O        48      0.02420      0.02421     -0.00481 *
 * O        49      0.01960      0.00170     -0.02418 *
 * O        50     -0.01978     -0.00173     -0.02426 *
 * O        51      0.00170      0.01960     -0.02418 *
 * O        52     -0.00173     -0.01978     -0.02426 *
 * O        53      0.00071      0.00071     -0.00077 *
 * O        54     -0.02420     -0.02420      0.00481 *
 * O        55     -0.01960     -0.00170      0.02418 *
 * O        56      0.01978      0.00173      0.02426 *
 * Zr        1      0.00000      0.00000      0.00000 *
 * Zr        2     -0.00000     -0.00001     -0.00000 *
 * Zr        3      0.00000      0.00000     -0.00000 *
 * Zr        4     -0.00001     -0.00000      0.00000 *
[...]
 * La        2      0.00000      0.00000      0.00000 *
 * La        3     -0.00493     -0.00485     -0.00008 *
 * La        4      0.00486      0.00492      0.00008 *
 * La        5     -0.00000     -0.00000      0.00000 *
 * La        6      0.00493      0.00485      0.00008 *
 * La        7     -0.00485     -0.00492     -0.00008 *
 * La        8     -0.00000      0.00000      0.00000 *
 * La        9      0.00000     -0.00000     -0.00000 *
 * La       10      0.00493      0.00485      0.00008 *
 * La       11     -0.00000      0.00000     -0.00000 *
 * La       12     -0.00492     -0.00485     -0.00008 *
 * La       13      0.00000     -0.00000      0.00000 *
 * La       14     -0.00486     -0.00493     -0.00008 *
 * La       15      0.00485      0.00493      0.00008 *
 * La       16      0.00001      0.00000     -0.00000 *

 ***************** Stress Tensor *****************
 *          Cartesian components (GPa)           *
 *             x             y             z     *
 *  x     -0.000291      0.003593     -0.000010  *
 *  y      0.003593     -0.000291     -0.000010  *
 *  z     -0.000010     -0.000010      0.000739  *
 *  Pressure:   -0.0001                          *

[...]

 Pseudo atomic calculation performed for Sn 4d10 5s2 5p2

[...]

 Pseudo atomic calculation performed for La 5s2 5p6 5d1 6s2

 Converged in 34 iterations to a total energy of -968.0372 eV

Charge spilling parameter for spin component 1 = 0.26%

     Atomic Populations (Mulliken)
Species   Ion     s      p      d      f     Total  Charge (e)
  O        1     1.87   5.00   0.00   0.00   6.87    -0.87
  O        2     1.87   5.00   0.00   0.00   6.87    -0.87
  O        3     1.87   5.00   0.00   0.00   6.87    -0.87
  O        4     1.87   5.00   0.00   0.00   6.87    -0.87
  O        5     1.87   5.00   0.00   0.00   6.87    -0.87
  O        6     1.87   5.00   0.00   0.00   6.87    -0.87
  O        7     1.87   5.00   0.00   0.00   6.87    -0.87
  O        8     1.87   5.00   0.00   0.00   6.87    -0.87
  O        9     1.88   5.03   0.00   0.00   6.91    -0.91
  O       10     1.88   5.03   0.00   0.00   6.91    -0.91
  O       11     1.88   5.03   0.00   0.00   6.91    -0.91
  O       12     1.88   5.03   0.00   0.00   6.91    -0.91
  O       13     1.88   5.03   0.00   0.00   6.91    -0.91
  O       14     1.87   4.99   0.00   0.00   6.86    -0.86
  O       15     1.88   5.03   0.00   0.00   6.91    -0.91
  O       16     1.87   4.99   0.00   0.00   6.86    -0.86
  O       17     1.87   4.99   0.00   0.00   6.86    -0.86
  O       18     1.88   5.03   0.00   0.00   6.91    -0.91
  O       19     1.88   5.03   0.00   0.00   6.91    -0.91
  O       20     1.87   4.99   0.00   0.00   6.86    -0.86
  O       21     1.88   5.03   0.00   0.00   6.91    -0.91
  O       22     1.88   5.03   0.00   0.00   6.91    -0.91
  O       23     1.88   5.03   0.00   0.00   6.91    -0.91
  O       24     1.88   5.03   0.00   0.00   6.91    -0.91
  O       25     1.88   5.03   0.00   0.00   6.91    -0.91
  O       26     1.87   4.99   0.00   0.00   6.86    -0.86
  O       27     1.88   5.03   0.00   0.00   6.91    -0.91
  O       28     1.87   4.99   0.00   0.00   6.86    -0.86
  O       29     1.87   4.99   0.00   0.00   6.86    -0.86
  O       30     1.88   5.03   0.00   0.00   6.91    -0.91
  O       31     1.88   5.03   0.00   0.00   6.91    -0.91
  O       32     1.87   4.99   0.00   0.00   6.86    -0.86
  O       33     1.88   5.03   0.00   0.00   6.91    -0.91
  O       34     1.88   5.03   0.00   0.00   6.91    -0.91
  O       35     1.87   4.99   0.00   0.00   6.86    -0.86
  O       36     1.87   4.99   0.00   0.00   6.86    -0.86
  O       37     1.88   5.03   0.00   0.00   6.91    -0.91
  O       38     1.87   4.99   0.00   0.00   6.86    -0.86
  O       39     1.88   5.03   0.00   0.00   6.91    -0.91
  O       40     1.88   5.03   0.00   0.00   6.91    -0.91
  O       41     1.87   4.99   0.00   0.00   6.86    -0.86
  O       42     1.87   4.99   0.00   0.00   6.86    -0.86
  O       43     1.87   4.99   0.00   0.00   6.86    -0.86
  O       44     1.88   5.03   0.00   0.00   6.91    -0.91
  O       45     1.87   4.99   0.00   0.00   6.86    -0.86
  O       46     1.87   4.99   0.00   0.00   6.86    -0.86
  O       47     1.88   5.03   0.00   0.00   6.91    -0.91
  O       48     1.87   4.99   0.00   0.00   6.86    -0.86
  O       49     1.87   4.99   0.00   0.00   6.86    -0.86
  O       50     1.87   4.99   0.00   0.00   6.86    -0.86
  O       51     1.87   4.99   0.00   0.00   6.86    -0.86
  O       52     1.87   4.99   0.00   0.00   6.86    -0.86
  O       53     1.88   5.03   0.00   0.00   6.91    -0.91
  O       54     1.87   4.99   0.00   0.00   6.86    -0.86
  O       55     1.87   4.99   0.00   0.00   6.86    -0.86
  O       56     1.87   4.99   0.00   0.00   6.86    -0.86
  Zr       1     2.36   6.49   1.92   0.00  10.78     1.22
  Zr       2     2.36   6.49   1.92   0.00  10.78     1.22
  Zr       3     2.36   6.49   1.92   0.00  10.78     1.22
  Zr       4     2.36   6.49   1.92   0.00  10.78     1.22
[...]
  La       2     2.08   6.18   1.20   0.00   9.45     1.55
  La       3     2.04   6.19   1.19   0.00   9.43     1.57
  La       4     2.04   6.19   1.19   0.00   9.43     1.57
  La       5     2.08   6.18   1.20   0.00   9.45     1.55
  La       6     2.04   6.19   1.19   0.00   9.43     1.57
  La       7     2.04   6.19   1.19   0.00   9.43     1.57
  La       8     2.11   6.20   1.19   0.00   9.50     1.50
  La       9     2.11   6.20   1.19   0.00   9.50     1.50
  La      10     2.04   6.19   1.19   0.00   9.43     1.57
  La      11     2.11   6.20   1.19   0.00   9.50     1.50
  La      12     2.04   6.19   1.19   0.00   9.43     1.57
  La      13     2.11   6.20   1.19   0.00   9.50     1.50
  La      14     2.04   6.19   1.19   0.00   9.43     1.57
  La      15     2.04   6.19   1.19   0.00   9.43     1.57
  La      16     2.08   6.18   1.20   0.00   9.45     1.55

            Bond              Population      Length (A)
         O 48 -- Sn 8              0.35        2.10686
         O 54 -- Sn 6              0.35        2.10686
         O 32 -- Sn 8              0.35        2.10686
         O 17 -- Sn 6              0.35        2.10686
         O 43 -- Sn 10             0.35        2.10689
         O 38 -- Sn 5              0.35        2.10689
         O 20 -- Sn 5              0.35        2.10689
         O 29 -- Sn 10             0.35        2.10689
         O 50 -- Sn 9              0.34        2.10719
         O 26 -- Sn 4              0.34        2.10719
         O 41 -- Sn 2              0.34        2.10719
         O 56 -- Sn 7              0.34        2.10719
         O 52 -- Sn 11             0.34        2.10719
         O 16 -- Sn 3              0.34        2.10719
         O 45 -- Sn 12             0.34        2.10719
         O 36 -- Sn 1              0.34        2.10719
         O 28 -- Sn 7              0.34        2.10721
         O 35 -- Sn 12             0.34        2.10721
         O 14 -- Sn 11             0.34        2.10721
         O 42 -- Sn 9              0.34        2.10721
         O 46 -- Sn 1              0.34        2.10721
         O 55 -- Sn 4              0.34        2.10721
         O 49 -- Sn 2              0.34        2.10721
         O 51 -- Sn 3              0.34        2.10721
         O 18 -- Sn 4              0.33        2.11089
         O 31 -- Sn 3              0.33        2.11089
         O 44 -- Sn 1              0.33        2.11089
         O 37 -- Sn 2              0.33        2.11089
         O 44 -- Sn 11             0.33        2.11089
         O 18 -- Sn 9              0.33        2.11089
         O 31 -- Sn 12             0.33        2.11089
         O 37 -- Sn 7              0.33        2.11089
         O 30 -- Sn 11             0.33        2.11090
         O 30 -- Sn 9              0.33        2.11090
         O 53 -- Sn 1              0.33        2.11090
         O 53 -- Sn 4              0.33        2.11090
         O 19 -- Sn 7              0.33        2.11090
         O 47 -- Sn 2              0.33        2.11090
         O 19 -- Sn 12             0.33        2.11090
         O 47 -- Sn 3              0.33        2.11090
         O 34 -- Sn 2              0.34        2.11271
         O 23 -- Sn 3              0.34        2.11271
         O 40 -- Sn 1              0.34        2.11271
         O 12 -- Sn 4              0.34        2.11271
         O 13 -- Sn 9              0.34        2.11271
         O 22 -- Sn 7              0.34        2.11271
         O 9  -- Sn 11             0.34        2.11271
         O 27 -- Sn 12             0.34        2.11271
         O 24 -- Sn 11             0.34        2.11279
         O 15 -- Sn 12             0.34        2.11279
         O 11 -- Sn 7              0.34        2.11279
         O 25 -- Sn 9              0.34        2.11279
         O 33 -- Sn 1              0.34        2.11279
         O 39 -- Sn 2              0.34        2.11279
         O 21 -- Sn 4              0.34        2.11279
         O 10 -- Sn 3              0.34        2.11279
         O 23 -- Sn 5              0.33        2.11323
         O 34 -- Sn 10             0.33        2.11323
         O 22 -- Sn 10             0.33        2.11323
         O 27 -- Sn 5              0.33        2.11323
[...]
         O 38 -- O 55             -0.03        2.83282
         O 43 -- O 51             -0.03        2.83282
         O 29 -- O 46             -0.03        2.83282
         O 14 -- O 29             -0.03        2.83282
         O 38 -- O 42             -0.03        2.83282
         O 20 -- O 28             -0.03        2.83282
         O 35 -- O 43             -0.03        2.83282
         O 54 -- O 56             -0.03        2.83282
         O 45 -- O 54             -0.03        2.83282
         O 17 -- O 36             -0.03        2.83282
         O 48 -- O 52             -0.03        2.83282
         O 48 -- O 50             -0.03        2.83282
         O 16 -- O 32             -0.03        2.83282
         O 17 -- O 26             -0.03        2.83282
         O 32 -- O 41             -0.03        2.83282

Writing analysis data to 08.castep_bin

Writing model to 08.check

 A BibTeX formatted list of references used in this run has been written to
 08.bib

Initialisation time =     54.16 s
Calculation time    =  33861.31 s
Finalisation time   =     38.95 s
Total time          =  33954.42 s

Overall parallel efficiency rating: Good (77%)

Data was distributed by:-
G-vector (4-way); efficiency rating: Good (78%)
k-point (14-way); efficiency rating: Excellent (99%)