 Compiled for linux_x86_64_ifort16 on Sat, 23 Jul 2016 23:44:54 +0100
 from code version
 203e84763863+ Castep161_branch Fri, 04 Mar 2016 19:21:07 +0000
 Compiler: Intel Fortran 16.0.3.210; Optimisation: fast
 MATHLIBS: Intel MKL(11.3.3) (LAPACK version 3.6.0)
 FFT Lib : mkl
 Fundamental constants values: CODATA 2010

 Run started: Mon, 26 Feb 2018 19:42:20 +0000
 |           N   N    M   M    RRRR                |
 |           NN  N    MM MM    R   R               |
 |           N N N    M M M    RRRR                |
 |           N  NN    M   M    R  R                |
 |           N   N    M   M    R   R               |
 | Welcome to Materials Studio CASTEP-NMR          |
 | Authors:                                        |
 | J.R. Yates, C.J. Pickard, F. Mauri              |
 | Contributors:                                   |
 | T.F.G. Green, S.A. Joyce                        |
 | Copyright (c) 2004 - 2015                       |
 | Please cite the appropriate publications in all |
 | work arising from your use of CASTEP NMR.       |
 | For NMR Shielding Tensors cite:                 |
 |    "All-electron magnetic response with         |
 |    pseudopotentials: NMR chemical shifts",      |
 |    C. J. Pickard, F. Mauri;                     |
 |    Physical Review B63 245101 (2001), and       |
 |    "Calculation of NMR Chemical Shifts          |
 |    for extended systems using                   |
 |    Ultrasoft Pseudopotentials",                 |
 |    J. R. Yates, C. J. Pickard and F. Mauri      |
 |    Physical Review B76 024401 (2007)            |
 | For Electric Field Gradients cite:              |
 |   "Accurate First Principles Prediction of 17O  |
 |    NMR Parameters in SiO2: Assignment of the    |
 |    Zeolite Ferrierite Spectrum"                 |
 |    M. Profeta, F. Mauri and C. J. Pickard       |
 |    J. Amer. Chem. Soc. 125 541 (2003)           |
 | For Spin-Spin (J) Couplings cite:               |
 |   "A first principles theory of NMR J-coupling  |
 |   in solid-state systems"                       |
 |   S.A. Joyce, J.R. Yates, C.J. Pickard, F. Mauri|
 |   J. Chem. Phys. 127 204107 (2007)              |
 |   "Relativistic NMR J-coupling with ultrasoft   |
 |   pseudopotentials and the zeroth-order regular |
 |   approximation"                                |
 |   T.F.G. Green and J.R. Yates                   |
 |   J. Chem. Phys. 140 234106 (2014)              |

 Atomic calculation performed for O: 1s2 2s2 2p4

 Converged in 44 iterations to an ae energy of -2040.855 eV

 Atomic calculation performed for O: 1s2 2s2 2p4

 Exceeded max iterations: converged to 0.000000062 eV

   | Pseudopotential Report - Date of generation 26-02-2018   |
   | Element: O Ionic charge:  6.00 Level of theory: PBE      |
   | Atomic Solver: ZORA (scalar)                             |
   |               Reference Electronic Structure             |
   |         Orbital         Occupation         Energy        |
   |            2s              2.000           -0.881        |
   |            2p              4.000           -0.332        |
   |                 Pseudopotential Definition               |
   |        Beta     l      e      Rc     scheme   norm       |
   |          1      0   -0.881   1.100     qc      0         |
   |          2      0    0.250   1.100     qc      0         |
   |          3      1   -0.332   1.100     qc      0         |
   |          4      1    0.250   1.100     qc      0         |
   |         loc     2    0.000   1.100     pn      0         |
   | Augmentation charge Rinner = 0.769                       |
   | Partial core correction Rc = 0.769                       |
   | "2|1.1|15|18|20|20:21(qc=7)"                             |
   |      Author: Chris J. Pickard, Cambridge University      |

 Atomic calculation performed for Zr: 1s2 2s2 2p6 3s2 3p6 3d10 4s2 4p6 4d2 5s2

[...]

 Atomic calculation performed for Zr: 1s2 2s2 2p6 3s2 3p6 3d10 4s2 4p6 4d2 5s2

[...]

 Warning: ion_atom_descreen_psp: negative charge density encountered
   | Pseudopotential Report - Date of generation 26-02-2018   |
   | Element: Zr Ionic charge: 12.00 Level of theory: PBE     |
   | Atomic Solver: ZORA (scalar)                             |
   |               Reference Electronic Structure             |
   |         Orbital         Occupation         Energy        |
   |            4s              2.000           -2.003        |
   |            4p              6.000           -1.193        |
   |            5s              2.000           -0.163        |
   |            4d              2.000           -0.132        |
   |                 Pseudopotential Definition               |
   |        Beta     l      e      Rc     scheme   norm       |
   |          1      0   -2.003   2.105     qc      0         |
   |          2      0   -0.163   2.105     qc      0         |
   |          3      0    0.250   2.105     qc      0         |
   |          4      1   -1.193   2.105     qc      0         |
   |          5      1    0.250   2.105     qc      0         |
   |          6      2   -0.132   2.105     qc      0         |
   |          7      2    0.250   2.105     qc      0         |
   |         loc     3    0.000   2.105     pn      0         |
   | Augmentation charge Rinner = 1.471                       |
   | Partial core correction Rc = 1.471                       |
   | "3|2.1|7|8|9|40U:50:41:42"                               |
   |      Author: Chris J. Pickard, Cambridge University      |

 Atomic calculation performed for Sn:

[...]

 Atomic calculation performed for Sn:

[...]

   | Pseudopotential Report - Date of generation 26-02-2018   |
   | Element: Sn Ionic charge: 14.00 Level of theory: PBE     |
   | Atomic Solver: ZORA (scalar)                             |
   |               Reference Electronic Structure             |
   |         Orbital         Occupation         Energy        |
   |            4d             10.000           -0.950        |
   |            5s              2.000           -0.388        |
   |            5p              2.000           -0.136        |
   |                 Pseudopotential Definition               |
   |        Beta     l      e      Rc     scheme   norm       |
   |          1      0   -0.388   2.199     qc      0         |
   |          2      0    0.250   2.199     qc      0         |
   |          3      1   -0.136   2.199     qc      0         |
   |          4      1    0.250   2.199     qc      0         |
   |          5      2   -0.950   2.199     qc      0         |
   |          6      2    0.250   2.199     qc      0         |
   |         loc     3    0.000   2.199     pn      0         |
   | Augmentation charge Rinner = 1.537                       |
   | Partial core correction Rc = 1.537                       |
   | "3|2.2|7|8|9|50:51:42"                                   |
   |      Author: Chris J. Pickard, Cambridge University      |

 Atomic calculation performed for La:

 Converged in 56 iterations to an ae energy of -230121.495 eV

 Atomic calculation performed for La:

 Exceeded max iterations: converged to 0.000000907 eV

 Warning: ion_atom_descreen_psp: negative charge density encountered
   | Pseudopotential Report - Date of generation 26-02-2018   |
   | Element: La Ionic charge: 11.00 Level of theory: PBE     |
   | Atomic Solver: ZORA (scalar)                             |
   |               Reference Electronic Structure             |
   |         Orbital         Occupation         Energy        |
   |            5s              2.000           -1.430        |
   |            5p              6.000           -0.823        |
   |            6s              2.000           -0.135        |
   |            5d              1.000           -0.114        |
   |                 Pseudopotential Definition               |
   |        Beta     l      e      Rc     scheme   norm       |
   |          1      0   -1.430   2.298     qc      0         |
   |          2      0   -0.135   2.298     qc      0         |
   |          3      0    0.250   2.298     qc      0         |
   |          4      1   -0.823   2.298     qc      0         |
   |          5      1    0.250   2.298     qc      0         |
   |          6      2   -0.114   2.298     qc      0         |
   |          7      2    0.250   2.298     qc      0         |
   |         loc     2    0.000   2.298     pn      0         |
   | Augmentation charge Rinner = 1.606                       |
   | Partial core correction Rc = 1.606                       |
   | "2|2.3|5|6|7|50U:60:51:52(qc=4.5)"                       |
   |      Author: Chris J. Pickard, Cambridge University      |

 Pseudo atomic calculation performed for O 2s2 2p4

 Converged in 39 iterations to a total energy of -432.6554 eV

 Pseudo atomic calculation performed for Zr 4s2 4p6 4d2 5s2

[...]

 Calculation parallelised over 56 processes.
 Data is distributed by G-vector(4-way) and k-point(14-way)

 ************************************ Title ************************************
 nmr testing

 ***************************** General Parameters ******************************

 output verbosity                               : normal  (1)
 write checkpoint data to                       : 11.check
 type of calculation                            : Magnetic Resonance
 stress calculation                             : on
 density difference calculation                 : off
 electron localisation func (ELF) calculation   : off
 Hirshfeld analysis                             : off
 unlimited duration calculation
 timing information                             : on
 write final potential to formatted file        : off
 write final density to formatted file          : off
 write structure in CIF formatted file          : on
 write structure in CELL formatted file         : on
 write BibTeX reference list                    : on
 write OTFG pseudopotential files               : on
 checkpoint writing                             : both castep_bin and check files

 output         length unit                     : A
 output           mass unit                     : amu
 output           time unit                     : ps
 output         charge unit                     : e
 output           spin unit                     : hbar/2
 output         energy unit                     : eV
 output          force unit                     : eV/A
 output       velocity unit                     : A/ps
 output       pressure unit                     : GPa
 output     inv_length unit                     : 1/A
 output      frequency unit                     : cm-1
 output force constant unit                     : eV/A**2
 output         volume unit                     : A**3
 output   IR intensity unit                     : (D/A)**2/amu
 output         dipole unit                     : D
 output         efield unit                     : eV/A/e
 output        entropy unit                     : J/mol/K

 wavefunctions paging                           : none
 random number generator seed                   : randomised (194221805)
 data distribution                              : optimal for this architecture
[...]
  |    O          41       -7.29      56.85      0.96   3.829E+00   0.94 |
  |    O          42      -88.52      86.11      0.19  -3.159E+00   0.07 |
  |    O          43      -88.73      87.52      0.05  -3.216E+00   0.07 |
  |    O          44      -17.87     -42.53      0.63   3.829E+00   0.93 |
  |    O          45      -88.63      96.41      0.30  -3.157E+00   0.07 |
  |    O          46      -16.33     -45.99      0.46   3.793E+00   0.96 |
  |    O          47      -84.60      86.94      0.12  -3.250E+00   0.05 |
  |    O          48      -84.73      86.22      0.13  -3.164E+00   0.04 |
  |    O          49       -7.38      56.78      0.96   3.829E+00   0.94 |
  |    O          50      -88.15      84.02      0.19  -3.165E+00   0.07 |
  |    O          51     -161.18     142.61      0.87   1.029E+00   0.60 |
  |    O          52      -85.48      85.69      0.13  -3.239E+00   0.06 |
  |    O          53      -17.87     -42.46      0.63   3.830E+00   0.93 |
  |    O          54      -88.62      85.77      0.05  -3.218E+00   0.08 |
  |    O          55      -85.34      85.16      0.13  -3.241E+00   0.06 |
  |    O          56     -161.17     142.73      0.87   1.030E+00   0.60 |
  |    Zr          1     1613.51    -114.40      0.11  -3.447E+01   0.07 |
  |    Zr          2     1613.28    -114.50      0.12  -3.450E+01   0.06 |
  |    Zr          3     1614.18    -113.08      0.10  -3.453E+01   0.09 |
  |    Zr          4     1614.14    -113.13      0.10  -3.454E+01   0.11 |
[...]
  |    La          2     4604.70     509.85      0.07  -8.120E+01   0.06 |
  |    La          3     4593.75     533.30      0.07  -7.923E+01   0.05 |
  |    La          4     4608.59     524.94      0.05  -8.219E+01   0.10 |
  |    La          5     4601.14     529.76      0.06  -8.073E+01   0.07 |
  |    La          6     4549.76     387.08      0.05  -7.644E+01   0.11 |
  |    La          7     4653.28     659.73      0.07  -8.555E+01   0.13 |
  |    La          8     4551.83     385.14      0.05  -7.611E+01   0.09 |
  |    La          9     4553.45     391.29      0.05  -7.632E+01   0.08 |
  |    La         10     4549.69     386.15      0.05  -7.641E+01   0.10 |
  |    La         11     4551.66     384.31      0.05  -7.615E+01   0.09 |
  |    La         12     4492.37     235.26      0.03  -7.080E+01   0.01 |
  |    La         13     4553.39     390.77      0.05  -7.624E+01   0.08 |
  |    La         14     4653.50     662.36      0.07  -8.568E+01   0.13 |
  |    La         15     4512.77     218.17      0.01  -7.280E+01   0.01 |
  |    La         16     4601.19     529.98      0.06  -8.070E+01   0.07 |

 *********************** Forces ***********************
 *            Cartesian components (eV/A)             *
 *                   x            y            z      *
 * O         1     -0.00250     -0.00048     -0.00108 *
 * O         2     -0.00138      0.00660     -0.00104 *
 * O         3      0.00366      0.00194      0.00492 *
 * O         4      0.00034     -0.00074     -0.00471 *
 * O         5     -0.00131     -0.00008      0.00194 *
 * O         6      0.00719     -0.00258     -0.00005 *
 * O         7      0.00065      0.00806     -0.00310 *
 * O         8     -0.00055      0.00104      0.00594 *
 * O         9      0.00279      0.01799      0.01662 *
 * O        10     -0.00046      0.02769     -0.01767 *
 * O        11      0.00782      0.02989     -0.01218 *
 * O        12      0.00550      0.00195      0.00169 *
 * O        13     -0.00290      0.00974     -0.00639 *
 * O        14     -0.00453     -0.00179     -0.00162 *
 * O        15      0.00224     -0.00575     -0.00429 *
 * O        16     -0.02741     -0.00549     -0.03357 *
 * O        17     -0.00029     -0.00225      0.01072 *
 * O        18     -0.01030      0.00892     -0.00078 *
 * O        19     -0.02201      0.01080      0.00248 *
 * O        20      0.00754      0.00921     -0.00164 *
 * O        21      0.01567      0.00316     -0.01521 *
 * O        22      0.03569      0.00320      0.02040 *
 * O        23      0.02736      0.00531      0.01064 *
 * O        24      0.00306      0.00611     -0.00454 *
 * O        25      0.00611     -0.00271      0.00565 *
 * O        26     -0.00314     -0.00386      0.00386 *
 * O        27     -0.00543      0.00118      0.00263 *
 * O        28     -0.00020     -0.02199      0.03096 *
 * O        29     -0.00186      0.00260     -0.01082 *
 * O        30      0.00794     -0.00832      0.00034 *
 * O        31      0.01233     -0.02820     -0.00433 *
 * O        32      0.01006      0.00682      0.00240 *
 * O        33      0.00162      0.00996     -0.00791 *
 * O        34     -0.00213      0.00644     -0.00403 *
 * O        35      0.00887     -0.00019     -0.01710 *
 * O        36     -0.00363     -0.00484      0.00659 *
 * O        37      0.02995     -0.02591      0.00359 *
 * O        38      0.01728      0.01026      0.00071 *
 * O        39      0.00133      0.00122      0.00535 *
 * O        40      0.01125      0.00183      0.00799 *
 * O        41      0.00682     -0.00226     -0.00357 *
 * O        42     -0.00269     -0.01728      0.01047 *
 * O        43     -0.02116     -0.02600     -0.00213 *
 * O        44     -0.00096     -0.00048     -0.00037 *
 * O        45      0.00143      0.01165      0.01747 *
 * O        46     -0.00516     -0.00247     -0.00617 *
 * O        47     -0.02607      0.02611     -0.00480 *
 * O        48      0.01805      0.02186     -0.00209 *
 * O        49     -0.00266      0.00839      0.00234 *
 * O        50     -0.01290     -0.00212     -0.01025 *
 * O        51     -0.00490     -0.01225     -0.00476 *
 * O        52     -0.00044     -0.02039     -0.02146 *
 * O        53     -0.00183     -0.00144      0.00121 *
 * O        54     -0.02066     -0.01510      0.00012 *
 * O        55     -0.02013     -0.00465      0.01962 *
 * O        56      0.00043     -0.00193      0.00796 *
 * Zr        1      0.02122      0.02188     -0.01755 *
 * Zr        2      0.01487      0.01754      0.02418 *
 * Zr        3      0.01107      0.00823      0.01582 *
 * Zr        4     -0.00475      0.01721     -0.00710 *
[...]
 * La        2      0.00539     -0.00688     -0.00749 *
 * La        3     -0.00427     -0.01085     -0.00524 *
 * La        4     -0.00415      0.00021     -0.00044 *
 * La        5      0.00588     -0.00475     -0.01272 *
 * La        6      0.00239      0.00096      0.00751 *
 * La        7     -0.00454     -0.02385      0.00675 *
 * La        8     -0.00273     -0.00595     -0.01257 *
 * La        9     -0.00794      0.01013     -0.00241 *
 * La       10      0.00223      0.00144     -0.01157 *
 * La       11     -0.00417     -0.00888      0.00747 *
 * La       12     -0.00938     -0.00656      0.00078 *
 * La       13      0.00581     -0.00203      0.00341 *
 * La       14     -0.02301      0.00228     -0.00811 *
 * La       15      0.00879      0.00762      0.00020 *
 * La       16      0.00207      0.00125      0.00743 *

 ***************** Stress Tensor *****************
 *          Cartesian components (GPa)           *
 *             x             y             z     *
 *  x     -0.001993      0.000825      0.006075  *
 *  y      0.000825      0.001640     -0.005985  *
 *  z      0.006075     -0.005985     -0.002465  *
 *  Pressure:    0.0009                          *

[...]

 Pseudo atomic calculation performed for Sn 4d10 5s2 5p2

[...]

 Pseudo atomic calculation performed for La 5s2 5p6 5d1 6s2

 Converged in 34 iterations to a total energy of -968.0372 eV

Charge spilling parameter for spin component 1 = 0.26%

     Atomic Populations (Mulliken)
Species   Ion     s      p      d      f     Total  Charge (e)
  O        1     1.87   5.00   0.00   0.00   6.87    -0.87
  O        2     1.87   5.00   0.00   0.00   6.87    -0.87
  O        3     1.87   5.00   0.00   0.00   6.87    -0.87
  O        4     1.87   5.00   0.00   0.00   6.87    -0.87
  O        5     1.87   5.00   0.00   0.00   6.87    -0.87
  O        6     1.87   5.00   0.00   0.00   6.87    -0.87
  O        7     1.87   5.00   0.00   0.00   6.87    -0.87
  O        8     1.87   5.00   0.00   0.00   6.87    -0.87
  O        9     1.88   5.03   0.00   0.00   6.91    -0.91
  O       10     1.87   4.99   0.00   0.00   6.86    -0.86
  O       11     1.87   4.99   0.00   0.00   6.86    -0.86
  O       12     1.88   5.03   0.00   0.00   6.91    -0.91
  O       13     1.88   5.03   0.00   0.00   6.91    -0.91
  O       14     1.88   5.03   0.00   0.00   6.91    -0.91
  O       15     1.88   5.03   0.00   0.00   6.91    -0.91
  O       16     1.87   4.99   0.00   0.00   6.86    -0.86
  O       17     1.88   5.03   0.00   0.00   6.91    -0.91
  O       18     1.88   5.03   0.00   0.00   6.91    -0.91
  O       19     1.87   4.99   0.00   0.00   6.86    -0.86
  O       20     1.88   5.03   0.00   0.00   6.91    -0.91
  O       21     1.88   5.03   0.00   0.00   6.91    -0.91
  O       22     1.87   4.99   0.00   0.00   6.86    -0.86
  O       23     1.87   4.99   0.00   0.00   6.86    -0.86
  O       24     1.88   5.03   0.00   0.00   6.91    -0.91
  O       25     1.88   5.03   0.00   0.00   6.91    -0.91
  O       26     1.88   5.03   0.00   0.00   6.91    -0.91
  O       27     1.88   5.03   0.00   0.00   6.91    -0.91
  O       28     1.87   4.99   0.00   0.00   6.86    -0.86
  O       29     1.88   5.03   0.00   0.00   6.91    -0.91
  O       30     1.88   5.03   0.00   0.00   6.91    -0.91
  O       31     1.87   4.99   0.00   0.00   6.86    -0.86
  O       32     1.88   5.03   0.00   0.00   6.91    -0.91
  O       33     1.88   5.03   0.00   0.00   6.91    -0.91
  O       34     1.88   5.03   0.00   0.00   6.91    -0.91
  O       35     1.87   4.99   0.00   0.00   6.86    -0.86
  O       36     1.89   5.03   0.00   0.00   6.91    -0.91
  O       37     1.87   4.99   0.00   0.00   6.86    -0.86
  O       38     1.87   4.99   0.00   0.00   6.86    -0.86
  O       39     1.88   5.03   0.00   0.00   6.91    -0.91
  O       40     1.88   5.03   0.00   0.00   6.91    -0.91
  O       41     1.88   5.03   0.00   0.00   6.91    -0.91
  O       42     1.87   4.99   0.00   0.00   6.86    -0.86
  O       43     1.87   4.99   0.00   0.00   6.86    -0.86
  O       44     1.89   5.03   0.00   0.00   6.91    -0.91
  O       45     1.87   4.99   0.00   0.00   6.86    -0.86
  O       46     1.89   5.03   0.00   0.00   6.91    -0.91
  O       47     1.87   4.99   0.00   0.00   6.86    -0.86
  O       48     1.87   4.99   0.00   0.00   6.86    -0.86
  O       49     1.88   5.03   0.00   0.00   6.91    -0.91
  O       50     1.87   4.99   0.00   0.00   6.86    -0.86
  O       51     1.86   4.95   0.00   0.00   6.81    -0.81
  O       52     1.87   4.99   0.00   0.00   6.86    -0.86
  O       53     1.89   5.03   0.00   0.00   6.91    -0.91
  O       54     1.87   4.99   0.00   0.00   6.86    -0.86
  O       55     1.87   4.99   0.00   0.00   6.86    -0.86
  O       56     1.86   4.95   0.00   0.00   6.81    -0.81
  Zr       1     2.36   6.48   1.92   0.00  10.77     1.23
  Zr       2     2.36   6.48   1.92   0.00  10.77     1.23
  Zr       3     2.36   6.48   1.92   0.00  10.77     1.23
  Zr       4     2.36   6.48   1.92   0.00  10.77     1.23
[...]
  La       2     2.07   6.18   1.19   0.00   9.45     1.55
  La       3     2.06   6.17   1.20   0.00   9.43     1.57
  La       4     2.05   6.18   1.19   0.00   9.43     1.57
  La       5     2.05   6.18   1.20   0.00   9.43     1.57
  La       6     2.10   6.19   1.19   0.00   9.48     1.52
  La       7     2.03   6.17   1.20   0.00   9.40     1.60
  La       8     2.08   6.19   1.19   0.00   9.47     1.53
  La       9     2.08   6.19   1.19   0.00   9.46     1.54
  La      10     2.10   6.19   1.19   0.00   9.48     1.52
  La      11     2.08   6.19   1.19   0.00   9.47     1.53
  La      12     2.11   6.20   1.19   0.00   9.50     1.50
  La      13     2.08   6.19   1.19   0.00   9.46     1.54
  La      14     2.03   6.17   1.20   0.00   9.40     1.60
  La      15     2.10   6.21   1.19   0.00   9.50     1.50
  La      16     2.05   6.18   1.20   0.00   9.43     1.57

            Bond              Population      Length (A)
         O 47 -- Sn 2              0.35        2.10137
         O 37 -- Sn 2              0.35        2.10150
         O 19 -- Sn 11             0.35        2.10263
         O 31 -- Sn 11             0.34        2.10265
         O 55 -- Sn 4              0.35        2.10317
         O 52 -- Sn 10             0.34        2.10323
         O 50 -- Sn 8              0.34        2.10348
         O 42 -- Sn 8              0.34        2.10359
         O 54 -- Sn 6              0.34        2.10377
         O 43 -- Sn 9              0.34        2.10380
         O 9  -- Sn 10             0.34        2.10387
         O 21 -- Sn 4              0.34        2.10399
         O 10 -- Sn 6              0.34        2.10413
         O 22 -- Sn 9              0.34        2.10414
         O 32 -- Sn 7              0.34        2.10456
         O 20 -- Sn 5              0.34        2.10467
         O 45 -- Sn 11             0.34        2.10578
         O 35 -- Sn 11             0.34        2.10582
         O 21 -- Sn 7              0.33        2.10625
         O 9  -- Sn 5              0.33        2.10626
         O 16 -- Sn 12             0.34        2.10774
         O 28 -- Sn 3              0.34        2.10776
         O 20 -- Sn 3              0.33        2.10785
         O 32 -- Sn 12             0.33        2.10796
         O 26 -- Sn 12             0.33        2.10891
         O 14 -- Sn 3              0.33        2.10892
         O 33 -- Sn 7              0.34        2.10926
         O 40 -- Sn 5              0.34        2.10930
         O 48 -- Sn 7              0.34        2.11048
         O 38 -- Sn 5              0.34        2.11053
         O 26 -- Sn 4              0.33        2.11064
         O 14 -- Sn 10             0.33        2.11071
         O 40 -- Sn 1              0.34        2.11128
         O 33 -- Sn 1              0.34        2.11142
         O 44 -- Sn 1              0.34        2.11228
         O 53 -- Sn 1              0.34        2.11228
         O 34 -- Sn 9              0.33        2.11268
         O 39 -- Sn 6              0.33        2.11273
         O 23 -- Sn 5              0.34        2.11273
         O 11 -- Sn 7              0.34        2.11283
         O 13 -- Sn 8              0.34        2.11324
         O 25 -- Sn 8              0.34        2.11326
         O 36 -- Sn 12             0.34        2.11359
         O 46 -- Sn 3              0.34        2.11369
         O 34 -- Sn 2              0.33        2.11372
         O 39 -- Sn 2              0.33        2.11374
         O 35 -- Zr 2              0.45        2.11375
         O 13 -- Sn 9              0.34        2.11405
         O 36 -- Sn 1              0.33        2.11417
         O 25 -- Sn 6              0.34        2.11423
         O 46 -- Sn 1              0.33        2.11427
         O 22 -- Zr 4              0.43        2.11439
         O 27 -- Sn 11             0.33        2.11456
         O 15 -- Sn 11             0.33        2.11462
         O 45 -- Zr 1              0.44        2.11476
         O 49 -- Sn 3              0.33        2.11505
         O 41 -- Sn 12             0.33        2.11505
         O 53 -- Sn 4              0.33        2.11516
         O 44 -- Sn 10             0.33        2.11517
         O 12 -- Sn 9              0.33        2.11543
[...]
         O 35 -- O 42             -0.03        2.82427
         O 51 -- O 55             -0.03        2.82535
         O 52 -- O 56             -0.03        2.82543
         O 54 -- O 56             -0.03        2.82550
         O 43 -- O 51             -0.03        2.82552
         O 23 -- O 47             -0.03        2.82842
         O 11 -- O 37             -0.03        2.82861
         O 16 -- O 31             -0.03        2.83050
         O 19 -- O 28             -0.03        2.83057
         O 38 -- O 55             -0.03        2.83182
         O 48 -- O 52             -0.03        2.83202
         O 48 -- O 50             -0.03        2.83640
         O 38 -- O 42             -0.03        2.83647
         O 10 -- O 23             -0.03        2.83648
         O 11 -- O 22             -0.03        2.83654

Writing analysis data to 11.castep_bin

Writing model to 11.check

 A BibTeX formatted list of references used in this run has been written to
 11.bib

Initialisation time =     54.07 s
Calculation time    =  34262.61 s
Finalisation time   =     53.55 s
Total time          =  34370.23 s

Overall parallel efficiency rating: Good (76%)

Data was distributed by:-
G-vector (4-way); efficiency rating: Good (77%)
k-point (14-way); efficiency rating: Excellent (99%)