 Compiled for linux_x86_64_ifort16 on Sat, 23 Jul 2016 23:44:54 +0100
 from code version
 203e84763863+ Castep161_branch Fri, 04 Mar 2016 19:21:07 +0000
 Compiler: Intel Fortran 16.0.3.210; Optimisation: fast
 MATHLIBS: Intel MKL(11.3.3) (LAPACK version 3.6.0)
 FFT Lib : mkl
 Fundamental constants values: CODATA 2010

 Run started: Tue, 27 Feb 2018 05:15:27 +0000
 |           N   N    M   M    RRRR                |
 |           NN  N    MM MM    R   R               |
 |           N N N    M M M    RRRR                |
 |           N  NN    M   M    R  R                |
 |           N   N    M   M    R   R               |
 | Welcome to Materials Studio CASTEP-NMR          |
 | Authors:                                        |
 | J.R. Yates, C.J. Pickard, F. Mauri              |
 | Contributors:                                   |
 | T.F.G. Green, S.A. Joyce                        |
 | Copyright (c) 2004 - 2015                       |
 | Please cite the appropriate publications in all |
 | work arising from your use of CASTEP NMR.       |
 | For NMR Shielding Tensors cite:                 |
 |    "All-electron magnetic response with         |
 |    pseudopotentials: NMR chemical shifts",      |
 |    C. J. Pickard, F. Mauri;                     |
 |    Physical Review B63 245101 (2001), and       |
 |    "Calculation of NMR Chemical Shifts          |
 |    for extended systems using                   |
 |    Ultrasoft Pseudopotentials",                 |
 |    J. R. Yates, C. J. Pickard and F. Mauri      |
 |    Physical Review B76 024401 (2007)            |
 | For Electric Field Gradients cite:              |
 |   "Accurate First Principles Prediction of 17O  |
 |    NMR Parameters in SiO2: Assignment of the    |
 |    Zeolite Ferrierite Spectrum"                 |
 |    M. Profeta, F. Mauri and C. J. Pickard       |
 |    J. Amer. Chem. Soc. 125 541 (2003)           |
 | For Spin-Spin (J) Couplings cite:               |
 |   "A first principles theory of NMR J-coupling  |
 |   in solid-state systems"                       |
 |   S.A. Joyce, J.R. Yates, C.J. Pickard, F. Mauri|
 |   J. Chem. Phys. 127 204107 (2007)              |
 |   "Relativistic NMR J-coupling with ultrasoft   |
 |   pseudopotentials and the zeroth-order regular |
 |   approximation"                                |
 |   T.F.G. Green and J.R. Yates                   |
 |   J. Chem. Phys. 140 234106 (2014)              |

 Atomic calculation performed for O: 1s2 2s2 2p4

 Converged in 44 iterations to an ae energy of -2040.855 eV

 Atomic calculation performed for O: 1s2 2s2 2p4

 Exceeded max iterations: converged to 0.000000062 eV

   | Pseudopotential Report - Date of generation 27-02-2018   |
   | Element: O Ionic charge:  6.00 Level of theory: PBE      |
   | Atomic Solver: ZORA (scalar)                             |
   |               Reference Electronic Structure             |
   |         Orbital         Occupation         Energy        |
   |            2s              2.000           -0.881        |
   |            2p              4.000           -0.332        |
   |                 Pseudopotential Definition               |
   |        Beta     l      e      Rc     scheme   norm       |
   |          1      0   -0.881   1.100     qc      0         |
   |          2      0    0.250   1.100     qc      0         |
   |          3      1   -0.332   1.100     qc      0         |
   |          4      1    0.250   1.100     qc      0         |
   |         loc     2    0.000   1.100     pn      0         |
   | Augmentation charge Rinner = 0.769                       |
   | Partial core correction Rc = 0.769                       |
   | "2|1.1|15|18|20|20:21(qc=7)"                             |
   |      Author: Chris J. Pickard, Cambridge University      |

 Atomic calculation performed for Zr: 1s2 2s2 2p6 3s2 3p6 3d10 4s2 4p6 4d2 5s2

[...]

 Atomic calculation performed for Zr: 1s2 2s2 2p6 3s2 3p6 3d10 4s2 4p6 4d2 5s2

[...]

 Warning: ion_atom_descreen_psp: negative charge density encountered
   | Pseudopotential Report - Date of generation 27-02-2018   |
   | Element: Zr Ionic charge: 12.00 Level of theory: PBE     |
   | Atomic Solver: ZORA (scalar)                             |
   |               Reference Electronic Structure             |
   |         Orbital         Occupation         Energy        |
   |            4s              2.000           -2.003        |
   |            4p              6.000           -1.193        |
   |            5s              2.000           -0.163        |
   |            4d              2.000           -0.132        |
   |                 Pseudopotential Definition               |
   |        Beta     l      e      Rc     scheme   norm       |
   |          1      0   -2.003   2.105     qc      0         |
   |          2      0   -0.163   2.105     qc      0         |
   |          3      0    0.250   2.105     qc      0         |
   |          4      1   -1.193   2.105     qc      0         |
   |          5      1    0.250   2.105     qc      0         |
   |          6      2   -0.132   2.105     qc      0         |
   |          7      2    0.250   2.105     qc      0         |
   |         loc     3    0.000   2.105     pn      0         |
   | Augmentation charge Rinner = 1.471                       |
   | Partial core correction Rc = 1.471                       |
   | "3|2.1|7|8|9|40U:50:41:42"                               |
   |      Author: Chris J. Pickard, Cambridge University      |

 Atomic calculation performed for Sn:

[...]

 Atomic calculation performed for Sn:

[...]

   | Pseudopotential Report - Date of generation 27-02-2018   |
   | Element: Sn Ionic charge: 14.00 Level of theory: PBE     |
   | Atomic Solver: ZORA (scalar)                             |
   |               Reference Electronic Structure             |
   |         Orbital         Occupation         Energy        |
   |            4d             10.000           -0.950        |
   |            5s              2.000           -0.388        |
   |            5p              2.000           -0.136        |
   |                 Pseudopotential Definition               |
   |        Beta     l      e      Rc     scheme   norm       |
   |          1      0   -0.388   2.199     qc      0         |
   |          2      0    0.250   2.199     qc      0         |
   |          3      1   -0.136   2.199     qc      0         |
   |          4      1    0.250   2.199     qc      0         |
   |          5      2   -0.950   2.199     qc      0         |
   |          6      2    0.250   2.199     qc      0         |
   |         loc     3    0.000   2.199     pn      0         |
   | Augmentation charge Rinner = 1.537                       |
   | Partial core correction Rc = 1.537                       |
   | "3|2.2|7|8|9|50:51:42"                                   |
   |      Author: Chris J. Pickard, Cambridge University      |

 Atomic calculation performed for La:

 Converged in 56 iterations to an ae energy of -230121.495 eV

 Atomic calculation performed for La:

 Exceeded max iterations: converged to 0.000000907 eV

 Warning: ion_atom_descreen_psp: negative charge density encountered
   | Pseudopotential Report - Date of generation 27-02-2018   |
   | Element: La Ionic charge: 11.00 Level of theory: PBE     |
   | Atomic Solver: ZORA (scalar)                             |
   |               Reference Electronic Structure             |
   |         Orbital         Occupation         Energy        |
   |            5s              2.000           -1.430        |
   |            5p              6.000           -0.823        |
   |            6s              2.000           -0.135        |
   |            5d              1.000           -0.114        |
   |                 Pseudopotential Definition               |
   |        Beta     l      e      Rc     scheme   norm       |
   |          1      0   -1.430   2.298     qc      0         |
   |          2      0   -0.135   2.298     qc      0         |
   |          3      0    0.250   2.298     qc      0         |
   |          4      1   -0.823   2.298     qc      0         |
   |          5      1    0.250   2.298     qc      0         |
   |          6      2   -0.114   2.298     qc      0         |
   |          7      2    0.250   2.298     qc      0         |
   |         loc     2    0.000   2.298     pn      0         |
   | Augmentation charge Rinner = 1.606                       |
   | Partial core correction Rc = 1.606                       |
   | "2|2.3|5|6|7|50U:60:51:52(qc=4.5)"                       |
   |      Author: Chris J. Pickard, Cambridge University      |

 Pseudo atomic calculation performed for O 2s2 2p4

 Converged in 39 iterations to a total energy of -432.6554 eV

 Pseudo atomic calculation performed for Zr 4s2 4p6 4d2 5s2

[...]

 Calculation parallelised over 56 processes.
 Data is distributed by G-vector(4-way) and k-point(14-way)

 ************************************ Title ************************************
 nmr testing

 ***************************** General Parameters ******************************

 output verbosity                               : normal  (1)
 write checkpoint data to                       : 12.check
 type of calculation                            : Magnetic Resonance
 stress calculation                             : on
 density difference calculation                 : off
 electron localisation func (ELF) calculation   : off
 Hirshfeld analysis                             : off
 unlimited duration calculation
 timing information                             : on
 write final potential to formatted file        : off
 write final density to formatted file          : off
 write structure in CIF formatted file          : on
 write structure in CELL formatted file         : on
 write BibTeX reference list                    : on
 write OTFG pseudopotential files               : on
 checkpoint writing                             : both castep_bin and check files

 output         length unit                     : A
 output           mass unit                     : amu
 output           time unit                     : ps
 output         charge unit                     : e
 output           spin unit                     : hbar/2
 output         energy unit                     : eV
 output          force unit                     : eV/A
 output       velocity unit                     : A/ps
 output       pressure unit                     : GPa
 output     inv_length unit                     : 1/A
 output      frequency unit                     : cm-1
 output force constant unit                     : eV/A**2
 output         volume unit                     : A**3
 output   IR intensity unit                     : (D/A)**2/amu
 output         dipole unit                     : D
 output         efield unit                     : eV/A/e
 output        entropy unit                     : J/mol/K

 wavefunctions paging                           : none
 random number generator seed                   : randomised (51530958)
 data distribution                              : optimal for this architecture
[...]
  |    O          41       -8.18     -58.85      0.83   3.769E+00   0.98 |
  |    O          42      -90.31      95.94      0.29  -3.157E+00   0.07 |
  |    O          43      -87.34      87.51      0.18  -3.225E+00   0.06 |
  |    O          44      -87.21      86.71      0.18  -3.227E+00   0.06 |
  |    O          45      -89.99      94.11      0.29  -3.162E+00   0.08 |
  |    O          46       -8.23     -58.84      0.83   3.769E+00   0.97 |
  |    O          47      -87.07      85.32      0.18  -3.231E+00   0.06 |
  |    O          48      -87.14      85.80      0.18  -3.229E+00   0.06 |
  |    O          49      -14.58     -42.95      0.60   3.850E+00   0.93 |
  |    O          50      -86.91      86.30      0.24  -3.163E+00   0.07 |
  |    O          51     -160.32     145.88      0.85   1.058E+00   0.57 |
  |    O          52     -160.28     146.01      0.85   1.059E+00   0.57 |
  |    O          53      -14.58     -42.95      0.60   3.850E+00   0.93 |
  |    O          54      -86.91      86.30      0.24  -3.163E+00   0.07 |
  |    O          55      -87.06      85.32      0.18  -3.231E+00   0.06 |
  |    O          56      -87.14      85.79      0.18  -3.229E+00   0.06 |
  |    Zr          1     1613.26    -113.12      0.03  -3.451E+01   0.14 |
  |    Zr          2     1613.02    -113.15      0.03  -3.453E+01   0.13 |
  |    Zr          3     1613.02    -113.16      0.03  -3.453E+01   0.13 |
  |    Zr          4     1612.95    -113.19      0.04  -3.454E+01   0.15 |
[...]
  |    La          2     4604.65     508.53      0.06  -8.113E+01   0.07 |
  |    La          3     4600.84     530.04      0.05  -8.073E+01   0.08 |
  |    La          4     4600.78     529.30      0.05  -8.068E+01   0.08 |
  |    La          5     4600.84     530.04      0.05  -8.073E+01   0.08 |
  |    La          6     4604.65     508.52      0.06  -8.113E+01   0.07 |
  |    La          7     4600.78     529.30      0.05  -8.068E+01   0.08 |
  |    La          8     4502.48     227.64      0.01  -7.187E+01   0.00 |
  |    La          9     4502.46     227.95      0.01  -7.195E+01   0.00 |
  |    La         10     4600.83     529.73      0.05  -8.072E+01   0.08 |
  |    La         11     4600.83     529.74      0.05  -8.072E+01   0.08 |
  |    La         12     4502.46     227.95      0.01  -7.195E+01   0.00 |
  |    La         13     4600.87     530.24      0.05  -8.069E+01   0.08 |
  |    La         14     4604.78     509.45      0.06  -8.116E+01   0.07 |
  |    La         15     4502.43     228.08      0.01  -7.197E+01   0.00 |
  |    La         16     4600.87     530.24      0.05  -8.069E+01   0.08 |

 *********************** Forces ***********************
 *            Cartesian components (eV/A)             *
 *                   x            y            z      *
 * O         1      0.00474      0.00095      0.00095 *
 * O         2     -0.00503      0.00050     -0.00037 *
 * O         3      0.00398      0.00183      0.00183 *
 * O         4     -0.00503     -0.00037      0.00050 *
 * O         5     -0.00568      0.00100      0.00100 *
 * O         6      0.00634      0.00035      0.00035 *
 * O         7      0.00025      0.00253      0.00159 *
 * O         8      0.00025      0.00159      0.00253 *
 * O         9      0.00612     -0.01768     -0.01768 *
 * O        10     -0.00716      0.01605     -0.01786 *
 * O        11     -0.00724      0.00481      0.00481 *
 * O        12      0.00819     -0.00391      0.00298 *
 * O        13     -0.00459      0.00164     -0.00753 *
 * O        14      0.01793      0.00115     -0.03034 *
 * O        15      0.00428      0.00235     -0.00646 *
 * O        16     -0.02010     -0.00335     -0.03283 *
 * O        17     -0.00459     -0.00753      0.00164 *
 * O        18     -0.00343      0.00781      0.00177 *
 * O        19      0.00428     -0.00646      0.00235 *
 * O        20      0.00408      0.00836      0.00212 *
 * O        21      0.00180      0.00336     -0.00600 *
 * O        22      0.00014     -0.00116     -0.00511 *
 * O        23      0.01567      0.00257      0.01752 *
 * O        24     -0.01532     -0.00241      0.01754 *
 * O        25      0.00832      0.00064      0.00064 *
 * O        26      0.00306      0.00223      0.00313 *
 * O        27     -0.00797     -0.00082     -0.00082 *
 * O        28     -0.00286      0.00060      0.00156 *
 * O        29      0.00134      0.00717     -0.00146 *
 * O        30     -0.01532      0.01754     -0.00241 *
 * O        31      0.01732     -0.01997     -0.00443 *
 * O        32      0.00014     -0.00511     -0.00116 *
 * O        33     -0.00286      0.00156      0.00060 *
 * O        34      0.00306      0.00313      0.00223 *
 * O        35      0.01732     -0.00443     -0.01997 *
 * O        36      0.00134     -0.00146      0.00717 *
 * O        37      0.00180     -0.00600      0.00337 *
 * O        38      0.01567      0.01752      0.00257 *
 * O        39     -0.00343      0.00178      0.00781 *
 * O        40      0.00408      0.00211      0.00836 *
 * O        41      0.00819      0.00298     -0.00391 *
 * O        42     -0.00716     -0.01786      0.01605 *
 * O        43     -0.02010     -0.03283     -0.00334 *
 * O        44      0.01793     -0.03034      0.00115 *
 * O        45      0.00748      0.01547      0.01547 *
 * O        46     -0.00860     -0.00215     -0.00215 *
 * O        47     -0.01675      0.02839     -0.00062 *
 * O        48      0.01822      0.02953     -0.00146 *
 * O        49     -0.00261      0.00363      0.00718 *
 * O        50     -0.01887      0.00407     -0.02088 *
 * O        51      0.00318     -0.00303     -0.00303 *
 * O        52     -0.00319     -0.00603     -0.00603 *
 * O        53     -0.00261      0.00718      0.00363 *
 * O        54     -0.01887     -0.02089      0.00407 *
 * O        55     -0.01675     -0.00062      0.02838 *
 * O        56      0.01822     -0.00146      0.02953 *
 * Zr        1     -0.00655     -0.00789     -0.00789 *
 * Zr        2      0.00950      0.01399     -0.00259 *
 * Zr        3      0.00950     -0.00259      0.01398 *
 * Zr        4     -0.00800      0.00474      0.00474 *
[...]
 * La        2      0.01328      0.00450     -0.00080 *
 * La        3     -0.00077      0.00085     -0.00926 *
 * La        4      0.00265     -0.00043     -0.00495 *
 * La        5     -0.00077     -0.00926      0.00085 *
 * La        6      0.01328     -0.00080      0.00450 *
 * La        7      0.00265     -0.00495     -0.00043 *
 * La        8     -0.00118     -0.00771     -0.00771 *
 * La        9      0.00049      0.00939     -0.00736 *
 * La       10     -0.00634      0.00023     -0.00447 *
 * La       11     -0.00635     -0.00447      0.00023 *
 * La       12      0.00049     -0.00736      0.00939 *
 * La       13      0.00533      0.00379      0.00472 *
 * La       14     -0.01699      0.00303      0.00303 *
 * La       15     -0.00051      0.00883      0.00883 *
 * La       16      0.00534      0.00472      0.00379 *

 ***************** Stress Tensor *****************
 *          Cartesian components (GPa)           *
 *             x             y             z     *
 *  x     -0.017795      0.000019      0.000022  *
 *  y      0.000019      0.009343     -0.000069  *
 *  z      0.000022     -0.000069      0.009342  *
 *  Pressure:   -0.0003                          *

[...]

 Pseudo atomic calculation performed for Sn 4d10 5s2 5p2

[...]

 Pseudo atomic calculation performed for La 5s2 5p6 5d1 6s2

 Converged in 34 iterations to a total energy of -968.0372 eV

Charge spilling parameter for spin component 1 = 0.26%

     Atomic Populations (Mulliken)
Species   Ion     s      p      d      f     Total  Charge (e)
  O        1     1.87   5.00   0.00   0.00   6.87    -0.87
  O        2     1.87   5.00   0.00   0.00   6.87    -0.87
  O        3     1.87   5.00   0.00   0.00   6.87    -0.87
  O        4     1.87   5.00   0.00   0.00   6.87    -0.87
  O        5     1.87   5.00   0.00   0.00   6.87    -0.87
  O        6     1.87   5.00   0.00   0.00   6.87    -0.87
  O        7     1.87   5.00   0.00   0.00   6.87    -0.87
  O        8     1.87   5.00   0.00   0.00   6.87    -0.87
  O        9     1.87   4.99   0.00   0.00   6.86    -0.86
  O       10     1.87   4.99   0.00   0.00   6.86    -0.86
  O       11     1.89   5.03   0.00   0.00   6.91    -0.91
  O       12     1.89   5.03   0.00   0.00   6.91    -0.91
  O       13     1.88   5.03   0.00   0.00   6.91    -0.91
  O       14     1.87   4.99   0.00   0.00   6.86    -0.86
  O       15     1.88   5.03   0.00   0.00   6.91    -0.91
  O       16     1.87   4.99   0.00   0.00   6.86    -0.86
  O       17     1.88   5.03   0.00   0.00   6.91    -0.91
  O       18     1.88   5.03   0.00   0.00   6.91    -0.91
  O       19     1.88   5.03   0.00   0.00   6.91    -0.91
  O       20     1.88   5.03   0.00   0.00   6.91    -0.91
  O       21     1.88   5.03   0.00   0.00   6.91    -0.91
  O       22     1.88   5.03   0.00   0.00   6.91    -0.91
  O       23     1.87   4.99   0.00   0.00   6.86    -0.86
  O       24     1.87   4.99   0.00   0.00   6.86    -0.86
  O       25     1.88   5.03   0.00   0.00   6.91    -0.91
  O       26     1.88   5.03   0.00   0.00   6.91    -0.91
  O       27     1.88   5.03   0.00   0.00   6.91    -0.91
  O       28     1.88   5.03   0.00   0.00   6.91    -0.91
  O       29     1.88   5.03   0.00   0.00   6.91    -0.91
  O       30     1.87   4.99   0.00   0.00   6.86    -0.86
  O       31     1.87   4.99   0.00   0.00   6.86    -0.86
  O       32     1.88   5.03   0.00   0.00   6.91    -0.91
  O       33     1.88   5.03   0.00   0.00   6.91    -0.91
  O       34     1.88   5.03   0.00   0.00   6.91    -0.91
  O       35     1.87   4.99   0.00   0.00   6.86    -0.86
  O       36     1.88   5.03   0.00   0.00   6.91    -0.91
  O       37     1.88   5.03   0.00   0.00   6.91    -0.91
  O       38     1.87   4.99   0.00   0.00   6.86    -0.86
  O       39     1.88   5.03   0.00   0.00   6.91    -0.91
  O       40     1.88   5.03   0.00   0.00   6.91    -0.91
  O       41     1.89   5.03   0.00   0.00   6.91    -0.91
  O       42     1.87   4.99   0.00   0.00   6.86    -0.86
  O       43     1.87   4.99   0.00   0.00   6.86    -0.86
  O       44     1.87   4.99   0.00   0.00   6.86    -0.86
  O       45     1.87   4.99   0.00   0.00   6.86    -0.86
  O       46     1.89   5.03   0.00   0.00   6.91    -0.91
  O       47     1.87   4.99   0.00   0.00   6.86    -0.86
  O       48     1.87   4.99   0.00   0.00   6.86    -0.86
  O       49     1.88   5.03   0.00   0.00   6.91    -0.91
  O       50     1.87   4.99   0.00   0.00   6.86    -0.86
  O       51     1.86   4.95   0.00   0.00   6.81    -0.81
  O       52     1.86   4.95   0.00   0.00   6.81    -0.81
  O       53     1.88   5.03   0.00   0.00   6.91    -0.91
  O       54     1.87   4.99   0.00   0.00   6.86    -0.86
  O       55     1.87   4.99   0.00   0.00   6.86    -0.86
  O       56     1.87   4.99   0.00   0.00   6.86    -0.86
  Zr       1     2.36   6.48   1.92   0.00  10.77     1.23
  Zr       2     2.36   6.48   1.92   0.00  10.77     1.23
  Zr       3     2.36   6.48   1.92   0.00  10.77     1.23
  Zr       4     2.36   6.48   1.92   0.00  10.77     1.23
[...]
  La       2     2.07   6.18   1.19   0.00   9.45     1.55
  La       3     2.06   6.18   1.20   0.00   9.43     1.57
  La       4     2.06   6.18   1.20   0.00   9.43     1.57
  La       5     2.06   6.18   1.20   0.00   9.43     1.57
  La       6     2.07   6.18   1.19   0.00   9.45     1.55
  La       7     2.06   6.18   1.20   0.00   9.43     1.57
  La       8     2.11   6.20   1.19   0.00   9.50     1.50
  La       9     2.11   6.20   1.19   0.00   9.50     1.50
  La      10     2.06   6.18   1.20   0.00   9.43     1.57
  La      11     2.06   6.18   1.20   0.00   9.43     1.57
  La      12     2.11   6.20   1.19   0.00   9.50     1.50
  La      13     2.06   6.18   1.20   0.00   9.43     1.57
  La      14     2.07   6.18   1.19   0.00   9.45     1.55
  La      15     2.11   6.20   1.19   0.00   9.50     1.50
  La      16     2.06   6.18   1.20   0.00   9.43     1.57

            Bond              Population      Length (A)
         O 45 -- Sn 11             0.34        2.10136
         O 42 -- Sn 9              0.34        2.10141
         O 10 -- Sn 6              0.34        2.10141
         O 9  -- Sn 5              0.34        2.10143
         O 48 -- Sn 8              0.34        2.10524
         O 56 -- Sn 7              0.34        2.10524
         O 55 -- Sn 4              0.34        2.10526
         O 47 -- Sn 2              0.34        2.10526
         O 43 -- Sn 10             0.34        2.10528
         O 16 -- Sn 12             0.34        2.10528
         O 14 -- Sn 3              0.34        2.10528
         O 44 -- Sn 1              0.34        2.10528
         O 54 -- Sn 6              0.34        2.10853
         O 50 -- Sn 9              0.34        2.10853
         O 38 -- Sn 5              0.34        2.10855
         O 23 -- Sn 5              0.34        2.10855
         O 35 -- Sn 11             0.34        2.10858
         O 31 -- Sn 11             0.34        2.10858
         O 24 -- Sn 6              0.34        2.10859
         O 30 -- Sn 9              0.34        2.10859
         O 32 -- Sn 8              0.34        2.10899
         O 22 -- Sn 7              0.34        2.10899
         O 29 -- Sn 10             0.34        2.10900
         O 36 -- Sn 12             0.34        2.10900
         O 49 -- Sn 3              0.34        2.10903
         O 53 -- Sn 1              0.34        2.10903
         O 21 -- Sn 4              0.34        2.10907
         O 37 -- Sn 2              0.34        2.10907
         O 36 -- Sn 1              0.33        2.11024
         O 29 -- Sn 3              0.33        2.11024
         O 32 -- Sn 12             0.33        2.11030
         O 22 -- Sn 10             0.33        2.11030
         O 21 -- Sn 8              0.33        2.11033
         O 37 -- Sn 7              0.33        2.11033
         O 49 -- Sn 2              0.33        2.11033
         O 53 -- Sn 4              0.33        2.11033
         O 34 -- Sn 2              0.33        2.11064
         O 26 -- Sn 4              0.33        2.11064
         O 34 -- Sn 10             0.33        2.11068
         O 26 -- Sn 12             0.33        2.11068
         O 33 -- Sn 1              0.33        2.11072
         O 28 -- Sn 3              0.33        2.11072
         O 28 -- Sn 7              0.33        2.11072
         O 33 -- Sn 8              0.33        2.11072
         O 9  -- Zr 4              0.43        2.11075
         O 17 -- Sn 6              0.34        2.11086
         O 13 -- Sn 9              0.34        2.11086
         O 15 -- Sn 11             0.34        2.11092
         O 19 -- Sn 11             0.34        2.11092
         O 39 -- Sn 6              0.34        2.11093
         O 18 -- Sn 9              0.34        2.11093
         O 20 -- Sn 5              0.34        2.11094
         O 40 -- Sn 5              0.34        2.11094
         O 10 -- Zr 3              0.43        2.11257
         O 42 -- Zr 2              0.43        2.11257
         O 20 -- Sn 3              0.33        2.11385
         O 40 -- Sn 1              0.33        2.11385
         O 17 -- Sn 12             0.33        2.11390
         O 13 -- Sn 10             0.33        2.11390
         O 15 -- Sn 8              0.33        2.11394
[...]
         O 44 -- O 52             -0.03        2.82438
         O 43 -- O 51             -0.03        2.82440
         O 16 -- O 51             -0.03        2.82440
         O 51 -- O 55             -0.03        2.82443
         O 47 -- O 51             -0.03        2.82443
         O 48 -- O 52             -0.03        2.82446
         O 52 -- O 56             -0.03        2.82446
         O 38 -- O 55             -0.03        2.83296
         O 23 -- O 47             -0.03        2.83296
         O 54 -- O 56             -0.03        2.83301
         O 48 -- O 50             -0.03        2.83301
         O 24 -- O 44             -0.03        2.83301
         O 14 -- O 30             -0.03        2.83301
         O 35 -- O 43             -0.03        2.83301
         O 16 -- O 31             -0.03        2.83301

Writing analysis data to 12.castep_bin

Writing model to 12.check

 A BibTeX formatted list of references used in this run has been written to
 12.bib

Initialisation time =     55.65 s
Calculation time    =  34077.09 s
Finalisation time   =     42.53 s
Total time          =  34175.26 s

Overall parallel efficiency rating: Good (76%)

Data was distributed by:-
G-vector (4-way); efficiency rating: Good (76%)
k-point (14-way); efficiency rating: Excellent (99%)