 Compiled for linux_x86_64_ifort16 on Sat, 23 Jul 2016 23:44:54 +0100
 from code version
 203e84763863+ Castep161_branch Fri, 04 Mar 2016 19:21:07 +0000
 Compiler: Intel Fortran 16.0.3.210; Optimisation: fast
 MATHLIBS: Intel MKL(11.3.3) (LAPACK version 3.6.0)
 FFT Lib : mkl
 Fundamental constants values: CODATA 2010

 Run started: Wed, 28 Feb 2018 22:55:12 +0000
 |           N   N    M   M    RRRR                |
 |           NN  N    MM MM    R   R               |
 |           N N N    M M M    RRRR                |
 |           N  NN    M   M    R  R                |
 |           N   N    M   M    R   R               |
 | Welcome to Materials Studio CASTEP-NMR          |
 | Authors:                                        |
 | J.R. Yates, C.J. Pickard, F. Mauri              |
 | Contributors:                                   |
 | T.F.G. Green, S.A. Joyce                        |
 | Copyright (c) 2004 - 2015                       |
 | Please cite the appropriate publications in all |
 | work arising from your use of CASTEP NMR.       |
 | For NMR Shielding Tensors cite:                 |
 |    "All-electron magnetic response with         |
 |    pseudopotentials: NMR chemical shifts",      |
 |    C. J. Pickard, F. Mauri;                     |
 |    Physical Review B63 245101 (2001), and       |
 |    "Calculation of NMR Chemical Shifts          |
 |    for extended systems using                   |
 |    Ultrasoft Pseudopotentials",                 |
 |    J. R. Yates, C. J. Pickard and F. Mauri      |
 |    Physical Review B76 024401 (2007)            |
 | For Electric Field Gradients cite:              |
 |   "Accurate First Principles Prediction of 17O  |
 |    NMR Parameters in SiO2: Assignment of the    |
 |    Zeolite Ferrierite Spectrum"                 |
 |    M. Profeta, F. Mauri and C. J. Pickard       |
 |    J. Amer. Chem. Soc. 125 541 (2003)           |
 | For Spin-Spin (J) Couplings cite:               |
 |   "A first principles theory of NMR J-coupling  |
 |   in solid-state systems"                       |
 |   S.A. Joyce, J.R. Yates, C.J. Pickard, F. Mauri|
 |   J. Chem. Phys. 127 204107 (2007)              |
 |   "Relativistic NMR J-coupling with ultrasoft   |
 |   pseudopotentials and the zeroth-order regular |
 |   approximation"                                |
 |   T.F.G. Green and J.R. Yates                   |
 |   J. Chem. Phys. 140 234106 (2014)              |

 Atomic calculation performed for O: 1s2 2s2 2p4

 Converged in 44 iterations to an ae energy of -2040.855 eV

 Atomic calculation performed for O: 1s2 2s2 2p4

 Exceeded max iterations: converged to 0.000000062 eV

   | Pseudopotential Report - Date of generation 28-02-2018   |
   | Element: O Ionic charge:  6.00 Level of theory: PBE      |
   | Atomic Solver: ZORA (scalar)                             |
   |               Reference Electronic Structure             |
   |         Orbital         Occupation         Energy        |
   |            2s              2.000           -0.881        |
   |            2p              4.000           -0.332        |
   |                 Pseudopotential Definition               |
   |        Beta     l      e      Rc     scheme   norm       |
   |          1      0   -0.881   1.100     qc      0         |
   |          2      0    0.250   1.100     qc      0         |
   |          3      1   -0.332   1.100     qc      0         |
   |          4      1    0.250   1.100     qc      0         |
   |         loc     2    0.000   1.100     pn      0         |
   | Augmentation charge Rinner = 0.769                       |
   | Partial core correction Rc = 0.769                       |
   | "2|1.1|15|18|20|20:21(qc=7)"                             |
   |      Author: Chris J. Pickard, Cambridge University      |

 Atomic calculation performed for Zr: 1s2 2s2 2p6 3s2 3p6 3d10 4s2 4p6 4d2 5s2

[...]

 Atomic calculation performed for Zr: 1s2 2s2 2p6 3s2 3p6 3d10 4s2 4p6 4d2 5s2

[...]

 Warning: ion_atom_descreen_psp: negative charge density encountered
   | Pseudopotential Report - Date of generation 28-02-2018   |
   | Element: Zr Ionic charge: 12.00 Level of theory: PBE     |
   | Atomic Solver: ZORA (scalar)                             |
   |               Reference Electronic Structure             |
   |         Orbital         Occupation         Energy        |
   |            4s              2.000           -2.003        |
   |            4p              6.000           -1.193        |
   |            5s              2.000           -0.163        |
   |            4d              2.000           -0.132        |
   |                 Pseudopotential Definition               |
   |        Beta     l      e      Rc     scheme   norm       |
   |          1      0   -2.003   2.105     qc      0         |
   |          2      0   -0.163   2.105     qc      0         |
   |          3      0    0.250   2.105     qc      0         |
   |          4      1   -1.193   2.105     qc      0         |
   |          5      1    0.250   2.105     qc      0         |
   |          6      2   -0.132   2.105     qc      0         |
   |          7      2    0.250   2.105     qc      0         |
   |         loc     3    0.000   2.105     pn      0         |
   | Augmentation charge Rinner = 1.471                       |
   | Partial core correction Rc = 1.471                       |
   | "3|2.1|7|8|9|40U:50:41:42"                               |
   |      Author: Chris J. Pickard, Cambridge University      |

 Atomic calculation performed for Sn:

[...]

 Atomic calculation performed for Sn:

[...]

   | Pseudopotential Report - Date of generation 28-02-2018   |
   | Element: Sn Ionic charge: 14.00 Level of theory: PBE     |
   | Atomic Solver: ZORA (scalar)                             |
   |               Reference Electronic Structure             |
   |         Orbital         Occupation         Energy        |
   |            4d             10.000           -0.950        |
   |            5s              2.000           -0.388        |
   |            5p              2.000           -0.136        |
   |                 Pseudopotential Definition               |
   |        Beta     l      e      Rc     scheme   norm       |
   |          1      0   -0.388   2.199     qc      0         |
   |          2      0    0.250   2.199     qc      0         |
   |          3      1   -0.136   2.199     qc      0         |
   |          4      1    0.250   2.199     qc      0         |
   |          5      2   -0.950   2.199     qc      0         |
   |          6      2    0.250   2.199     qc      0         |
   |         loc     3    0.000   2.199     pn      0         |
   | Augmentation charge Rinner = 1.537                       |
   | Partial core correction Rc = 1.537                       |
   | "3|2.2|7|8|9|50:51:42"                                   |
   |      Author: Chris J. Pickard, Cambridge University      |

 Atomic calculation performed for La:

 Converged in 56 iterations to an ae energy of -230121.495 eV

 Atomic calculation performed for La:

 Exceeded max iterations: converged to 0.000000907 eV

 Warning: ion_atom_descreen_psp: negative charge density encountered
   | Pseudopotential Report - Date of generation 28-02-2018   |
   | Element: La Ionic charge: 11.00 Level of theory: PBE     |
   | Atomic Solver: ZORA (scalar)                             |
   |               Reference Electronic Structure             |
   |         Orbital         Occupation         Energy        |
   |            5s              2.000           -1.430        |
   |            5p              6.000           -0.823        |
   |            6s              2.000           -0.135        |
   |            5d              1.000           -0.114        |
   |                 Pseudopotential Definition               |
   |        Beta     l      e      Rc     scheme   norm       |
   |          1      0   -1.430   2.298     qc      0         |
   |          2      0   -0.135   2.298     qc      0         |
   |          3      0    0.250   2.298     qc      0         |
   |          4      1   -0.823   2.298     qc      0         |
   |          5      1    0.250   2.298     qc      0         |
   |          6      2   -0.114   2.298     qc      0         |
   |          7      2    0.250   2.298     qc      0         |
   |         loc     2    0.000   2.298     pn      0         |
   | Augmentation charge Rinner = 1.606                       |
   | Partial core correction Rc = 1.606                       |
   | "2|2.3|5|6|7|50U:60:51:52(qc=4.5)"                       |
   |      Author: Chris J. Pickard, Cambridge University      |

 Pseudo atomic calculation performed for O 2s2 2p4

 Converged in 39 iterations to a total energy of -432.6554 eV

 Pseudo atomic calculation performed for Zr 4s2 4p6 4d2 5s2

[...]

 Calculation parallelised over 56 processes.
 Data is distributed by G-vector(4-way) and k-point(14-way)

 ************************************ Title ************************************
 nmr testing

 ***************************** General Parameters ******************************

 output verbosity                               : normal  (1)
 write checkpoint data to                       : 14.check
 type of calculation                            : Magnetic Resonance
 stress calculation                             : on
 density difference calculation                 : off
 electron localisation func (ELF) calculation   : off
 Hirshfeld analysis                             : off
 unlimited duration calculation
 timing information                             : on
 write final potential to formatted file        : off
 write final density to formatted file          : off
 write structure in CIF formatted file          : on
 write structure in CELL formatted file         : on
 write BibTeX reference list                    : on
 write OTFG pseudopotential files               : on
 checkpoint writing                             : both castep_bin and check files

 output         length unit                     : A
 output           mass unit                     : amu
 output           time unit                     : ps
 output         charge unit                     : e
 output           spin unit                     : hbar/2
 output         energy unit                     : eV
 output          force unit                     : eV/A
 output       velocity unit                     : A/ps
 output       pressure unit                     : GPa
 output     inv_length unit                     : 1/A
 output      frequency unit                     : cm-1
 output force constant unit                     : eV/A**2
 output         volume unit                     : A**3
 output   IR intensity unit                     : (D/A)**2/amu
 output         dipole unit                     : D
 output         efield unit                     : eV/A/e
 output        entropy unit                     : J/mol/K

 wavefunctions paging                           : none
 random number generator seed                   : randomised (225514209)
 data distribution                              : optimal for this architecture
[...]
  |    O          41       -9.99     -57.60      1.00   3.759E+00   0.97 |
  |    O          42      -85.00      87.32      0.07  -3.246E+00   0.07 |
  |    O          43      -88.99      88.97      0.13  -3.139E+00   0.05 |
  |    O          44       -9.39      59.39      0.53   3.883E+00   0.90 |
  |    O          45      -84.98      86.74      0.07  -3.246E+00   0.07 |
  |    O          46      -10.20     -57.68      0.99   3.757E+00   0.97 |
  |    O          47       -9.40      59.30      0.53   3.884E+00   0.90 |
  |    O          48      -88.61      86.28      0.13  -3.146E+00   0.06 |
  |    O          49      -16.34     -41.83      0.64   3.846E+00   0.93 |
  |    O          50      -85.99      87.33      0.19  -3.140E+00   0.06 |
  |    O          51      -82.62      87.92      0.17  -3.181E+00   0.03 |
  |    O          52      -82.56      87.98      0.17  -3.183E+00   0.03 |
  |    O          53      -17.41     -35.63      0.96   3.910E+00   0.91 |
  |    O          54     -162.39     141.45      0.88   1.019E+00   0.63 |
  |    O          55      -87.69      87.52      0.11  -3.202E+00   0.06 |
  |    O          56      -87.58      86.47      0.12  -3.204E+00   0.06 |
  |    Zr          1     1614.49    -114.59      0.11  -3.459E+01   0.03 |
  |    Zr          2     1614.24    -114.68      0.12  -3.462E+01   0.04 |
  |    Zr          3     1614.49    -114.59      0.11  -3.459E+01   0.03 |
  |    Zr          4     1614.24    -114.67      0.12  -3.462E+01   0.04 |
[...]
  |    La          2     4550.65     388.27      0.07  -7.645E+01   0.09 |
  |    La          3     4653.44     660.00      0.07  -8.556E+01   0.13 |
  |    La          4     4653.31     658.88      0.07  -8.549E+01   0.13 |
  |    La          5     4543.53     392.58      0.07  -7.495E+01   0.08 |
  |    La          6     4561.60     381.39      0.04  -7.749E+01   0.10 |
  |    La          7     4653.32     658.88      0.07  -8.550E+01   0.13 |
  |    La          8     4550.69     388.40      0.07  -7.641E+01   0.09 |
  |    La          9     4550.65     388.28      0.07  -7.645E+01   0.09 |
  |    La         10     4653.44     660.00      0.07  -8.555E+01   0.13 |
  |    La         11     4543.54     392.58      0.07  -7.495E+01   0.08 |
  |    La         12     4561.60     381.40      0.04  -7.749E+01   0.10 |
  |    La         13     4543.54     392.32      0.07  -7.489E+01   0.08 |
  |    La         14     4561.75     382.70      0.04  -7.756E+01   0.09 |
  |    La         15     4561.75     382.69      0.04  -7.755E+01   0.09 |
  |    La         16     4543.55     392.32      0.07  -7.489E+01   0.08 |

 *********************** Forces ***********************
 *            Cartesian components (eV/A)             *
 *                   x            y            z      *
 * O         1      0.00473     -0.00178      0.00057 *
 * O         2     -0.00464      0.00205     -0.00090 *
 * O         3      0.00476     -0.00169      0.00028 *
 * O         4     -0.00461      0.00215     -0.00062 *
 * O         5      0.00162      0.00032      0.00006 *
 * O         6      0.00162      0.00032      0.00012 *
 * O         7     -0.00044      0.00113     -0.00535 *
 * O         8     -0.00044      0.00113     -0.00536 *
 * O         9      0.00280      0.02117      0.02469 *
 * O        10     -0.00573     -0.02138      0.02445 *
 * O        11     -0.00639     -0.00324      0.00780 *
 * O        12      0.00991      0.00446      0.00594 *
 * O        13      0.00122      0.00525     -0.00550 *
 * O        14     -0.00101     -0.00252     -0.00377 *
 * O        15     -0.00106     -0.00250     -0.00385 *
 * O        16      0.00127      0.00523     -0.00557 *
 * O        17     -0.01904     -0.03323     -0.00336 *
 * O        18     -0.00477      0.00969     -0.00499 *
 * O        19      0.00606     -0.00792     -0.00418 *
 * O        20      0.01374      0.02907     -0.00170 *
 * O        21      0.01239      0.00548     -0.00574 *
 * O        22     -0.00853     -0.00405     -0.00453 *
 * O        23     -0.01617      0.00159     -0.03100 *
 * O        24      0.01054     -0.00049     -0.02800 *
 * O        25      0.00027      0.02049     -0.01993 *
 * O        26      0.00458     -0.00600     -0.00454 *
 * O        27     -0.00074     -0.02287     -0.02169 *
 * O        28     -0.00309      0.00941     -0.00514 *
 * O        29      0.00104      0.00029     -0.00533 *
 * O        30     -0.00056      0.00102      0.00201 *
 * O        31     -0.00056      0.00102      0.00186 *
 * O        32      0.00104      0.00029     -0.00539 *
 * O        33     -0.00313      0.00940     -0.00514 *
 * O        34      0.00455     -0.00601     -0.00454 *
 * O        35      0.01057     -0.00037     -0.02806 *
 * O        36     -0.00852     -0.00406     -0.00455 *
 * O        37      0.00129      0.00006      0.00503 *
 * O        38     -0.00616     -0.00408      0.00743 *
 * O        39     -0.02678     -0.00182      0.02768 *
 * O        40      0.02489      0.00133      0.02718 *
 * O        41      0.00991      0.00440      0.00582 *
 * O        42     -0.00576     -0.02128      0.02451 *
 * O        43     -0.01900     -0.03314     -0.00332 *
 * O        44      0.00613     -0.00804     -0.00415 *
 * O        45      0.00277      0.02126      0.02463 *
 * O        46     -0.00639     -0.00331      0.00790 *
 * O        47     -0.00470      0.00957     -0.00502 *
 * O        48      0.01377      0.02915     -0.00174 *
 * O        49      0.01240      0.00548     -0.00572 *
 * O        50     -0.01615      0.00171     -0.03095 *
 * O        51      0.00031      0.02052     -0.01996 *
 * O        52     -0.00071     -0.02285     -0.02166 *
 * O        53      0.00129      0.00006      0.00507 *
 * O        54     -0.00617     -0.00409      0.00730 *
 * O        55     -0.02684     -0.00177      0.02780 *
 * O        56      0.02483      0.00138      0.02706 *
 * Zr        1      0.01848     -0.00758     -0.02767 *
 * Zr        2      0.00038      0.00369     -0.02614 *
 * Zr        3      0.01833     -0.00731     -0.02784 *
 * Zr        4      0.00035      0.00389     -0.02597 *
[...]
 * La        2      0.00067      0.00326     -0.00711 *
 * La        3     -0.00825      0.00770      0.01352 *
 * La        4      0.01464     -0.00806      0.01686 *
 * La        5     -0.00444      0.00569      0.00320 *
 * La        6     -0.00168     -0.00562      0.00535 *
 * La        7      0.01448     -0.00781      0.01711 *
 * La        8     -0.00323      0.00026     -0.00766 *
 * La        9      0.00086      0.00337     -0.00733 *
 * La       10     -0.00841      0.00794      0.01326 *
 * La       11     -0.00420      0.00601      0.00293 *
 * La       12     -0.00155     -0.00567      0.00554 *
 * La       13      0.00748     -0.00458      0.00233 *
 * La       14     -0.00311      0.00889      0.00042 *
 * La       15     -0.00297      0.00885      0.00023 *
 * La       16      0.00724     -0.00490      0.00206 *

 ***************** Stress Tensor *****************
 *          Cartesian components (GPa)           *
 *             x             y             z     *
 *  x     -0.005209      0.007886     -0.000023  *
 *  y      0.007886     -0.002137     -0.000011  *
 *  z     -0.000023     -0.000011      0.007250  *
 *  Pressure:    0.0000                          *

[...]

 Pseudo atomic calculation performed for Sn 4d10 5s2 5p2

[...]

 Pseudo atomic calculation performed for La 5s2 5p6 5d1 6s2

 Converged in 34 iterations to a total energy of -968.0372 eV

Charge spilling parameter for spin component 1 = 0.26%

     Atomic Populations (Mulliken)
Species   Ion     s      p      d      f     Total  Charge (e)
  O        1     1.87   5.00   0.00   0.00   6.87    -0.87
  O        2     1.87   5.00   0.00   0.00   6.87    -0.87
  O        3     1.87   5.00   0.00   0.00   6.87    -0.87
  O        4     1.87   5.00   0.00   0.00   6.87    -0.87
  O        5     1.87   5.00   0.00   0.00   6.87    -0.87
  O        6     1.87   5.00   0.00   0.00   6.87    -0.87
  O        7     1.87   5.00   0.00   0.00   6.87    -0.87
  O        8     1.87   5.00   0.00   0.00   6.87    -0.87
  O        9     1.87   4.99   0.00   0.00   6.86    -0.86
  O       10     1.87   4.99   0.00   0.00   6.86    -0.86
  O       11     1.89   5.03   0.00   0.00   6.91    -0.91
  O       12     1.89   5.03   0.00   0.00   6.91    -0.91
  O       13     1.88   5.03   0.00   0.00   6.91    -0.91
  O       14     1.88   5.03   0.00   0.00   6.91    -0.91
  O       15     1.88   5.03   0.00   0.00   6.91    -0.91
  O       16     1.88   5.03   0.00   0.00   6.91    -0.91
  O       17     1.87   4.99   0.00   0.00   6.86    -0.86
  O       18     1.88   5.03   0.00   0.00   6.91    -0.91
  O       19     1.88   5.03   0.00   0.00   6.91    -0.91
  O       20     1.87   4.99   0.00   0.00   6.86    -0.86
  O       21     1.88   5.03   0.00   0.00   6.91    -0.91
  O       22     1.88   5.03   0.00   0.00   6.91    -0.91
  O       23     1.87   4.99   0.00   0.00   6.86    -0.86
  O       24     1.87   4.99   0.00   0.00   6.86    -0.86
  O       25     1.87   4.99   0.00   0.00   6.86    -0.86
  O       26     1.88   5.03   0.00   0.00   6.91    -0.91
  O       27     1.87   4.99   0.00   0.00   6.86    -0.86
  O       28     1.88   5.03   0.00   0.00   6.91    -0.91
  O       29     1.88   5.03   0.00   0.00   6.91    -0.91
  O       30     1.88   5.03   0.00   0.00   6.91    -0.91
  O       31     1.88   5.03   0.00   0.00   6.91    -0.91
  O       32     1.88   5.03   0.00   0.00   6.91    -0.91
  O       33     1.88   5.03   0.00   0.00   6.91    -0.91
  O       34     1.88   5.03   0.00   0.00   6.91    -0.91
  O       35     1.87   4.99   0.00   0.00   6.86    -0.86
  O       36     1.88   5.03   0.00   0.00   6.91    -0.91
  O       37     1.88   5.03   0.00   0.00   6.91    -0.91
  O       38     1.86   4.95   0.00   0.00   6.81    -0.81
  O       39     1.87   4.99   0.00   0.00   6.86    -0.86
  O       40     1.87   4.99   0.00   0.00   6.86    -0.86
  O       41     1.89   5.03   0.00   0.00   6.91    -0.91
  O       42     1.87   4.99   0.00   0.00   6.86    -0.86
  O       43     1.87   4.99   0.00   0.00   6.86    -0.86
  O       44     1.88   5.03   0.00   0.00   6.91    -0.91
  O       45     1.87   4.99   0.00   0.00   6.86    -0.86
  O       46     1.89   5.03   0.00   0.00   6.91    -0.91
  O       47     1.88   5.03   0.00   0.00   6.91    -0.91
  O       48     1.87   4.99   0.00   0.00   6.86    -0.86
  O       49     1.88   5.03   0.00   0.00   6.91    -0.91
  O       50     1.87   4.99   0.00   0.00   6.86    -0.86
  O       51     1.87   4.99   0.00   0.00   6.86    -0.86
  O       52     1.87   4.99   0.00   0.00   6.86    -0.86
  O       53     1.88   5.03   0.00   0.00   6.91    -0.91
  O       54     1.86   4.95   0.00   0.00   6.81    -0.81
  O       55     1.87   4.99   0.00   0.00   6.86    -0.86
  O       56     1.87   4.99   0.00   0.00   6.86    -0.86
  Zr       1     2.36   6.48   1.92   0.00  10.77     1.23
  Zr       2     2.36   6.48   1.92   0.00  10.77     1.23
  Zr       3     2.36   6.48   1.92   0.00  10.77     1.23
  Zr       4     2.36   6.48   1.92   0.00  10.77     1.23
[...]
  La       2     2.10   6.19   1.19   0.00   9.48     1.52
  La       3     2.03   6.17   1.20   0.00   9.40     1.60
  La       4     2.03   6.17   1.20   0.00   9.40     1.60
  La       5     2.09   6.19   1.19   0.00   9.47     1.53
  La       6     2.08   6.20   1.19   0.00   9.46     1.54
  La       7     2.03   6.17   1.20   0.00   9.40     1.60
  La       8     2.10   6.19   1.19   0.00   9.48     1.52
  La       9     2.10   6.19   1.19   0.00   9.48     1.52
  La      10     2.03   6.17   1.20   0.00   9.40     1.60
  La      11     2.09   6.19   1.19   0.00   9.47     1.53
  La      12     2.08   6.20   1.19   0.00   9.46     1.54
  La      13     2.09   6.19   1.19   0.00   9.47     1.53
  La      14     2.08   6.20   1.19   0.00   9.46     1.54
  La      15     2.08   6.20   1.19   0.00   9.46     1.54
  La      16     2.09   6.19   1.19   0.00   9.47     1.53

            Bond              Population      Length (A)
         O 45 -- Sn 11             0.35        2.09850
         O 9  -- Sn 10             0.35        2.09851
         O 10 -- Sn 4              0.35        2.09853
         O 42 -- Sn 8              0.35        2.09854
         O 52 -- Sn 10             0.35        2.10598
         O 27 -- Sn 11             0.35        2.10598
         O 25 -- Sn 8              0.35        2.10603
         O 51 -- Sn 4              0.35        2.10603
         O 56 -- Sn 6              0.34        2.10677
         O 40 -- Sn 1              0.34        2.10678
         O 39 -- Sn 2              0.34        2.10685
         O 55 -- Sn 5              0.34        2.10685
         O 20 -- Sn 3              0.34        2.10768
         O 48 -- Sn 7              0.34        2.10768
         O 43 -- Sn 9              0.34        2.10776
         O 17 -- Sn 12             0.34        2.10776
         O 53 -- Sn 5              0.33        2.10788
         O 37 -- Sn 2              0.33        2.10788
         O 53 -- Sn 1              0.33        2.10792
         O 37 -- Sn 6              0.33        2.10792
         O 19 -- Sn 6              0.34        2.10918
         O 44 -- Sn 1              0.34        2.10919
         O 47 -- Sn 2              0.34        2.10919
         O 18 -- Sn 5              0.34        2.10920
         O 50 -- Sn 8              0.34        2.10944
         O 23 -- Sn 4              0.34        2.10945
         O 34 -- Sn 9              0.34        2.10950
         O 26 -- Sn 12             0.34        2.10950
         O 28 -- Sn 3              0.34        2.10953
         O 33 -- Sn 7              0.34        2.10953
         O 24 -- Sn 10             0.34        2.10954
         O 35 -- Sn 11             0.34        2.10955
         O 36 -- Sn 12             0.33        2.10969
         O 22 -- Sn 9              0.33        2.10969
         O 21 -- Sn 7              0.33        2.10976
         O 49 -- Sn 3              0.33        2.10976
         O 49 -- Sn 2              0.34        2.11019
         O 21 -- Sn 5              0.34        2.11020
         O 22 -- Sn 6              0.34        2.11022
         O 36 -- Sn 1              0.34        2.11022
         O 32 -- Sn 12             0.34        2.11170
         O 29 -- Sn 9              0.34        2.11170
         O 32 -- Sn 7              0.34        2.11179
         O 29 -- Sn 3              0.34        2.11179
         O 16 -- Sn 4              0.34        2.11208
         O 13 -- Sn 8              0.34        2.11209
         O 26 -- Sn 5              0.33        2.11211
         O 34 -- Sn 2              0.33        2.11212
         O 15 -- Sn 11             0.34        2.11216
         O 14 -- Sn 10             0.34        2.11216
         O 33 -- Sn 1              0.33        2.11217
         O 28 -- Sn 6              0.33        2.11217
         O 44 -- Sn 10             0.33        2.11245
         O 18 -- Sn 8              0.33        2.11246
         O 19 -- Sn 11             0.33        2.11246
         O 47 -- Sn 4              0.33        2.11247
         O 13 -- Sn 9              0.33        2.11298
         O 16 -- Sn 12             0.33        2.11298
         O 14 -- Sn 3              0.33        2.11301
         O 15 -- Sn 7              0.33        2.11301
[...]
         O 39 -- O 54             -0.03        2.82246
         O 38 -- O 40             -0.03        2.82259
         O 54 -- O 56             -0.03        2.82259
         O 27 -- O 40             -0.03        2.83066
         O 52 -- O 56             -0.03        2.83067
         O 51 -- O 55             -0.03        2.83068
         O 25 -- O 39             -0.03        2.83068
         O 48 -- O 52             -0.03        2.83246
         O 20 -- O 27             -0.03        2.83246
         O 17 -- O 25             -0.03        2.83248
         O 43 -- O 51             -0.03        2.83248
         O 35 -- O 43             -0.03        2.83618
         O 17 -- O 24             -0.03        2.83618
         O 20 -- O 23             -0.03        2.83619
         O 48 -- O 50             -0.03        2.83619

Writing analysis data to 14.castep_bin

Writing model to 14.check

 A BibTeX formatted list of references used in this run has been written to
 14.bib

Initialisation time =     54.08 s
Calculation time    =  34463.97 s
Finalisation time   =     30.86 s
Total time          =  34548.91 s

Overall parallel efficiency rating: Good (77%)

Data was distributed by:-
G-vector (4-way); efficiency rating: Good (79%)
k-point (14-way); efficiency rating: Excellent (96%)