 Compiled for linux_x86_64_ifort16 on Sat, 23 Jul 2016 23:44:54 +0100
 from code version
 203e84763863+ Castep161_branch Fri, 04 Mar 2016 19:21:07 +0000
 Compiler: Intel Fortran 16.0.3.210; Optimisation: fast
 MATHLIBS: Intel MKL(11.3.3) (LAPACK version 3.6.0)
 FFT Lib : mkl
 Fundamental constants values: CODATA 2010

 Run started: Mon, 05 Mar 2018 10:03:29 +0000
 |           N   N    M   M    RRRR                |
 |           NN  N    MM MM    R   R               |
 |           N N N    M M M    RRRR                |
 |           N  NN    M   M    R  R                |
 |           N   N    M   M    R   R               |
 | Welcome to Materials Studio CASTEP-NMR          |
 | Authors:                                        |
 | J.R. Yates, C.J. Pickard, F. Mauri              |
 | Contributors:                                   |
 | T.F.G. Green, S.A. Joyce                        |
 | Copyright (c) 2004 - 2015                       |
 | Please cite the appropriate publications in all |
 | work arising from your use of CASTEP NMR.       |
 | For NMR Shielding Tensors cite:                 |
 |    "All-electron magnetic response with         |
 |    pseudopotentials: NMR chemical shifts",      |
 |    C. J. Pickard, F. Mauri;                     |
 |    Physical Review B63 245101 (2001), and       |
 |    "Calculation of NMR Chemical Shifts          |
 |    for extended systems using                   |
 |    Ultrasoft Pseudopotentials",                 |
 |    J. R. Yates, C. J. Pickard and F. Mauri      |
 |    Physical Review B76 024401 (2007)            |
 | For Electric Field Gradients cite:              |
 |   "Accurate First Principles Prediction of 17O  |
 |    NMR Parameters in SiO2: Assignment of the    |
 |    Zeolite Ferrierite Spectrum"                 |
 |    M. Profeta, F. Mauri and C. J. Pickard       |
 |    J. Amer. Chem. Soc. 125 541 (2003)           |
 | For Spin-Spin (J) Couplings cite:               |
 |   "A first principles theory of NMR J-coupling  |
 |   in solid-state systems"                       |
 |   S.A. Joyce, J.R. Yates, C.J. Pickard, F. Mauri|
 |   J. Chem. Phys. 127 204107 (2007)              |
 |   "Relativistic NMR J-coupling with ultrasoft   |
 |   pseudopotentials and the zeroth-order regular |
 |   approximation"                                |
 |   T.F.G. Green and J.R. Yates                   |
 |   J. Chem. Phys. 140 234106 (2014)              |

 Atomic calculation performed for O: 1s2 2s2 2p4

 Converged in 44 iterations to an ae energy of -2040.855 eV

 Atomic calculation performed for O: 1s2 2s2 2p4

 Exceeded max iterations: converged to 0.000000062 eV

   | Pseudopotential Report - Date of generation  5-03-2018   |
   | Element: O Ionic charge:  6.00 Level of theory: PBE      |
   | Atomic Solver: ZORA (scalar)                             |
   |               Reference Electronic Structure             |
   |         Orbital         Occupation         Energy        |
   |            2s              2.000           -0.881        |
   |            2p              4.000           -0.332        |
   |                 Pseudopotential Definition               |
   |        Beta     l      e      Rc     scheme   norm       |
   |          1      0   -0.881   1.100     qc      0         |
   |          2      0    0.250   1.100     qc      0         |
   |          3      1   -0.332   1.100     qc      0         |
   |          4      1    0.250   1.100     qc      0         |
   |         loc     2    0.000   1.100     pn      0         |
   | Augmentation charge Rinner = 0.769                       |
   | Partial core correction Rc = 0.769                       |
   | "2|1.1|15|18|20|20:21(qc=7)"                             |
   |      Author: Chris J. Pickard, Cambridge University      |

 Atomic calculation performed for Zr: 1s2 2s2 2p6 3s2 3p6 3d10 4s2 4p6 4d2 5s2

[...]

 Atomic calculation performed for Zr: 1s2 2s2 2p6 3s2 3p6 3d10 4s2 4p6 4d2 5s2

[...]

 Warning: ion_atom_descreen_psp: negative charge density encountered
   | Pseudopotential Report - Date of generation  5-03-2018   |
   | Element: Zr Ionic charge: 12.00 Level of theory: PBE     |
   | Atomic Solver: ZORA (scalar)                             |
   |               Reference Electronic Structure             |
   |         Orbital         Occupation         Energy        |
   |            4s              2.000           -2.003        |
   |            4p              6.000           -1.193        |
   |            5s              2.000           -0.163        |
   |            4d              2.000           -0.132        |
   |                 Pseudopotential Definition               |
   |        Beta     l      e      Rc     scheme   norm       |
   |          1      0   -2.003   2.105     qc      0         |
   |          2      0   -0.163   2.105     qc      0         |
   |          3      0    0.250   2.105     qc      0         |
   |          4      1   -1.193   2.105     qc      0         |
   |          5      1    0.250   2.105     qc      0         |
   |          6      2   -0.132   2.105     qc      0         |
   |          7      2    0.250   2.105     qc      0         |
   |         loc     3    0.000   2.105     pn      0         |
   | Augmentation charge Rinner = 1.471                       |
   | Partial core correction Rc = 1.471                       |
   | "3|2.1|7|8|9|40U:50:41:42"                               |
   |      Author: Chris J. Pickard, Cambridge University      |

 Atomic calculation performed for Sn:

[...]

 Atomic calculation performed for Sn:

[...]

   | Pseudopotential Report - Date of generation  5-03-2018   |
   | Element: Sn Ionic charge: 14.00 Level of theory: PBE     |
   | Atomic Solver: ZORA (scalar)                             |
   |               Reference Electronic Structure             |
   |         Orbital         Occupation         Energy        |
   |            4d             10.000           -0.950        |
   |            5s              2.000           -0.388        |
   |            5p              2.000           -0.136        |
   |                 Pseudopotential Definition               |
   |        Beta     l      e      Rc     scheme   norm       |
   |          1      0   -0.388   2.199     qc      0         |
   |          2      0    0.250   2.199     qc      0         |
   |          3      1   -0.136   2.199     qc      0         |
   |          4      1    0.250   2.199     qc      0         |
   |          5      2   -0.950   2.199     qc      0         |
   |          6      2    0.250   2.199     qc      0         |
   |         loc     3    0.000   2.199     pn      0         |
   | Augmentation charge Rinner = 1.537                       |
   | Partial core correction Rc = 1.537                       |
   | "3|2.2|7|8|9|50:51:42"                                   |
   |      Author: Chris J. Pickard, Cambridge University      |

 Atomic calculation performed for La:

 Converged in 56 iterations to an ae energy of -230121.495 eV

 Atomic calculation performed for La:

 Exceeded max iterations: converged to 0.000000907 eV

 Warning: ion_atom_descreen_psp: negative charge density encountered
   | Pseudopotential Report - Date of generation  5-03-2018   |
   | Element: La Ionic charge: 11.00 Level of theory: PBE     |
   | Atomic Solver: ZORA (scalar)                             |
   |               Reference Electronic Structure             |
   |         Orbital         Occupation         Energy        |
   |            5s              2.000           -1.430        |
   |            5p              6.000           -0.823        |
   |            6s              2.000           -0.135        |
   |            5d              1.000           -0.114        |
   |                 Pseudopotential Definition               |
   |        Beta     l      e      Rc     scheme   norm       |
   |          1      0   -1.430   2.298     qc      0         |
   |          2      0   -0.135   2.298     qc      0         |
   |          3      0    0.250   2.298     qc      0         |
   |          4      1   -0.823   2.298     qc      0         |
   |          5      1    0.250   2.298     qc      0         |
   |          6      2   -0.114   2.298     qc      0         |
   |          7      2    0.250   2.298     qc      0         |
   |         loc     2    0.000   2.298     pn      0         |
   | Augmentation charge Rinner = 1.606                       |
   | Partial core correction Rc = 1.606                       |
   | "2|2.3|5|6|7|50U:60:51:52(qc=4.5)"                       |
   |      Author: Chris J. Pickard, Cambridge University      |

 Pseudo atomic calculation performed for O 2s2 2p4

 Converged in 39 iterations to a total energy of -432.6554 eV

 Pseudo atomic calculation performed for Zr 4s2 4p6 4d2 5s2

[...]

 Calculation parallelised over 56 processes.
 Data is distributed by G-vector(4-way) and k-point(14-way)

 ************************************ Title ************************************
 nmr testing

 ***************************** General Parameters ******************************

 output verbosity                               : normal  (1)
 write checkpoint data to                       : 17.check
 type of calculation                            : Magnetic Resonance
 stress calculation                             : on
 density difference calculation                 : off
 electron localisation func (ELF) calculation   : off
 Hirshfeld analysis                             : off
 unlimited duration calculation
 timing information                             : on
 write final potential to formatted file        : off
 write final density to formatted file          : off
 write structure in CIF formatted file          : on
 write structure in CELL formatted file         : on
 write BibTeX reference list                    : on
 write OTFG pseudopotential files               : on
 checkpoint writing                             : both castep_bin and check files

 output         length unit                     : A
 output           mass unit                     : amu
 output           time unit                     : ps
 output         charge unit                     : e
 output           spin unit                     : hbar/2
 output         energy unit                     : eV
 output          force unit                     : eV/A
 output       velocity unit                     : A/ps
 output       pressure unit                     : GPa
 output     inv_length unit                     : 1/A
 output      frequency unit                     : cm-1
 output force constant unit                     : eV/A**2
 output         volume unit                     : A**3
 output   IR intensity unit                     : (D/A)**2/amu
 output         dipole unit                     : D
 output         efield unit                     : eV/A/e
 output        entropy unit                     : J/mol/K

 wavefunctions paging                           : none
 random number generator seed                   : randomised (100331136)
 data distribution                              : optimal for this architecture
[...]
  |    O          42      -84.92      87.83      0.09  -3.198E+00   0.08 |
  |    O          43     -160.62     142.65      0.86   1.053E+00   0.61 |
  |    O          44       -6.80      56.23      0.92   3.849E+00   0.95 |
  |    O          45      -86.10      87.08      0.22  -3.189E+00   0.05 |
  |    O          46      -10.14      57.42      0.85   3.818E+00   0.94 |
  |    O          47      -19.32      37.06      0.64   3.938E+00   0.86 |
  |    O          48      -90.93      87.53      0.09  -3.148E+00   0.04 |
  |    O          49      -10.14      57.43      0.85   3.818E+00   0.94 |
  |    O          50      -86.10      87.09      0.22  -3.189E+00   0.05 |
  |    O          51      -83.69      88.06      0.18  -3.206E+00   0.06 |
  |    O          52      -86.97      87.76      0.13  -3.179E+00   0.03 |
  |    O          53      -19.32      37.06      0.64   3.938E+00   0.86 |
  |    O          54      -90.93      87.53      0.09  -3.148E+00   0.04 |
  |    O          55      -83.70      88.04      0.18  -3.206E+00   0.06 |
  |    O          56      -86.97      87.77      0.13  -3.179E+00   0.03 |
  |    Zr          1     1600.19    -106.02      0.00  -3.364E+01   0.06 |
  |    Zr          2     1628.26    -124.16      0.19  -3.555E+01   0.11 |
  |    Zr          3     1614.08    -112.00      0.12  -3.452E+01   0.09 |
  |    Zr          4     1614.08    -112.00      0.12  -3.452E+01   0.09 |
[...]
  |    La          2     4559.16     380.84      0.05  -7.755E+01   0.07 |
  |    La          3     4654.04     661.44      0.07  -8.558E+01   0.11 |
  |    La          4     4654.04     661.43      0.07  -8.558E+01   0.11 |
  |    La          5     4551.76     385.47      0.06  -7.633E+01   0.06 |
  |    La          6     4608.10     543.17      0.05  -8.201E+01   0.17 |
  |    La          7     4608.10     543.16      0.05  -8.201E+01   0.17 |
  |    La          8     4491.50     237.29      0.02  -7.063E+01   0.01 |
  |    La          9     4600.19     546.53      0.08  -8.091E+01   0.17 |
  |    La         10     4607.99     510.97      0.08  -8.094E+01   0.06 |
  |    La         11     4600.19     546.53      0.08  -8.091E+01   0.17 |
  |    La         12     4561.89     381.43      0.05  -7.737E+01   0.08 |
  |    La         13     4491.50     237.29      0.02  -7.063E+01   0.01 |
  |    La         14     4607.99     510.96      0.08  -8.094E+01   0.06 |
  |    La         15     4561.89     381.43      0.05  -7.737E+01   0.08 |
  |    La         16     4535.93     398.94      0.08  -7.341E+01   0.09 |

 *********************** Forces ***********************
 *            Cartesian components (eV/A)             *
 *                   x            y            z      *
 * O         1      0.00276      0.00011      0.00047 *
 * O         2      0.00039      0.00105     -0.00065 *
 * O         3      0.00241     -0.00009      0.00801 *
 * O         4     -0.00468      0.00159     -0.00077 *
 * O         5     -0.00105     -0.00039      0.00065 *
 * O         6     -0.00011     -0.00276     -0.00047 *
 * O         7     -0.00159      0.00468      0.00077 *
 * O         8      0.00009     -0.00241     -0.00802 *
 * O         9     -0.00174      0.03310      0.02572 *
 * O        10     -0.00506      0.00113     -0.00277 *
 * O        11     -0.00728      0.00352      0.00203 *
 * O        12     -0.00403      0.02989      0.02852 *
 * O        13      0.02891     -0.00453      0.02140 *
 * O        14     -0.00953     -0.00140     -0.00075 *
 * O        15      0.00412     -0.01099     -0.00434 *
 * O        16     -0.00421     -0.00054     -0.00327 *
 * O        17      0.00692      0.00009      0.00590 *
 * O        18     -0.00173      0.00437     -0.01083 *
 * O        19      0.00411     -0.00491      0.00017 *
 * O        20      0.02331      0.02905      0.00045 *
 * O        21     -0.00113      0.00506      0.00277 *
 * O        22     -0.03310      0.00174     -0.02573 *
 * O        23     -0.02988      0.00403     -0.02851 *
 * O        24     -0.00352      0.00728     -0.00202 *
 * O        25      0.01099     -0.00412      0.00434 *
 * O        26      0.00054      0.00421      0.00327 *
 * O        27      0.00453     -0.02891     -0.02140 *
 * O        28      0.00140      0.00953      0.00076 *
 * O        29     -0.02904     -0.02331     -0.00045 *
 * O        30      0.00490     -0.00411     -0.00016 *
 * O        31     -0.00437      0.00173      0.01082 *
 * O        32     -0.00009     -0.00692     -0.00590 *
 * O        33      0.00123      0.00144     -0.00641 *
 * O        34      0.00206     -0.03301     -0.02994 *
 * O        35      0.01672      0.00160     -0.02034 *
 * O        36     -0.00541     -0.00767     -0.00697 *
 * O        37      0.00665     -0.00365      0.01158 *
 * O        38     -0.00050     -0.01008      0.00362 *
 * O        39     -0.00144     -0.00123      0.00641 *
 * O        40      0.03301     -0.00206      0.02993 *
 * O        41      0.00767      0.00541      0.00697 *
 * O        42     -0.00160     -0.01671      0.02034 *
 * O        43      0.01009      0.00050     -0.00362 *
 * O        44      0.00365     -0.00665     -0.01158 *
 * O        45      0.00028      0.01496      0.03143 *
 * O        46     -0.00704     -0.01079      0.00684 *
 * O        47     -0.00755      0.00980     -0.00263 *
 * O        48      0.01974      0.03044     -0.00516 *
 * O        49      0.01080      0.00704     -0.00684 *
 * O        50     -0.01496     -0.00028     -0.03143 *
 * O        51      0.00157      0.02161     -0.02007 *
 * O        52     -0.00298     -0.02297     -0.02827 *
 * O        53     -0.00981      0.00755      0.00263 *
 * O        54     -0.03045     -0.01974      0.00517 *
 * O        55     -0.02161     -0.00157      0.02007 *
 * O        56      0.02297      0.00298      0.02827 *
 * Zr        1      0.01471     -0.01471     -0.00000 *
 * Zr        2     -0.00381      0.00381      0.00000 *
 * Zr        3      0.00761      0.00914     -0.03446 *
 * Zr        4     -0.00914     -0.00760      0.03446 *
[...]
 * La        2     -0.00285      0.00285     -0.00000 *
 * La        3     -0.00172      0.00042     -0.01671 *
 * La        4     -0.00042      0.00171      0.01671 *
 * La        5     -0.00530      0.00529     -0.00000 *
 * La        6      0.01352     -0.01467     -0.00070 *
 * La        7      0.01467     -0.01352      0.00070 *
 * La        8      0.00082      0.00200     -0.00594 *
 * La        9      0.00425      0.00218     -0.00600 *
 * La       10     -0.00700      0.00189      0.01330 *
 * La       11     -0.00218     -0.00425      0.00600 *
 * La       12     -0.00966      0.00571      0.00443 *
 * La       13     -0.00199     -0.00082      0.00594 *
 * La       14     -0.00189      0.00700     -0.01330 *
 * La       15     -0.00571      0.00966     -0.00442 *
 * La       16      0.00789     -0.00789      0.00000 *

 ***************** Stress Tensor *****************
 *          Cartesian components (GPa)           *
 *             x             y             z     *
 *  x     -0.001091      0.004690      0.001770  *
 *  y      0.004690     -0.001091      0.001770  *
 *  z      0.001770      0.001770      0.002711  *
 *  Pressure:   -0.0002                          *

[...]

 Pseudo atomic calculation performed for Sn 4d10 5s2 5p2

[...]

 Pseudo atomic calculation performed for La 5s2 5p6 5d1 6s2

 Converged in 34 iterations to a total energy of -968.0372 eV

Charge spilling parameter for spin component 1 = 0.26%

     Atomic Populations (Mulliken)
Species   Ion     s      p      d      f     Total  Charge (e)
  O        1     1.87   5.00   0.00   0.00   6.87    -0.87
  O        2     1.87   5.00   0.00   0.00   6.87    -0.87
  O        3     1.87   5.00   0.00   0.00   6.87    -0.87
  O        4     1.87   5.00   0.00   0.00   6.87    -0.87
  O        5     1.87   5.00   0.00   0.00   6.87    -0.87
  O        6     1.87   5.00   0.00   0.00   6.87    -0.87
  O        7     1.87   5.00   0.00   0.00   6.87    -0.87
  O        8     1.87   5.00   0.00   0.00   6.87    -0.87
  O        9     1.87   4.99   0.00   0.00   6.86    -0.86
  O       10     1.88   5.03   0.00   0.00   6.91    -0.91
  O       11     1.88   5.03   0.00   0.00   6.91    -0.91
  O       12     1.87   4.99   0.00   0.00   6.86    -0.86
  O       13     1.87   4.99   0.00   0.00   6.86    -0.86
  O       14     1.88   5.03   0.00   0.00   6.91    -0.91
  O       15     1.88   5.03   0.00   0.00   6.91    -0.91
  O       16     1.88   5.03   0.00   0.00   6.91    -0.91
  O       17     1.89   5.03   0.00   0.00   6.91    -0.91
  O       18     1.88   5.03   0.00   0.00   6.91    -0.91
  O       19     1.88   5.03   0.00   0.00   6.91    -0.91
  O       20     1.87   4.99   0.00   0.00   6.86    -0.86
  O       21     1.88   5.03   0.00   0.00   6.91    -0.91
  O       22     1.87   4.99   0.00   0.00   6.86    -0.86
  O       23     1.87   4.99   0.00   0.00   6.86    -0.86
  O       24     1.88   5.03   0.00   0.00   6.91    -0.91
  O       25     1.88   5.03   0.00   0.00   6.91    -0.91
  O       26     1.88   5.03   0.00   0.00   6.91    -0.91
  O       27     1.87   4.99   0.00   0.00   6.86    -0.86
  O       28     1.88   5.03   0.00   0.00   6.91    -0.91
  O       29     1.87   4.99   0.00   0.00   6.86    -0.86
  O       30     1.88   5.03   0.00   0.00   6.91    -0.91
  O       31     1.88   5.03   0.00   0.00   6.91    -0.91
  O       32     1.89   5.03   0.00   0.00   6.91    -0.91
  O       33     1.88   5.03   0.00   0.00   6.91    -0.91
  O       34     1.87   4.99   0.00   0.00   6.86    -0.86
  O       35     1.87   4.99   0.00   0.00   6.86    -0.86
  O       36     1.89   5.03   0.00   0.00   6.91    -0.91
  O       37     1.88   5.03   0.00   0.00   6.91    -0.91
  O       38     1.86   4.95   0.00   0.00   6.81    -0.81
  O       39     1.88   5.03   0.00   0.00   6.91    -0.91
  O       40     1.87   4.99   0.00   0.00   6.86    -0.86
  O       41     1.89   5.03   0.00   0.00   6.91    -0.91
  O       42     1.87   4.99   0.00   0.00   6.86    -0.86
  O       43     1.86   4.95   0.00   0.00   6.81    -0.81
  O       44     1.88   5.03   0.00   0.00   6.91    -0.91
  O       45     1.87   4.99   0.00   0.00   6.86    -0.86
  O       46     1.88   5.03   0.00   0.00   6.91    -0.91
  O       47     1.88   5.03   0.00   0.00   6.91    -0.91
  O       48     1.87   4.99   0.00   0.00   6.86    -0.86
  O       49     1.88   5.03   0.00   0.00   6.91    -0.91
  O       50     1.87   4.99   0.00   0.00   6.86    -0.86
  O       51     1.87   4.99   0.00   0.00   6.86    -0.86
  O       52     1.87   4.99   0.00   0.00   6.86    -0.86
  O       53     1.88   5.03   0.00   0.00   6.91    -0.91
  O       54     1.87   4.99   0.00   0.00   6.86    -0.86
  O       55     1.87   4.99   0.00   0.00   6.86    -0.86
  O       56     1.87   4.99   0.00   0.00   6.86    -0.86
  Zr       1     2.36   6.49   1.92   0.00  10.77     1.23
  Zr       2     2.36   6.48   1.92   0.00  10.76     1.24
  Zr       3     2.36   6.48   1.92   0.00  10.76     1.24
  Zr       4     2.36   6.48   1.92   0.00  10.76     1.24
[...]
  La       2     2.09   6.19   1.19   0.00   9.48     1.52
  La       3     2.03   6.17   1.20   0.00   9.40     1.60
  La       4     2.03   6.17   1.20   0.00   9.40     1.60
  La       5     2.08   6.19   1.19   0.00   9.47     1.53
  La       6     2.05   6.18   1.20   0.00   9.43     1.57
  La       7     2.05   6.18   1.20   0.00   9.43     1.57
  La       8     2.13   6.19   1.19   0.00   9.52     1.48
  La       9     2.06   6.18   1.20   0.00   9.43     1.57
  La      10     2.05   6.18   1.19   0.00   9.43     1.57
  La      11     2.06   6.18   1.20   0.00   9.43     1.57
  La      12     2.07   6.20   1.19   0.00   9.46     1.54
  La      13     2.13   6.19   1.19   0.00   9.52     1.48
  La      14     2.05   6.18   1.19   0.00   9.43     1.57
  La      15     2.07   6.20   1.19   0.00   9.46     1.54
  La      16     2.10   6.18   1.20   0.00   9.47     1.53

            Bond              Population      Length (A)
         O 50 -- Sn 9              0.34        2.10258
         O 45 -- Sn 11             0.34        2.10258
         O 9  -- Sn 10             0.35        2.10378
         O 22 -- Sn 7              0.35        2.10378
         O 20 -- Sn 3              0.35        2.10418
         O 29 -- Sn 3              0.35        2.10418
         O 10 -- Sn 4              0.34        2.10420
         O 21 -- Sn 5              0.34        2.10420
         O 53 -- Sn 1              0.34        2.10431
         O 47 -- Sn 2              0.34        2.10431
         O 42 -- Sn 9              0.34        2.10498
         O 35 -- Sn 11             0.34        2.10498
         O 10 -- Sn 6              0.33        2.10592
         O 21 -- Sn 8              0.33        2.10592
         O 53 -- Sn 5              0.33        2.10605
         O 47 -- Sn 4              0.33        2.10605
         O 51 -- Sn 4              0.34        2.10636
         O 55 -- Sn 5              0.34        2.10636
         O 52 -- Sn 10             0.35        2.10670
         O 56 -- Sn 7              0.35        2.10670
         O 19 -- Sn 7              0.33        2.10761
         O 30 -- Sn 10             0.33        2.10761
         O 27 -- Sn 11             0.35        2.10771
         O 13 -- Sn 9              0.35        2.10771
         O 33 -- Sn 8              0.33        2.10895
         O 39 -- Sn 6              0.33        2.10895
         O 19 -- Sn 11             0.33        2.10978
         O 30 -- Sn 9              0.33        2.10978
         O 40 -- Sn 1              0.34        2.10983
         O 34 -- Sn 2              0.34        2.10983
         O 33 -- Sn 1              0.33        2.11000
         O 39 -- Sn 2              0.33        2.11000
         O 16 -- Sn 4              0.34        2.11022
         O 26 -- Sn 5              0.34        2.11022
         O 26 -- Sn 12             0.34        2.11064
         O 16 -- Sn 12             0.34        2.11064
         O 25 -- Sn 9              0.34        2.11081
         O 15 -- Sn 11             0.34        2.11081
         O 54 -- Sn 6              0.34        2.11196
         O 48 -- Sn 8              0.34        2.11196
         O 25 -- Sn 6              0.33        2.11212
         O 15 -- Sn 8              0.33        2.11212
         O 28 -- Sn 3              0.33        2.11245
         O 14 -- Sn 3              0.33        2.11245
         O 43 -- Zr 4              0.41        2.11319
         O 38 -- Zr 3              0.41        2.11319
         O 36 -- Sn 12             0.34        2.11347
         O 41 -- Sn 12             0.34        2.11347
         O 14 -- Sn 10             0.33        2.11383
         O 28 -- Sn 7              0.33        2.11383
         O 37 -- Sn 2              0.33        2.11383
         O 44 -- Sn 1              0.33        2.11383
         O 37 -- Sn 7              0.33        2.11424
         O 44 -- Sn 10             0.33        2.11424
         O 12 -- Sn 5              0.34        2.11434
         O 23 -- Sn 4              0.34        2.11434
         O 32 -- Sn 12             0.34        2.11486
         O 17 -- Sn 12             0.34        2.11486
         O 17 -- Sn 6              0.34        2.11494
         O 32 -- Sn 8              0.34        2.11494
[...]
         O 9  -- O 23             -0.03        2.82780
         O 38 -- O 42             -0.03        2.82823
         O 35 -- O 43             -0.03        2.82823
         O 27 -- O 40             -0.03        2.82873
         O 13 -- O 34             -0.03        2.82873
         O 48 -- O 52             -0.03        2.82921
         O 54 -- O 56             -0.03        2.82921
         O 51 -- O 55             -0.03        2.82999
         O 52 -- O 56             -0.03        2.83043
         O 20 -- O 27             -0.03        2.83086
         O 13 -- O 29             -0.03        2.83086
         O 48 -- O 50             -0.03        2.83086
         O 45 -- O 54             -0.03        2.83086
         O 12 -- O 29             -0.03        2.83191
         O 20 -- O 23             -0.03        2.83191

Writing analysis data to 17.castep_bin

Writing model to 17.check

 A BibTeX formatted list of references used in this run has been written to
 17.bib

Initialisation time =     54.56 s
Calculation time    =  34501.67 s
Finalisation time   =     49.53 s
Total time          =  34605.76 s

Overall parallel efficiency rating: Good (78%)

Data was distributed by:-
G-vector (4-way); efficiency rating: Very good (80%)
k-point (14-way); efficiency rating: Excellent (97%)