 Compiled for linux_x86_64_ifort16 on Sat, 23 Jul 2016 23:44:54 +0100
 from code version
 203e84763863+ Castep161_branch Fri, 04 Mar 2016 19:21:07 +0000
 Compiler: Intel Fortran 16.0.3.210; Optimisation: fast
 MATHLIBS: Intel MKL(11.3.3) (LAPACK version 3.6.0)
 FFT Lib : mkl
 Fundamental constants values: CODATA 2010

 Run started: Tue, 06 Mar 2018 20:48:37 +0000
 |           N   N    M   M    RRRR                |
 |           NN  N    MM MM    R   R               |
 |           N N N    M M M    RRRR                |
 |           N  NN    M   M    R  R                |
 |           N   N    M   M    R   R               |
 | Welcome to Materials Studio CASTEP-NMR          |
 | Authors:                                        |
 | J.R. Yates, C.J. Pickard, F. Mauri              |
 | Contributors:                                   |
 | T.F.G. Green, S.A. Joyce                        |
 | Copyright (c) 2004 - 2015                       |
 | Please cite the appropriate publications in all |
 | work arising from your use of CASTEP NMR.       |
 | For NMR Shielding Tensors cite:                 |
 |    "All-electron magnetic response with         |
 |    pseudopotentials: NMR chemical shifts",      |
 |    C. J. Pickard, F. Mauri;                     |
 |    Physical Review B63 245101 (2001), and       |
 |    "Calculation of NMR Chemical Shifts          |
 |    for extended systems using                   |
 |    Ultrasoft Pseudopotentials",                 |
 |    J. R. Yates, C. J. Pickard and F. Mauri      |
 |    Physical Review B76 024401 (2007)            |
 | For Electric Field Gradients cite:              |
 |   "Accurate First Principles Prediction of 17O  |
 |    NMR Parameters in SiO2: Assignment of the    |
 |    Zeolite Ferrierite Spectrum"                 |
 |    M. Profeta, F. Mauri and C. J. Pickard       |
 |    J. Amer. Chem. Soc. 125 541 (2003)           |
 | For Spin-Spin (J) Couplings cite:               |
 |   "A first principles theory of NMR J-coupling  |
 |   in solid-state systems"                       |
 |   S.A. Joyce, J.R. Yates, C.J. Pickard, F. Mauri|
 |   J. Chem. Phys. 127 204107 (2007)              |
 |   "Relativistic NMR J-coupling with ultrasoft   |
 |   pseudopotentials and the zeroth-order regular |
 |   approximation"                                |
 |   T.F.G. Green and J.R. Yates                   |
 |   J. Chem. Phys. 140 234106 (2014)              |

 Atomic calculation performed for O: 1s2 2s2 2p4

 Converged in 44 iterations to an ae energy of -2040.855 eV

 Atomic calculation performed for O: 1s2 2s2 2p4

 Exceeded max iterations: converged to 0.000000062 eV

   | Pseudopotential Report - Date of generation  6-03-2018   |
   | Element: O Ionic charge:  6.00 Level of theory: PBE      |
   | Atomic Solver: ZORA (scalar)                             |
   |               Reference Electronic Structure             |
   |         Orbital         Occupation         Energy        |
   |            2s              2.000           -0.881        |
   |            2p              4.000           -0.332        |
   |                 Pseudopotential Definition               |
   |        Beta     l      e      Rc     scheme   norm       |
   |          1      0   -0.881   1.100     qc      0         |
   |          2      0    0.250   1.100     qc      0         |
   |          3      1   -0.332   1.100     qc      0         |
   |          4      1    0.250   1.100     qc      0         |
   |         loc     2    0.000   1.100     pn      0         |
   | Augmentation charge Rinner = 0.769                       |
   | Partial core correction Rc = 0.769                       |
   | "2|1.1|15|18|20|20:21(qc=7)"                             |
   |      Author: Chris J. Pickard, Cambridge University      |

 Atomic calculation performed for Zr: 1s2 2s2 2p6 3s2 3p6 3d10 4s2 4p6 4d2 5s2

[...]

 Atomic calculation performed for Zr: 1s2 2s2 2p6 3s2 3p6 3d10 4s2 4p6 4d2 5s2

[...]

 Warning: ion_atom_descreen_psp: negative charge density encountered
   | Pseudopotential Report - Date of generation  6-03-2018   |
   | Element: Zr Ionic charge: 12.00 Level of theory: PBE     |
   | Atomic Solver: ZORA (scalar)                             |
   |               Reference Electronic Structure             |
   |         Orbital         Occupation         Energy        |
   |            4s              2.000           -2.003        |
   |            4p              6.000           -1.193        |
   |            5s              2.000           -0.163        |
   |            4d              2.000           -0.132        |
   |                 Pseudopotential Definition               |
   |        Beta     l      e      Rc     scheme   norm       |
   |          1      0   -2.003   2.105     qc      0         |
   |          2      0   -0.163   2.105     qc      0         |
   |          3      0    0.250   2.105     qc      0         |
   |          4      1   -1.193   2.105     qc      0         |
   |          5      1    0.250   2.105     qc      0         |
   |          6      2   -0.132   2.105     qc      0         |
   |          7      2    0.250   2.105     qc      0         |
   |         loc     3    0.000   2.105     pn      0         |
   | Augmentation charge Rinner = 1.471                       |
   | Partial core correction Rc = 1.471                       |
   | "3|2.1|7|8|9|40U:50:41:42"                               |
   |      Author: Chris J. Pickard, Cambridge University      |

 Atomic calculation performed for Sn:

[...]

 Atomic calculation performed for Sn:

[...]

   | Pseudopotential Report - Date of generation  6-03-2018   |
   | Element: Sn Ionic charge: 14.00 Level of theory: PBE     |
   | Atomic Solver: ZORA (scalar)                             |
   |               Reference Electronic Structure             |
   |         Orbital         Occupation         Energy        |
   |            4d             10.000           -0.950        |
   |            5s              2.000           -0.388        |
   |            5p              2.000           -0.136        |
   |                 Pseudopotential Definition               |
   |        Beta     l      e      Rc     scheme   norm       |
   |          1      0   -0.388   2.199     qc      0         |
   |          2      0    0.250   2.199     qc      0         |
   |          3      1   -0.136   2.199     qc      0         |
   |          4      1    0.250   2.199     qc      0         |
   |          5      2   -0.950   2.199     qc      0         |
   |          6      2    0.250   2.199     qc      0         |
   |         loc     3    0.000   2.199     pn      0         |
   | Augmentation charge Rinner = 1.537                       |
   | Partial core correction Rc = 1.537                       |
   | "3|2.2|7|8|9|50:51:42"                                   |
   |      Author: Chris J. Pickard, Cambridge University      |

 Atomic calculation performed for La:

 Converged in 56 iterations to an ae energy of -230121.495 eV

 Atomic calculation performed for La:

 Exceeded max iterations: converged to 0.000000907 eV

 Warning: ion_atom_descreen_psp: negative charge density encountered
   | Pseudopotential Report - Date of generation  6-03-2018   |
   | Element: La Ionic charge: 11.00 Level of theory: PBE     |
   | Atomic Solver: ZORA (scalar)                             |
   |               Reference Electronic Structure             |
   |         Orbital         Occupation         Energy        |
   |            5s              2.000           -1.430        |
   |            5p              6.000           -0.823        |
   |            6s              2.000           -0.135        |
   |            5d              1.000           -0.114        |
   |                 Pseudopotential Definition               |
   |        Beta     l      e      Rc     scheme   norm       |
   |          1      0   -1.430   2.298     qc      0         |
   |          2      0   -0.135   2.298     qc      0         |
   |          3      0    0.250   2.298     qc      0         |
   |          4      1   -0.823   2.298     qc      0         |
   |          5      1    0.250   2.298     qc      0         |
   |          6      2   -0.114   2.298     qc      0         |
   |          7      2    0.250   2.298     qc      0         |
   |         loc     2    0.000   2.298     pn      0         |
   | Augmentation charge Rinner = 1.606                       |
   | Partial core correction Rc = 1.606                       |
   | "2|2.3|5|6|7|50U:60:51:52(qc=4.5)"                       |
   |      Author: Chris J. Pickard, Cambridge University      |

 Pseudo atomic calculation performed for O 2s2 2p4

 Converged in 39 iterations to a total energy of -432.6554 eV

 Pseudo atomic calculation performed for Zr 4s2 4p6 4d2 5s2

[...]

 Calculation parallelised over 56 processes.
 Data is distributed by G-vector(4-way) and k-point(14-way)

 ************************************ Title ************************************
 nmr testing

 ***************************** General Parameters ******************************

 output verbosity                               : normal  (1)
 write checkpoint data to                       : 20.check
 type of calculation                            : Magnetic Resonance
 stress calculation                             : on
 density difference calculation                 : off
 electron localisation func (ELF) calculation   : off
 Hirshfeld analysis                             : off
 unlimited duration calculation
 timing information                             : on
 write final potential to formatted file        : off
 write final density to formatted file          : off
 write structure in CIF formatted file          : on
 write structure in CELL formatted file         : on
 write BibTeX reference list                    : on
 write OTFG pseudopotential files               : on
 checkpoint writing                             : both castep_bin and check files

 output         length unit                     : A
 output           mass unit                     : amu
 output           time unit                     : ps
 output         charge unit                     : e
 output           spin unit                     : hbar/2
 output         energy unit                     : eV
 output          force unit                     : eV/A
 output       velocity unit                     : A/ps
 output       pressure unit                     : GPa
 output     inv_length unit                     : 1/A
 output      frequency unit                     : cm-1
 output force constant unit                     : eV/A**2
 output         volume unit                     : A**3
 output   IR intensity unit                     : (D/A)**2/amu
 output         dipole unit                     : D
 output         efield unit                     : eV/A/e
 output        entropy unit                     : J/mol/K

 wavefunctions paging                           : none
 random number generator seed                   : randomised (204838416)
 data distribution                              : optimal for this architecture
[...]
  |    O          41      -88.72      88.37      0.11  -3.166E+00   0.03 |
  |    O          42       -8.05      56.02      0.82   3.882E+00   0.91 |
  |    O          43      -88.72      88.38      0.11  -3.166E+00   0.03 |
  |    O          44       -8.05      56.02      0.82   3.882E+00   0.91 |
  |    O          45      -88.72      88.37      0.11  -3.166E+00   0.03 |
  |    O          46       -8.05      56.02      0.82   3.882E+00   0.91 |
  |    O          47       -8.05      56.02      0.82   3.882E+00   0.91 |
  |    O          48      -88.72      88.38      0.11  -3.166E+00   0.03 |
  |    O          49       -8.05      56.02      0.82   3.882E+00   0.91 |
  |    O          50      -88.72      88.39      0.11  -3.166E+00   0.03 |
  |    O          51       -8.05      56.02      0.82   3.882E+00   0.91 |
  |    O          52      -88.72      88.38      0.11  -3.166E+00   0.03 |
  |    O          53       -8.05      56.02      0.82   3.882E+00   0.91 |
  |    O          54      -88.72      88.38      0.11  -3.166E+00   0.03 |
  |    O          55       -8.05      56.03      0.82   3.882E+00   0.91 |
  |    O          56      -88.73      88.38      0.11  -3.166E+00   0.03 |
  |    Zr          1     1600.45    -104.24      0.00  -3.374E+01   0.00 |
  |    Zr          2     1600.45    -104.25      0.00  -3.374E+01   0.00 |
  |    Zr          3     1600.45    -104.25      0.00  -3.374E+01   0.00 |
  |    Zr          4     1600.45    -104.25      0.00  -3.374E+01   0.00 |
[...]
  |    La          2     4607.76     539.10      0.05  -8.175E+01   0.15 |
  |    La          3     4607.77     539.10      0.05  -8.175E+01   0.15 |
  |    La          4     4607.76     539.10      0.05  -8.175E+01   0.15 |
  |    La          5     4607.76     539.10      0.05  -8.175E+01   0.15 |
  |    La          6     4607.77     539.10      0.05  -8.175E+01   0.15 |
  |    La          7     4607.77     539.09      0.05  -8.175E+01   0.15 |
  |    La          8     4482.79     242.01      0.00  -6.895E+01   0.00 |
  |    La          9     4607.77     539.10      0.05  -8.175E+01   0.15 |
  |    La         10     4607.77     539.10      0.05  -8.175E+01   0.15 |
  |    La         11     4607.76     539.11      0.05  -8.175E+01   0.15 |
  |    La         12     4607.77     539.11      0.05  -8.175E+01   0.15 |
  |    La         13     4482.79     242.01      0.00  -6.895E+01   0.00 |
  |    La         14     4607.76     539.09      0.05  -8.175E+01   0.15 |
  |    La         15     4607.76     539.09      0.05  -8.175E+01   0.15 |
  |    La         16     4482.78     242.01      0.00  -6.895E+01   0.00 |

 *********************** Forces ***********************
 *            Cartesian components (eV/A)             *
 *                   x            y            z      *
 * O         1      0.00185      0.00185      0.00185 *
 * O         2      0.00185      0.00185      0.00185 *
 * O         3      0.00185      0.00185      0.00185 *
 * O         4      0.00185      0.00185      0.00185 *
 * O         5     -0.00185     -0.00185     -0.00185 *
 * O         6     -0.00185     -0.00185     -0.00185 *
 * O         7     -0.00185     -0.00185     -0.00185 *
 * O         8     -0.00185     -0.00185     -0.00185 *
 * O         9     -0.00113      0.03250      0.03250 *
 * O        10     -0.00986     -0.00071     -0.00071 *
 * O        11     -0.00986     -0.00071     -0.00070 *
 * O        12     -0.00113      0.03250      0.03250 *
 * O        13      0.03250     -0.00113      0.03250 *
 * O        14     -0.00071     -0.00986     -0.00070 *
 * O        15     -0.00071     -0.00986     -0.00071 *
 * O        16      0.03250     -0.00113      0.03250 *
 * O        17      0.03250      0.03250     -0.00113 *
 * O        18     -0.00070     -0.00070     -0.00986 *
 * O        19     -0.00070     -0.00070     -0.00986 *
 * O        20      0.03250      0.03250     -0.00113 *
 * O        21      0.00071      0.00986      0.00071 *
 * O        22     -0.03250      0.00113     -0.03250 *
 * O        23     -0.03250      0.00113     -0.03250 *
 * O        24      0.00070      0.00986      0.00071 *
 * O        25      0.00986      0.00071      0.00071 *
 * O        26      0.00113     -0.03250     -0.03250 *
 * O        27      0.00113     -0.03250     -0.03250 *
 * O        28      0.00987      0.00071      0.00071 *
 * O        29     -0.03250     -0.03250      0.00113 *
 * O        30      0.00071      0.00071      0.00986 *
 * O        31      0.00070      0.00071      0.00986 *
 * O        32     -0.03250     -0.03250      0.00113 *
 * O        33      0.00986      0.00070      0.00071 *
 * O        34      0.00113     -0.03250     -0.03250 *
 * O        35      0.00071      0.00987      0.00071 *
 * O        36     -0.03250      0.00113     -0.03250 *
 * O        37      0.00071      0.00070      0.00986 *
 * O        38     -0.03250     -0.03250      0.00113 *
 * O        39     -0.00070     -0.00986     -0.00071 *
 * O        40      0.03250     -0.00113      0.03250 *
 * O        41     -0.00113      0.03250      0.03250 *
 * O        42     -0.00986     -0.00071     -0.00070 *
 * O        43      0.03250      0.03250     -0.00113 *
 * O        44     -0.00071     -0.00071     -0.00986 *
 * O        45     -0.00113      0.03250      0.03250 *
 * O        46     -0.00986     -0.00071     -0.00071 *
 * O        47     -0.00071     -0.00071     -0.00986 *
 * O        48      0.03250      0.03250     -0.00113 *
 * O        49      0.00071      0.00986      0.00070 *
 * O        50     -0.03250      0.00113     -0.03250 *
 * O        51      0.00986      0.00071      0.00070 *
 * O        52      0.00113     -0.03250     -0.03250 *
 * O        53      0.00071      0.00070      0.00986 *
 * O        54     -0.03250     -0.03250      0.00113 *
 * O        55     -0.00071     -0.00986     -0.00071 *
 * O        56      0.03250     -0.00113      0.03250 *
 * Zr        1      0.00001     -0.00000      0.00000 *
 * Zr        2      0.00000      0.00001      0.00000 *
 * Zr        3     -0.00000     -0.00000     -0.00000 *
 * Zr        4     -0.00000      0.00000      0.00000 *
[...]
 * La        2     -0.00000      0.00000     -0.00000 *
 * La        3     -0.00000     -0.00000     -0.00000 *
 * La        4      0.00000     -0.00000      0.00000 *
 * La        5     -0.00000     -0.00000     -0.00001 *
 * La        6      0.00000     -0.00000      0.00000 *
 * La        7      0.00001      0.00000     -0.00000 *
 * La        8     -0.00000     -0.00000     -0.00001 *
 * La        9      0.00000     -0.00000      0.00001 *
 * La       10      0.00000      0.00000      0.00000 *
 * La       11     -0.00000      0.00000      0.00001 *
 * La       12     -0.00000      0.00000     -0.00000 *
 * La       13      0.00001      0.00001     -0.00000 *
 * La       14     -0.00001     -0.00000     -0.00000 *
 * La       15     -0.00001      0.00000      0.00000 *
 * La       16      0.00000     -0.00000      0.00000 *

 ***************** Stress Tensor *****************
 *          Cartesian components (GPa)           *
 *             x             y             z     *
 *  x      0.000474      0.001435      0.001434  *
 *  y      0.001435      0.000474      0.001434  *
 *  z      0.001434      0.001434      0.000475  *
 *  Pressure:   -0.0005                          *

[...]

 Pseudo atomic calculation performed for Sn 4d10 5s2 5p2

[...]

 Pseudo atomic calculation performed for La 5s2 5p6 5d1 6s2

 Converged in 34 iterations to a total energy of -968.0372 eV

Charge spilling parameter for spin component 1 = 0.26%

     Atomic Populations (Mulliken)
Species   Ion     s      p      d      f     Total  Charge (e)
  O        1     1.87   5.00   0.00   0.00   6.87    -0.87
  O        2     1.87   5.00   0.00   0.00   6.87    -0.87
  O        3     1.87   5.00   0.00   0.00   6.87    -0.87
  O        4     1.87   5.00   0.00   0.00   6.87    -0.87
  O        5     1.87   5.00   0.00   0.00   6.87    -0.87
  O        6     1.87   5.00   0.00   0.00   6.87    -0.87
  O        7     1.87   5.00   0.00   0.00   6.87    -0.87
  O        8     1.87   5.00   0.00   0.00   6.87    -0.87
  O        9     1.87   4.99   0.00   0.00   6.86    -0.86
  O       10     1.88   5.03   0.00   0.00   6.91    -0.91
  O       11     1.88   5.03   0.00   0.00   6.91    -0.91
  O       12     1.87   4.99   0.00   0.00   6.86    -0.86
  O       13     1.87   4.99   0.00   0.00   6.86    -0.86
  O       14     1.88   5.03   0.00   0.00   6.91    -0.91
  O       15     1.88   5.03   0.00   0.00   6.91    -0.91
  O       16     1.87   4.99   0.00   0.00   6.86    -0.86
  O       17     1.87   4.99   0.00   0.00   6.86    -0.86
  O       18     1.88   5.03   0.00   0.00   6.91    -0.91
  O       19     1.88   5.03   0.00   0.00   6.91    -0.91
  O       20     1.87   4.99   0.00   0.00   6.86    -0.86
  O       21     1.88   5.03   0.00   0.00   6.91    -0.91
  O       22     1.87   4.99   0.00   0.00   6.86    -0.86
  O       23     1.87   4.99   0.00   0.00   6.86    -0.86
  O       24     1.88   5.03   0.00   0.00   6.91    -0.91
  O       25     1.88   5.03   0.00   0.00   6.91    -0.91
  O       26     1.87   4.99   0.00   0.00   6.86    -0.86
  O       27     1.87   4.99   0.00   0.00   6.86    -0.86
  O       28     1.88   5.03   0.00   0.00   6.91    -0.91
  O       29     1.87   4.99   0.00   0.00   6.86    -0.86
  O       30     1.88   5.03   0.00   0.00   6.91    -0.91
  O       31     1.88   5.03   0.00   0.00   6.91    -0.91
  O       32     1.87   4.99   0.00   0.00   6.86    -0.86
  O       33     1.88   5.03   0.00   0.00   6.91    -0.91
  O       34     1.87   4.99   0.00   0.00   6.86    -0.86
  O       35     1.88   5.03   0.00   0.00   6.91    -0.91
  O       36     1.87   4.99   0.00   0.00   6.86    -0.86
  O       37     1.88   5.03   0.00   0.00   6.91    -0.91
  O       38     1.87   4.99   0.00   0.00   6.86    -0.86
  O       39     1.88   5.03   0.00   0.00   6.91    -0.91
  O       40     1.87   4.99   0.00   0.00   6.86    -0.86
  O       41     1.87   4.99   0.00   0.00   6.86    -0.86
  O       42     1.88   5.03   0.00   0.00   6.91    -0.91
  O       43     1.87   4.99   0.00   0.00   6.86    -0.86
  O       44     1.88   5.03   0.00   0.00   6.91    -0.91
  O       45     1.87   4.99   0.00   0.00   6.86    -0.86
  O       46     1.88   5.03   0.00   0.00   6.91    -0.91
  O       47     1.88   5.03   0.00   0.00   6.91    -0.91
  O       48     1.87   4.99   0.00   0.00   6.86    -0.86
  O       49     1.88   5.03   0.00   0.00   6.91    -0.91
  O       50     1.87   4.99   0.00   0.00   6.86    -0.86
  O       51     1.88   5.03   0.00   0.00   6.91    -0.91
  O       52     1.87   4.99   0.00   0.00   6.86    -0.86
  O       53     1.88   5.03   0.00   0.00   6.91    -0.91
  O       54     1.87   4.99   0.00   0.00   6.86    -0.86
  O       55     1.88   5.03   0.00   0.00   6.91    -0.91
  O       56     1.87   4.99   0.00   0.00   6.86    -0.86
  Zr       1     2.36   6.50   1.92   0.00  10.77     1.23
  Zr       2     2.36   6.50   1.92   0.00  10.77     1.23
  Zr       3     2.36   6.50   1.92   0.00  10.77     1.23
  Zr       4     2.36   6.50   1.92   0.00  10.77     1.23
[...]
  La       2     2.05   6.18   1.20   0.00   9.43     1.57
  La       3     2.05   6.18   1.20   0.00   9.43     1.57
  La       4     2.05   6.18   1.20   0.00   9.43     1.57
  La       5     2.05   6.18   1.20   0.00   9.43     1.57
  La       6     2.05   6.18   1.20   0.00   9.43     1.57
  La       7     2.05   6.18   1.20   0.00   9.43     1.57
  La       8     2.14   6.19   1.19   0.00   9.52     1.48
  La       9     2.05   6.18   1.20   0.00   9.43     1.57
  La      10     2.05   6.18   1.20   0.00   9.43     1.57
  La      11     2.05   6.18   1.20   0.00   9.43     1.57
  La      12     2.05   6.18   1.20   0.00   9.43     1.57
  La      13     2.14   6.19   1.19   0.00   9.52     1.48
  La      14     2.05   6.18   1.20   0.00   9.43     1.57
  La      15     2.05   6.18   1.20   0.00   9.43     1.57
  La      16     2.14   6.19   1.19   0.00   9.52     1.48

            Bond              Population      Length (A)
         O 26 -- Sn 6              0.34        2.10841
         O 41 -- Sn 3              0.34        2.10841
         O 56 -- Sn 8              0.34        2.10841
         O 22 -- Sn 8              0.34        2.10841
         O 34 -- Sn 3              0.34        2.10841
         O 12 -- Sn 6              0.34        2.10841
         O 43 -- Sn 1              0.34        2.10841
         O 50 -- Sn 10             0.34        2.10841
         O 32 -- Sn 9              0.34        2.10841
         O 38 -- Sn 1              0.34        2.10841
         O 17 -- Sn 7              0.34        2.10841
         O 16 -- Sn 5              0.34        2.10841
         O 48 -- Sn 9              0.34        2.10841
         O 29 -- Sn 4              0.34        2.10841
         O 13 -- Sn 10             0.34        2.10841
         O 36 -- Sn 2              0.34        2.10841
         O 54 -- Sn 7              0.34        2.10841
         O 20 -- Sn 4              0.34        2.10841
         O 52 -- Sn 11             0.34        2.10841
         O 23 -- Sn 5              0.34        2.10841
         O 45 -- Sn 12             0.34        2.10841
         O 9  -- Sn 11             0.34        2.10841
         O 40 -- Sn 2              0.34        2.10841
         O 27 -- Sn 12             0.34        2.10841
         O 55 -- Sn 1              0.33        2.11169
         O 21 -- Sn 9              0.33        2.11169
         O 47 -- Sn 5              0.33        2.11169
         O 37 -- Sn 8              0.33        2.11169
         O 35 -- Sn 12             0.33        2.11169
         O 49 -- Sn 4              0.33        2.11169
         O 18 -- Sn 10             0.33        2.11169
         O 28 -- Sn 4              0.33        2.11169
         O 53 -- Sn 2              0.33        2.11169
         O 46 -- Sn 2              0.33        2.11169
         O 39 -- Sn 7              0.33        2.11169
         O 44 -- Sn 11             0.33        2.11169
         O 19 -- Sn 12             0.33        2.11169
         O 11 -- Sn 9              0.33        2.11169
         O 33 -- Sn 2              0.33        2.11169
         O 24 -- Sn 11             0.33        2.11169
         O 51 -- Sn 5              0.33        2.11169
         O 14 -- Sn 11             0.33        2.11169
         O 55 -- Sn 6              0.33        2.11169
         O 30 -- Sn 11             0.33        2.11169
         O 15 -- Sn 12             0.33        2.11169
         O 37 -- Sn 3              0.33        2.11169
         O 18 -- Sn 6              0.33        2.11169
         O 31 -- Sn 12             0.33        2.11169
         O 42 -- Sn 10             0.33        2.11169
         O 31 -- Sn 5              0.33        2.11169
         O 51 -- Sn 1              0.33        2.11169
         O 39 -- Sn 3              0.33        2.11169
         O 25 -- Sn 7              0.33        2.11169
         O 44 -- Sn 2              0.33        2.11169
         O 14 -- Sn 4              0.33        2.11169
         O 25 -- Sn 10             0.33        2.11169
         O 10 -- Sn 7              0.33        2.11169
         O 49 -- Sn 3              0.33        2.11169
         O 10 -- Sn 5              0.33        2.11169
         O 53 -- Sn 6              0.33        2.11169
[...]
         O 9  -- O 38             -0.03        2.82726
         O 20 -- O 23             -0.03        2.82726
         O 52 -- O 56             -0.03        2.82726
         O 38 -- O 40             -0.03        2.82726
         O 48 -- O 50             -0.03        2.82726
         O 36 -- O 41             -0.03        2.82726
         O 12 -- O 29             -0.03        2.82726
         O 17 -- O 26             -0.03        2.82726
         O 16 -- O 26             -0.03        2.82726
         O 54 -- O 56             -0.03        2.82726
         O 22 -- O 43             -0.03        2.82726
         O 32 -- O 41             -0.03        2.82726
         O 34 -- O 43             -0.03        2.82726
         O 13 -- O 34             -0.03        2.82726
         O 12 -- O 22             -0.03        2.82726

Writing analysis data to 20.castep_bin

Writing model to 20.check

 A BibTeX formatted list of references used in this run has been written to
 20.bib

Initialisation time =     53.91 s
Calculation time    =  33859.09 s
Finalisation time   =     77.51 s
Total time          =  33990.51 s

Overall parallel efficiency rating: Good (78%)

Data was distributed by:-
G-vector (4-way); efficiency rating: Good (79%)
k-point (14-way); efficiency rating: Excellent (98%)