 Compiled for linux_x86_64_ifort16 on Sat, 23 Jul 2016 23:44:54 +0100
 from code version
 203e84763863+ Castep161_branch Fri, 04 Mar 2016 19:21:07 +0000
 Compiler: Intel Fortran 16.0.3.210; Optimisation: fast
 MATHLIBS: Intel MKL(11.3.3) (LAPACK version 3.6.0)
 FFT Lib : mkl
 Fundamental constants values: CODATA 2010

 Run started: Sun, 25 Mar 2018 20:36:44 +0100
 |           N   N    M   M    RRRR                |
 |           NN  N    MM MM    R   R               |
 |           N N N    M M M    RRRR                |
 |           N  NN    M   M    R  R                |
 |           N   N    M   M    R   R               |
 | Welcome to Materials Studio CASTEP-NMR          |
 | Authors:                                        |
 | J.R. Yates, C.J. Pickard, F. Mauri              |
 | Contributors:                                   |
 | T.F.G. Green, S.A. Joyce                        |
 | Copyright (c) 2004 - 2015                       |
 | Please cite the appropriate publications in all |
 | work arising from your use of CASTEP NMR.       |
 | For NMR Shielding Tensors cite:                 |
 |    "All-electron magnetic response with         |
 |    pseudopotentials: NMR chemical shifts",      |
 |    C. J. Pickard, F. Mauri;                     |
 |    Physical Review B63 245101 (2001), and       |
 |    "Calculation of NMR Chemical Shifts          |
 |    for extended systems using                   |
 |    Ultrasoft Pseudopotentials",                 |
 |    J. R. Yates, C. J. Pickard and F. Mauri      |
 |    Physical Review B76 024401 (2007)            |
 | For Electric Field Gradients cite:              |
 |   "Accurate First Principles Prediction of 17O  |
 |    NMR Parameters in SiO2: Assignment of the    |
 |    Zeolite Ferrierite Spectrum"                 |
 |    M. Profeta, F. Mauri and C. J. Pickard       |
 |    J. Amer. Chem. Soc. 125 541 (2003)           |
 | For Spin-Spin (J) Couplings cite:               |
 |   "A first principles theory of NMR J-coupling  |
 |   in solid-state systems"                       |
 |   S.A. Joyce, J.R. Yates, C.J. Pickard, F. Mauri|
 |   J. Chem. Phys. 127 204107 (2007)              |
 |   "Relativistic NMR J-coupling with ultrasoft   |
 |   pseudopotentials and the zeroth-order regular |
 |   approximation"                                |
 |   T.F.G. Green and J.R. Yates                   |
 |   J. Chem. Phys. 140 234106 (2014)              |

 Atomic calculation performed for O: 1s2 2s2 2p4

 Converged in 44 iterations to an ae energy of -2040.855 eV

 Atomic calculation performed for O: 1s2 2s2 2p4

 Exceeded max iterations: converged to 0.000000062 eV

   | Pseudopotential Report - Date of generation 25-03-2018   |
   | Element: O Ionic charge:  6.00 Level of theory: PBE      |
   | Atomic Solver: ZORA (scalar)                             |
   |               Reference Electronic Structure             |
   |         Orbital         Occupation         Energy        |
   |            2s              2.000           -0.881        |
   |            2p              4.000           -0.332        |
   |                 Pseudopotential Definition               |
   |        Beta     l      e      Rc     scheme   norm       |
   |          1      0   -0.881   1.100     qc      0         |
   |          2      0    0.250   1.100     qc      0         |
   |          3      1   -0.332   1.100     qc      0         |
   |          4      1    0.250   1.100     qc      0         |
   |         loc     2    0.000   1.100     pn      0         |
   | Augmentation charge Rinner = 0.769                       |
   | Partial core correction Rc = 0.769                       |
   | "2|1.1|15|18|20|20:21(qc=7)"                             |
   |      Author: Chris J. Pickard, Cambridge University      |

 Atomic calculation performed for Zr: 1s2 2s2 2p6 3s2 3p6 3d10 4s2 4p6 4d2 5s2

[...]

 Atomic calculation performed for Zr: 1s2 2s2 2p6 3s2 3p6 3d10 4s2 4p6 4d2 5s2

[...]

 Warning: ion_atom_descreen_psp: negative charge density encountered
   | Pseudopotential Report - Date of generation 25-03-2018   |
   | Element: Zr Ionic charge: 12.00 Level of theory: PBE     |
   | Atomic Solver: ZORA (scalar)                             |
   |               Reference Electronic Structure             |
   |         Orbital         Occupation         Energy        |
   |            4s              2.000           -2.003        |
   |            4p              6.000           -1.193        |
   |            5s              2.000           -0.163        |
   |            4d              2.000           -0.132        |
   |                 Pseudopotential Definition               |
   |        Beta     l      e      Rc     scheme   norm       |
   |          1      0   -2.003   2.105     qc      0         |
   |          2      0   -0.163   2.105     qc      0         |
   |          3      0    0.250   2.105     qc      0         |
   |          4      1   -1.193   2.105     qc      0         |
   |          5      1    0.250   2.105     qc      0         |
   |          6      2   -0.132   2.105     qc      0         |
   |          7      2    0.250   2.105     qc      0         |
   |         loc     3    0.000   2.105     pn      0         |
   | Augmentation charge Rinner = 1.471                       |
   | Partial core correction Rc = 1.471                       |
   | "3|2.1|7|8|9|40U:50:41:42"                               |
   |      Author: Chris J. Pickard, Cambridge University      |

 Atomic calculation performed for Sn:

[...]

 Atomic calculation performed for Sn:

[...]

   | Pseudopotential Report - Date of generation 25-03-2018   |
   | Element: Sn Ionic charge: 14.00 Level of theory: PBE     |
   | Atomic Solver: ZORA (scalar)                             |
   |               Reference Electronic Structure             |
   |         Orbital         Occupation         Energy        |
   |            4d             10.000           -0.950        |
   |            5s              2.000           -0.388        |
   |            5p              2.000           -0.136        |
   |                 Pseudopotential Definition               |
   |        Beta     l      e      Rc     scheme   norm       |
   |          1      0   -0.388   2.199     qc      0         |
   |          2      0    0.250   2.199     qc      0         |
   |          3      1   -0.136   2.199     qc      0         |
   |          4      1    0.250   2.199     qc      0         |
   |          5      2   -0.950   2.199     qc      0         |
   |          6      2    0.250   2.199     qc      0         |
   |         loc     3    0.000   2.199     pn      0         |
   | Augmentation charge Rinner = 1.537                       |
   | Partial core correction Rc = 1.537                       |
   | "3|2.2|7|8|9|50:51:42"                                   |
   |      Author: Chris J. Pickard, Cambridge University      |

 Atomic calculation performed for La:

 Converged in 56 iterations to an ae energy of -230121.495 eV

 Atomic calculation performed for La:

 Exceeded max iterations: converged to 0.000000907 eV

 Warning: ion_atom_descreen_psp: negative charge density encountered
   | Pseudopotential Report - Date of generation 25-03-2018   |
   | Element: La Ionic charge: 11.00 Level of theory: PBE     |
   | Atomic Solver: ZORA (scalar)                             |
   |               Reference Electronic Structure             |
   |         Orbital         Occupation         Energy        |
   |            5s              2.000           -1.430        |
   |            5p              6.000           -0.823        |
   |            6s              2.000           -0.135        |
   |            5d              1.000           -0.114        |
   |                 Pseudopotential Definition               |
   |        Beta     l      e      Rc     scheme   norm       |
   |          1      0   -1.430   2.298     qc      0         |
   |          2      0   -0.135   2.298     qc      0         |
   |          3      0    0.250   2.298     qc      0         |
   |          4      1   -0.823   2.298     qc      0         |
   |          5      1    0.250   2.298     qc      0         |
   |          6      2   -0.114   2.298     qc      0         |
   |          7      2    0.250   2.298     qc      0         |
   |         loc     2    0.000   2.298     pn      0         |
   | Augmentation charge Rinner = 1.606                       |
   | Partial core correction Rc = 1.606                       |
   | "2|2.3|5|6|7|50U:60:51:52(qc=4.5)"                       |
   |      Author: Chris J. Pickard, Cambridge University      |

 Pseudo atomic calculation performed for O 2s2 2p4

 Converged in 39 iterations to a total energy of -432.6554 eV

 Pseudo atomic calculation performed for Zr 4s2 4p6 4d2 5s2

[...]

 Calculation parallelised over 56 processes.
 Data is distributed by G-vector(4-way) and k-point(14-way)

 ************************************ Title ************************************
 nmr testing

 ***************************** General Parameters ******************************

 output verbosity                               : normal  (1)
 write checkpoint data to                       : 003.check
 type of calculation                            : Magnetic Resonance
 stress calculation                             : on
 density difference calculation                 : off
 electron localisation func (ELF) calculation   : off
 Hirshfeld analysis                             : off
 unlimited duration calculation
 timing information                             : on
 write final potential to formatted file        : off
 write final density to formatted file          : off
 write structure in CIF formatted file          : on
 write structure in CELL formatted file         : on
 write BibTeX reference list                    : on
 write OTFG pseudopotential files               : on
 checkpoint writing                             : both castep_bin and check files

 output         length unit                     : A
 output           mass unit                     : amu
 output           time unit                     : ps
 output         charge unit                     : e
 output           spin unit                     : hbar/2
 output         energy unit                     : eV
 output          force unit                     : eV/A
 output       velocity unit                     : A/ps
 output       pressure unit                     : GPa
 output     inv_length unit                     : 1/A
 output      frequency unit                     : cm-1
 output force constant unit                     : eV/A**2
 output         volume unit                     : A**3
 output   IR intensity unit                     : (D/A)**2/amu
 output         dipole unit                     : D
 output         efield unit                     : eV/A/e
 output        entropy unit                     : J/mol/K

 wavefunctions paging                           : none
 random number generator seed                   : randomised (203645704)
 data distribution                              : optimal for this architecture
[...]
  |    O          42      -88.76      84.92      0.21  -3.184E+00   0.05 |
  |    O          43      -87.66      85.58      0.24  -3.186E+00   0.06 |
  |    O          44      -91.06      94.35      0.28  -3.152E+00   0.07 |
  |    O          45      -88.11      84.35      0.07  -3.233E+00   0.08 |
  |    O          46     -162.36     145.91      0.87   1.024E+00   0.71 |
  |    O          47      -86.40      86.06      0.07  -3.211E+00   0.09 |
  |    O          48      -89.17      82.09      0.21  -3.163E+00   0.08 |
  |    O          49     -160.68     146.27      0.87   1.063E+00   0.68 |
  |    O          50      -86.18      84.73      0.19  -3.178E+00   0.06 |
  |    O          51      -87.64      85.63      0.24  -3.186E+00   0.06 |
  |    O          52      -90.98      94.41      0.28  -3.152E+00   0.07 |
  |    O          53      -88.17      84.63      0.07  -3.233E+00   0.08 |
  |    O          54     -162.31     146.14      0.87   1.025E+00   0.71 |
  |    O          55      -90.63      85.02      0.23  -3.147E+00   0.06 |
  |    O          56      -91.94      93.33      0.23  -3.218E+00   0.09 |
  |    Zr          1     1610.68    -118.28      0.12  -3.513E+01   0.02 |
  |    Zr          2     1595.53    -111.61      0.01  -3.424E+01   0.03 |
  |    Zr          3     1610.37    -118.35      0.13  -3.515E+01   0.01 |
  |    Zr          4     1624.46    -127.33      0.16  -3.600E+01   0.13 |
[...]
  |    La          2     4645.79     654.72      0.01  -8.250E+01   0.04 |
  |    La          3     4701.80     764.55      0.03  -8.788E+01   0.04 |
  |    La          4     4657.20     647.12      0.00  -8.549E+01   0.03 |
  |    La          5     4546.42     381.88      0.05  -7.364E+01   0.09 |
  |    La          6     4607.26     520.75      0.07  -7.916E+01   0.08 |
  |    La          7     4653.42     655.65      0.08  -8.265E+01   0.13 |
  |    La          8     4605.99     505.08      0.08  -7.794E+01   0.06 |
  |    La          9     4546.40     381.39      0.05  -7.361E+01   0.09 |
  |    La         10     4607.79     546.01      0.05  -7.914E+01   0.16 |
  |    La         11     4539.46     388.28      0.06  -7.251E+01   0.10 |
  |    La         12     4605.99     505.03      0.08  -7.799E+01   0.06 |
  |    La         13     4607.21     520.44      0.07  -7.910E+01   0.08 |
  |    La         14     4556.38     373.67      0.05  -7.486E+01   0.07 |
  |    La         15     4653.47     656.08      0.08  -8.266E+01   0.13 |
  |    La         16     4607.85     546.26      0.05  -7.909E+01   0.16 |

 *********************** Forces ***********************
 *            Cartesian components (eV/A)             *
 *                   x            y            z      *
 * O         1     -0.00664     -0.00205     -0.00028 *
 * O         2     -0.00121      0.00205     -0.00185 *
 * O         3      0.00166     -0.00549      0.00101 *
 * O         4     -0.00207     -0.00175     -0.00308 *
 * O         5     -0.00042     -0.00283     -0.00078 *
 * O         6      0.00218      0.00480      0.00171 *
 * O         7      0.00011      0.00245     -0.00611 *
 * O         8     -0.00257      0.00036     -0.00122 *
 * O         9     -0.00054      0.00075     -0.00743 *
 * O        10      0.00473     -0.03316      0.02493 *
 * O        11      0.00197      0.00092      0.00235 *
 * O        12      0.00645      0.00040      0.00371 *
 * O        13     -0.00090     -0.00115      0.00225 *
 * O        14     -0.02600      0.00577      0.02857 *
 * O        15     -0.00472     -0.00205      0.01361 *
 * O        16      0.00145      0.00657     -0.00169 *
 * O        17     -0.03384     -0.02639     -0.00658 *
 * O        18     -0.01082      0.00637     -0.00106 *
 * O        19     -0.00176      0.00693      0.00007 *
 * O        20     -0.03744     -0.01665     -0.00657 *
 * O        21      0.01403      0.00203     -0.00530 *
 * O        22     -0.00097     -0.00647      0.00132 *
 * O        23      0.00243      0.00079     -0.00059 *
 * O        24      0.02417     -0.00377     -0.02200 *
 * O        25     -0.00665      0.01659     -0.03530 *
 * O        26     -0.00053     -0.00568     -0.00099 *
 * O        27     -0.00149     -0.00660     -0.01203 *
 * O        28     -0.00757      0.02489     -0.02993 *
 * O        29      0.02369      0.03334      0.00632 *
 * O        30     -0.00650      0.00017     -0.00070 *
 * O        31      0.00333     -0.00073      0.00645 *
 * O        32      0.00267      0.00016      0.00050 *
 * O        33      0.00237     -0.01420      0.01087 *
 * O        34      0.00052      0.02328      0.01426 *
 * O        35      0.01385     -0.00296     -0.03020 *
 * O        36      0.01321     -0.00970      0.01885 *
 * O        37     -0.02664      0.01126      0.00218 *
 * O        38      0.02283      0.01517     -0.00407 *
 * O        39     -0.00018     -0.00232      0.00991 *
 * O        40     -0.01721      0.00208     -0.00506 *
 * O        41      0.00367     -0.01209     -0.02977 *
 * O        42     -0.00367     -0.01530      0.02349 *
 * O        43     -0.00969     -0.03220     -0.00224 *
 * O        44     -0.00497      0.01571     -0.00509 *
 * O        45      0.00102      0.01114      0.02230 *
 * O        46      0.00010     -0.00680      0.00839 *
 * O        47      0.01560     -0.02314     -0.00102 *
 * O        48      0.00853      0.01378      0.00134 *
 * O        49      0.00827      0.00490      0.00109 *
 * O        50     -0.00907     -0.00082     -0.02076 *
 * O        51     -0.00158      0.03193     -0.01056 *
 * O        52     -0.00530     -0.01588     -0.00838 *
 * O        53      0.02359     -0.01130      0.00292 *
 * O        54      0.00306      0.00579      0.00036 *
 * O        55     -0.02904      0.00193      0.01339 *
 * O        56      0.01488      0.01102      0.00903 *
 * Zr        1     -0.00178      0.01291     -0.02379 *
 * Zr        2      0.00535      0.00081      0.00571 *
 * Zr        3     -0.01249     -0.01438     -0.00495 *
 * Zr        4     -0.01834     -0.00209     -0.00011 *
[...]
 * La        2      0.00270      0.00262      0.00662 *
 * La        3     -0.00382      0.01503      0.00991 *
 * La        4      0.00637      0.00172      0.00353 *
 * La        5     -0.00506     -0.00018      0.00071 *
 * La        6     -0.00033      0.00161     -0.00127 *
 * La        7      0.00662     -0.01205      0.01768 *
 * La        8     -0.00608      0.01529     -0.00343 *
 * La        9     -0.00046      0.00226     -0.00446 *
 * La       10      0.00850      0.01172      0.00383 *
 * La       11      0.01117     -0.00014      0.01094 *
 * La       12     -0.00261     -0.01273     -0.00344 *
 * La       13     -0.00317      0.00090     -0.00151 *
 * La       14     -0.00946     -0.00042     -0.00849 *
 * La       15      0.01897      0.01459      0.00272 *
 * La       16      0.00418     -0.01044      0.00621 *

 ***************** Stress Tensor *****************
 *          Cartesian components (GPa)           *
 *             x             y             z     *
 *  x      0.000052      0.004956     -0.007002  *
 *  y      0.004956     -0.004310     -0.004900  *
 *  z     -0.007002     -0.004900      0.003280  *
 *  Pressure:    0.0003                          *

[...]

 Pseudo atomic calculation performed for Sn 4d10 5s2 5p2

[...]

 Pseudo atomic calculation performed for La 5s2 5p6 5d1 6s2

 Converged in 34 iterations to a total energy of -968.0372 eV

Charge spilling parameter for spin component 1 = 0.25%

     Atomic Populations (Mulliken)
Species   Ion     s      p      d      f     Total  Charge (e)
  O        1     1.87   5.00   0.00   0.00   6.87    -0.87
  O        2     1.87   5.00   0.00   0.00   6.87    -0.87
  O        3     1.87   5.00   0.00   0.00   6.87    -0.87
  O        4     1.87   5.00   0.00   0.00   6.87    -0.87
  O        5     1.87   5.00   0.00   0.00   6.87    -0.87
  O        6     1.87   5.00   0.00   0.00   6.87    -0.87
  O        7     1.87   5.00   0.00   0.00   6.87    -0.87
  O        8     1.87   5.00   0.00   0.00   6.87    -0.87
  O        9     1.88   5.03   0.00   0.00   6.91    -0.91
  O       10     1.87   4.99   0.00   0.00   6.86    -0.86
  O       11     1.88   5.03   0.00   0.00   6.91    -0.91
  O       12     1.88   5.03   0.00   0.00   6.91    -0.91
  O       13     1.88   5.03   0.00   0.00   6.91    -0.91
  O       14     1.87   4.99   0.00   0.00   6.86    -0.86
  O       15     1.88   5.02   0.00   0.00   6.91    -0.91
  O       16     1.88   5.02   0.00   0.00   6.91    -0.91
  O       17     1.87   4.99   0.00   0.00   6.86    -0.86
  O       18     1.88   5.03   0.00   0.00   6.91    -0.91
  O       19     1.88   5.03   0.00   0.00   6.91    -0.91
  O       20     1.87   4.99   0.00   0.00   6.86    -0.86
  O       21     1.88   5.03   0.00   0.00   6.91    -0.91
  O       22     1.88   5.02   0.00   0.00   6.91    -0.91
  O       23     1.88   5.03   0.00   0.00   6.91    -0.91
  O       24     1.87   4.99   0.00   0.00   6.86    -0.86
  O       25     1.87   4.99   0.00   0.00   6.86    -0.86
  O       26     1.88   5.03   0.00   0.00   6.91    -0.91
  O       27     1.88   5.03   0.00   0.00   6.91    -0.91
  O       28     1.87   4.99   0.00   0.00   6.86    -0.86
  O       29     1.87   4.99   0.00   0.00   6.86    -0.86
  O       30     1.88   5.03   0.00   0.00   6.91    -0.91
  O       31     1.88   5.03   0.00   0.00   6.91    -0.91
  O       32     1.88   5.03   0.00   0.00   6.91    -0.91
  O       33     1.87   4.99   0.00   0.00   6.86    -0.86
  O       34     1.87   4.99   0.00   0.00   6.86    -0.86
  O       35     1.87   4.99   0.00   0.00   6.86    -0.86
  O       36     1.87   4.99   0.00   0.00   6.86    -0.86
  O       37     1.87   4.99   0.00   0.00   6.86    -0.86
  O       38     1.87   4.99   0.00   0.00   6.86    -0.86
  O       39     1.86   4.95   0.00   0.00   6.80    -0.80
  O       40     1.87   4.99   0.00   0.00   6.86    -0.86
  O       41     1.87   4.99   0.00   0.00   6.86    -0.86
  O       42     1.87   4.99   0.00   0.00   6.86    -0.86
  O       43     1.87   4.99   0.00   0.00   6.86    -0.86
  O       44     1.87   4.99   0.00   0.00   6.86    -0.86
  O       45     1.87   4.99   0.00   0.00   6.86    -0.86
  O       46     1.86   4.95   0.00   0.00   6.80    -0.80
  O       47     1.87   4.99   0.00   0.00   6.86    -0.86
  O       48     1.87   4.99   0.00   0.00   6.86    -0.86
  O       49     1.86   4.95   0.00   0.00   6.80    -0.80
  O       50     1.87   4.99   0.00   0.00   6.86    -0.86
  O       51     1.87   4.99   0.00   0.00   6.86    -0.86
  O       52     1.87   4.99   0.00   0.00   6.86    -0.86
  O       53     1.87   4.99   0.00   0.00   6.86    -0.86
  O       54     1.86   4.95   0.00   0.00   6.80    -0.80
  O       55     1.87   4.99   0.00   0.00   6.86    -0.86
  O       56     1.87   4.99   0.00   0.00   6.86    -0.86
  Zr       1     2.37   6.49   1.92   0.00  10.78     1.22
  Zr       2     2.37   6.50   1.92   0.00  10.79     1.21
  Zr       3     2.37   6.49   1.92   0.00  10.78     1.22
  Zr       4     2.37   6.48   1.92   0.00  10.77     1.23
[...]
  La       2     2.06   6.17   1.20   0.00   9.43     1.57
  La       3     2.03   6.16   1.20   0.00   9.39     1.61
  La       4     2.04   6.17   1.19   0.00   9.41     1.59
  La       5     2.11   6.19   1.19   0.00   9.50     1.50
  La       6     2.06   6.18   1.19   0.00   9.43     1.57
  La       7     2.04   6.17   1.20   0.00   9.40     1.60
  La       8     2.07   6.19   1.19   0.00   9.45     1.55
  La       9     2.11   6.19   1.19   0.00   9.50     1.50
  La      10     2.06   6.18   1.19   0.00   9.44     1.56
  La      11     2.10   6.19   1.19   0.00   9.48     1.52
  La      12     2.07   6.19   1.19   0.00   9.45     1.55
  La      13     2.06   6.18   1.19   0.00   9.43     1.57
  La      14     2.09   6.20   1.19   0.00   9.48     1.52
  La      15     2.04   6.17   1.20   0.00   9.40     1.60
  La      16     2.06   6.18   1.19   0.00   9.44     1.56

            Bond              Population      Length (A)
         O 53 -- Sn 2              0.34        2.10355
         O 45 -- Sn 9              0.34        2.10356
         O 56 -- Sn 4              0.34        2.10374
         O 24 -- Sn 8              0.35        2.10376
         O 36 -- Sn 10             0.34        2.10378
         O 14 -- Sn 8              0.35        2.10381
         O 43 -- Sn 7              0.35        2.10457
         O 51 -- Sn 1              0.35        2.10458
         O 13 -- Sn 6              0.34        2.10486
         O 23 -- Sn 3              0.34        2.10498
         O 48 -- Sn 5              0.34        2.10546
         O 33 -- Sn 5              0.34        2.10552
         O 38 -- Sn 3              0.34        2.10589
         O 42 -- Sn 6              0.34        2.10592
         O 47 -- Sn 1              0.34        2.10620
         O 34 -- Sn 7              0.34        2.10624
         O 29 -- Sn 7              0.35        2.10686
         O 10 -- Sn 1              0.35        2.10689
         O 41 -- Sn 10             0.34        2.10693
         O 37 -- Sn 4              0.34        2.10694
         O 20 -- Sn 3              0.35        2.10741
         O 25 -- Sn 6              0.35        2.10746
         O 50 -- Sn 6              0.34        2.10790
         O 40 -- Sn 3              0.34        2.10790
         O 52 -- Sn 8              0.34        2.10796
         O 44 -- Sn 8              0.34        2.10796
         O 26 -- Sn 10             0.34        2.10820
         O 19 -- Sn 4              0.34        2.10822
         O 27 -- Sn 9              0.34        2.10837
         O 18 -- Sn 2              0.34        2.10843
         O 31 -- Sn 1              0.34        2.10940
         O 12 -- Sn 7              0.34        2.10940
         O 17 -- Sn 10             0.34        2.10953
         O 28 -- Sn 4              0.34        2.10957
         O 55 -- Sn 2              0.34        2.11033
         O 35 -- Sn 9              0.34        2.11034
         O 23 -- Sn 1              0.33        2.11051
         O 13 -- Sn 7              0.33        2.11058
         O 32 -- Sn 5              0.34        2.11152
         O 11 -- Sn 5              0.34        2.11158
         O 26 -- Sn 2              0.33        2.11209
         O 19 -- Sn 9              0.33        2.11211
         O 9  -- Sn 8              0.34        2.11256
         O 32 -- Sn 10             0.34        2.11261
         O 30 -- Sn 8              0.34        2.11263
         O 11 -- Sn 4              0.34        2.11271
         O 18 -- Sn 6              0.33        2.11302
         O 27 -- Sn 3              0.33        2.11302
         O 12 -- Sn 2              0.33        2.11319
         O 31 -- Sn 9              0.33        2.11326
         O 39 -- Zr 6              0.41        2.11420
         O 36 -- Zr 3              0.44        2.11458
         O 39 -- Zr 4              0.41        2.11589
         O 49 -- Zr 4              0.41        2.11590
         O 49 -- Zr 5              0.41        2.11592
         O 15 -- Sn 9              0.34        2.11616
         O 21 -- Sn 2              0.34        2.11618
         O 56 -- Zr 1              0.44        2.11620
         O 15 -- Sn 5              0.33        2.11651
         O 21 -- Sn 5              0.33        2.11651
[...]
         O 33 -- O 44             -0.03        2.82572
         O 46 -- O 53             -0.03        2.82957
         O 45 -- O 54             -0.03        2.82957
         O 14 -- O 29             -0.03        2.83162
         O 10 -- O 24             -0.03        2.83173
         O 47 -- O 49             -0.03        2.83180
         O 34 -- O 39             -0.03        2.83183
         O 38 -- O 42             -0.03        2.83241
         O 37 -- O 41             -0.03        2.83341
         O 20 -- O 28             -0.03        2.83418
         O 17 -- O 25             -0.03        2.83419
         O 35 -- O 43             -0.03        2.83570
         O 51 -- O 55             -0.03        2.83585
         O 48 -- O 50             -0.03        2.83938
         O 33 -- O 40             -0.03        2.83947

Writing analysis data to 003.castep_bin

Writing model to 003.check

 A BibTeX formatted list of references used in this run has been written to
 003.bib

Initialisation time =     54.06 s
Calculation time    =  34101.72 s
Finalisation time   =    121.47 s
Total time          =  34277.25 s

Overall parallel efficiency rating: Good (78%)

Data was distributed by:-
G-vector (4-way); efficiency rating: Good (79%)
k-point (14-way); efficiency rating: Excellent (99%)