 Compiled for linux_x86_64_ifort16 on Sat, 23 Jul 2016 23:44:54 +0100
 from code version
 203e84763863+ Castep161_branch Fri, 04 Mar 2016 19:21:07 +0000
 Compiler: Intel Fortran 16.0.3.210; Optimisation: fast
 MATHLIBS: Intel MKL(11.3.3) (LAPACK version 3.6.0)
 FFT Lib : mkl
 Fundamental constants values: CODATA 2010

 Run started: Wed, 28 Mar 2018 15:00:19 +0100
 |           N   N    M   M    RRRR                |
 |           NN  N    MM MM    R   R               |
 |           N N N    M M M    RRRR                |
 |           N  NN    M   M    R  R                |
 |           N   N    M   M    R   R               |
 | Welcome to Materials Studio CASTEP-NMR          |
 | Authors:                                        |
 | J.R. Yates, C.J. Pickard, F. Mauri              |
 | Contributors:                                   |
 | T.F.G. Green, S.A. Joyce                        |
 | Copyright (c) 2004 - 2015                       |
 | Please cite the appropriate publications in all |
 | work arising from your use of CASTEP NMR.       |
 | For NMR Shielding Tensors cite:                 |
 |    "All-electron magnetic response with         |
 |    pseudopotentials: NMR chemical shifts",      |
 |    C. J. Pickard, F. Mauri;                     |
 |    Physical Review B63 245101 (2001), and       |
 |    "Calculation of NMR Chemical Shifts          |
 |    for extended systems using                   |
 |    Ultrasoft Pseudopotentials",                 |
 |    J. R. Yates, C. J. Pickard and F. Mauri      |
 |    Physical Review B76 024401 (2007)            |
 | For Electric Field Gradients cite:              |
 |   "Accurate First Principles Prediction of 17O  |
 |    NMR Parameters in SiO2: Assignment of the    |
 |    Zeolite Ferrierite Spectrum"                 |
 |    M. Profeta, F. Mauri and C. J. Pickard       |
 |    J. Amer. Chem. Soc. 125 541 (2003)           |
 | For Spin-Spin (J) Couplings cite:               |
 |   "A first principles theory of NMR J-coupling  |
 |   in solid-state systems"                       |
 |   S.A. Joyce, J.R. Yates, C.J. Pickard, F. Mauri|
 |   J. Chem. Phys. 127 204107 (2007)              |
 |   "Relativistic NMR J-coupling with ultrasoft   |
 |   pseudopotentials and the zeroth-order regular |
 |   approximation"                                |
 |   T.F.G. Green and J.R. Yates                   |
 |   J. Chem. Phys. 140 234106 (2014)              |

 Atomic calculation performed for O: 1s2 2s2 2p4

 Converged in 44 iterations to an ae energy of -2040.855 eV

 Atomic calculation performed for O: 1s2 2s2 2p4

 Exceeded max iterations: converged to 0.000000062 eV

   | Pseudopotential Report - Date of generation 28-03-2018   |
   | Element: O Ionic charge:  6.00 Level of theory: PBE      |
   | Atomic Solver: ZORA (scalar)                             |
   |               Reference Electronic Structure             |
   |         Orbital         Occupation         Energy        |
   |            2s              2.000           -0.881        |
   |            2p              4.000           -0.332        |
   |                 Pseudopotential Definition               |
   |        Beta     l      e      Rc     scheme   norm       |
   |          1      0   -0.881   1.100     qc      0         |
   |          2      0    0.250   1.100     qc      0         |
   |          3      1   -0.332   1.100     qc      0         |
   |          4      1    0.250   1.100     qc      0         |
   |         loc     2    0.000   1.100     pn      0         |
   | Augmentation charge Rinner = 0.769                       |
   | Partial core correction Rc = 0.769                       |
   | "2|1.1|15|18|20|20:21(qc=7)"                             |
   |      Author: Chris J. Pickard, Cambridge University      |

 Atomic calculation performed for Zr: 1s2 2s2 2p6 3s2 3p6 3d10 4s2 4p6 4d2 5s2

[...]

 Atomic calculation performed for Zr: 1s2 2s2 2p6 3s2 3p6 3d10 4s2 4p6 4d2 5s2

[...]

 Warning: ion_atom_descreen_psp: negative charge density encountered
   | Pseudopotential Report - Date of generation 28-03-2018   |
   | Element: Zr Ionic charge: 12.00 Level of theory: PBE     |
   | Atomic Solver: ZORA (scalar)                             |
   |               Reference Electronic Structure             |
   |         Orbital         Occupation         Energy        |
   |            4s              2.000           -2.003        |
   |            4p              6.000           -1.193        |
   |            5s              2.000           -0.163        |
   |            4d              2.000           -0.132        |
   |                 Pseudopotential Definition               |
   |        Beta     l      e      Rc     scheme   norm       |
   |          1      0   -2.003   2.105     qc      0         |
   |          2      0   -0.163   2.105     qc      0         |
   |          3      0    0.250   2.105     qc      0         |
   |          4      1   -1.193   2.105     qc      0         |
   |          5      1    0.250   2.105     qc      0         |
   |          6      2   -0.132   2.105     qc      0         |
   |          7      2    0.250   2.105     qc      0         |
   |         loc     3    0.000   2.105     pn      0         |
   | Augmentation charge Rinner = 1.471                       |
   | Partial core correction Rc = 1.471                       |
   | "3|2.1|7|8|9|40U:50:41:42"                               |
   |      Author: Chris J. Pickard, Cambridge University      |

 Atomic calculation performed for Sn:

[...]

 Atomic calculation performed for Sn:

[...]

   | Pseudopotential Report - Date of generation 28-03-2018   |
   | Element: Sn Ionic charge: 14.00 Level of theory: PBE     |
   | Atomic Solver: ZORA (scalar)                             |
   |               Reference Electronic Structure             |
   |         Orbital         Occupation         Energy        |
   |            4d             10.000           -0.950        |
   |            5s              2.000           -0.388        |
   |            5p              2.000           -0.136        |
   |                 Pseudopotential Definition               |
   |        Beta     l      e      Rc     scheme   norm       |
   |          1      0   -0.388   2.199     qc      0         |
   |          2      0    0.250   2.199     qc      0         |
   |          3      1   -0.136   2.199     qc      0         |
   |          4      1    0.250   2.199     qc      0         |
   |          5      2   -0.950   2.199     qc      0         |
   |          6      2    0.250   2.199     qc      0         |
   |         loc     3    0.000   2.199     pn      0         |
   | Augmentation charge Rinner = 1.537                       |
   | Partial core correction Rc = 1.537                       |
   | "3|2.2|7|8|9|50:51:42"                                   |
   |      Author: Chris J. Pickard, Cambridge University      |

 Atomic calculation performed for La:

 Converged in 56 iterations to an ae energy of -230121.495 eV

 Atomic calculation performed for La:

 Exceeded max iterations: converged to 0.000000907 eV

 Warning: ion_atom_descreen_psp: negative charge density encountered
   | Pseudopotential Report - Date of generation 28-03-2018   |
   | Element: La Ionic charge: 11.00 Level of theory: PBE     |
   | Atomic Solver: ZORA (scalar)                             |
   |               Reference Electronic Structure             |
   |         Orbital         Occupation         Energy        |
   |            5s              2.000           -1.430        |
   |            5p              6.000           -0.823        |
   |            6s              2.000           -0.135        |
   |            5d              1.000           -0.114        |
   |                 Pseudopotential Definition               |
   |        Beta     l      e      Rc     scheme   norm       |
   |          1      0   -1.430   2.298     qc      0         |
   |          2      0   -0.135   2.298     qc      0         |
   |          3      0    0.250   2.298     qc      0         |
   |          4      1   -0.823   2.298     qc      0         |
   |          5      1    0.250   2.298     qc      0         |
   |          6      2   -0.114   2.298     qc      0         |
   |          7      2    0.250   2.298     qc      0         |
   |         loc     2    0.000   2.298     pn      0         |
   | Augmentation charge Rinner = 1.606                       |
   | Partial core correction Rc = 1.606                       |
   | "2|2.3|5|6|7|50U:60:51:52(qc=4.5)"                       |
   |      Author: Chris J. Pickard, Cambridge University      |

 Pseudo atomic calculation performed for O 2s2 2p4

 Converged in 39 iterations to a total energy of -432.6554 eV

 Pseudo atomic calculation performed for Zr 4s2 4p6 4d2 5s2

[...]

 Calculation parallelised over 56 processes.
 Data is distributed by G-vector(4-way) and k-point(14-way)

 ************************************ Title ************************************
 nmr testing

 ***************************** General Parameters ******************************

 output verbosity                               : normal  (1)
 write checkpoint data to                       : 008.check
 type of calculation                            : Magnetic Resonance
 stress calculation                             : on
 density difference calculation                 : off
 electron localisation func (ELF) calculation   : off
 Hirshfeld analysis                             : off
 unlimited duration calculation
 timing information                             : on
 write final potential to formatted file        : off
 write final density to formatted file          : off
 write structure in CIF formatted file          : on
 write structure in CELL formatted file         : on
 write BibTeX reference list                    : on
 write OTFG pseudopotential files               : on
 checkpoint writing                             : both castep_bin and check files

 output         length unit                     : A
 output           mass unit                     : amu
 output           time unit                     : ps
 output         charge unit                     : e
 output           spin unit                     : hbar/2
 output         energy unit                     : eV
 output          force unit                     : eV/A
 output       velocity unit                     : A/ps
 output       pressure unit                     : GPa
 output     inv_length unit                     : 1/A
 output      frequency unit                     : cm-1
 output force constant unit                     : eV/A**2
 output         volume unit                     : A**3
 output   IR intensity unit                     : (D/A)**2/amu
 output         dipole unit                     : D
 output         efield unit                     : eV/A/e
 output        entropy unit                     : J/mol/K

 wavefunctions paging                           : none
 random number generator seed                   : randomised (150020941)
 data distribution                              : optimal for this architecture
[...]
  |    O          42      -86.72      85.80      0.16  -3.143E+00   0.07 |
  |    O          43     -160.55     149.23      0.86   1.069E+00   0.68 |
  |    O          44      -87.01      87.07      0.25  -3.153E+00   0.07 |
  |    O          45      -91.17      93.63      0.30  -3.160E+00   0.07 |
  |    O          46     -162.58     149.49      0.85   1.033E+00   0.70 |
  |    O          47      -91.07      93.41      0.25  -3.196E+00   0.10 |
  |    O          48      -91.89      84.56      0.18  -3.167E+00   0.06 |
  |    O          49      -85.19      83.42      0.13  -3.199E+00   0.09 |
  |    O          50      -89.20      84.21      0.19  -3.202E+00   0.06 |
  |    O          51     -162.58     149.49      0.85   1.033E+00   0.70 |
  |    O          52      -91.17      93.63      0.30  -3.160E+00   0.07 |
  |    O          53      -91.07      93.40      0.25  -3.196E+00   0.10 |
  |    O          54      -91.89      84.56      0.18  -3.167E+00   0.06 |
  |    O          55      -85.19      83.42      0.13  -3.199E+00   0.09 |
  |    O          56      -89.20      84.20      0.19  -3.202E+00   0.06 |
  |    Zr          1     1596.29    -110.85      0.08  -3.435E+01   0.08 |
  |    Zr          2     1624.00    -122.27      0.15  -3.605E+01   0.05 |
  |    Zr          3     1610.52    -117.45      0.12  -3.521E+01   0.07 |
  |    Zr          4     1624.00    -122.27      0.15  -3.605E+01   0.05 |
[...]
  |    La          2     4603.12     518.21      0.08  -7.991E+01   0.07 |
  |    La          3     4652.93     662.60      0.08  -8.294E+01   0.11 |
  |    La          4     4660.84     645.40      0.00  -8.448E+01   0.01 |
  |    La          5     4603.12     518.21      0.08  -7.991E+01   0.07 |
  |    La          6     4652.93     662.60      0.08  -8.294E+01   0.11 |
  |    La          7     4660.84     645.41      0.00  -8.448E+01   0.01 |
  |    La          8     4498.14     223.28      0.03  -6.939E+01   0.01 |
  |    La          9     4597.10     519.74      0.09  -7.821E+01   0.10 |
  |    La         10     4549.75     384.31      0.07  -7.362E+01   0.10 |
  |    La         11     4597.10     519.74      0.09  -7.821E+01   0.10 |
  |    La         12     4549.75     384.31      0.07  -7.362E+01   0.10 |
  |    La         13     4606.27     547.73      0.05  -7.943E+01   0.17 |
  |    La         14     4658.62     616.01      0.01  -8.207E+01   0.02 |
  |    La         15     4658.62     616.01      0.01  -8.207E+01   0.02 |
  |    La         16     4601.40     554.07      0.08  -7.804E+01   0.18 |

 *********************** Forces ***********************
 *            Cartesian components (eV/A)             *
 *                   x            y            z      *
 * O         1     -0.01450      0.00726      0.00368 *
 * O         2     -0.00514      0.00591      0.00603 *
 * O         3     -0.00502      0.00758      0.01718 *
 * O         4     -0.00363      0.00184      0.00445 *
 * O         5      0.00502     -0.00758     -0.01718 *
 * O         6      0.01450     -0.00726     -0.00368 *
 * O         7      0.00363     -0.00184     -0.00445 *
 * O         8      0.00513     -0.00591     -0.00603 *
 * O         9      0.00249      0.00859      0.00318 *
 * O        10     -0.00567      0.02649     -0.02098 *
 * O        11     -0.00301      0.00758      0.00208 *
 * O        12      0.00473      0.02017      0.01234 *
 * O        13      0.02330     -0.00672      0.02190 *
 * O        14     -0.02173     -0.00109      0.02386 *
 * O        15      0.00477     -0.00491      0.00413 *
 * O        16     -0.02975     -0.00464     -0.03125 *
 * O        17     -0.00110      0.00395      0.00037 *
 * O        18     -0.00020     -0.00050     -0.01229 *
 * O        19     -0.00238      0.00732      0.00024 *
 * O        20     -0.02623     -0.01256      0.00119 *
 * O        21     -0.00262      0.00188      0.00033 *
 * O        22     -0.02330      0.00672     -0.02190 *
 * O        23      0.01790      0.00029      0.01343 *
 * O        24     -0.00477      0.00491     -0.00413 *
 * O        25      0.00301     -0.00758     -0.00207 *
 * O        26     -0.00933      0.00119      0.00170 *
 * O        27     -0.00249     -0.00859     -0.00318 *
 * O        28     -0.00252      0.01942     -0.02063 *
 * O        29      0.00103      0.00494     -0.00184 *
 * O        30      0.00238     -0.00732     -0.00024 *
 * O        31      0.01164     -0.02415      0.00465 *
 * O        32      0.00110     -0.00395     -0.00037 *
 * O        33      0.00567     -0.02649      0.02098 *
 * O        34     -0.00473     -0.02017     -0.01233 *
 * O        35      0.02173      0.00109     -0.02386 *
 * O        36      0.02975      0.00464      0.03126 *
 * O        37      0.00020      0.00050      0.01229 *
 * O        38      0.02623      0.01256     -0.00119 *
 * O        39      0.00262     -0.00188     -0.00033 *
 * O        40     -0.01790     -0.00029     -0.01343 *
 * O        41      0.00933     -0.00119     -0.00170 *
 * O        42      0.00252     -0.01942      0.02063 *
 * O        43     -0.00103     -0.00494      0.00184 *
 * O        44     -0.01164      0.02415     -0.00465 *
 * O        45      0.01156      0.01194      0.02038 *
 * O        46      0.00145     -0.00284     -0.00106 *
 * O        47     -0.02081      0.01293     -0.01231 *
 * O        48      0.02092      0.02071      0.00018 *
 * O        49      0.02222      0.00317     -0.00796 *
 * O        50     -0.01774     -0.00438     -0.02442 *
 * O        51     -0.00146      0.00284      0.00106 *
 * O        52     -0.01156     -0.01194     -0.02038 *
 * O        53      0.02081     -0.01293      0.01230 *
 * O        54     -0.02092     -0.02071     -0.00018 *
 * O        55     -0.02222     -0.00317      0.00796 *
 * O        56      0.01774      0.00438      0.02442 *
 * Zr        1      0.00000      0.00000      0.00000 *
 * Zr        2      0.00688      0.00094      0.03027 *
 * Zr        3     -0.01803     -0.00338     -0.00116 *
 * Zr        4     -0.00688     -0.00094     -0.03027 *
[...]
 * La        2      0.00259     -0.00003      0.00225 *
 * La        3     -0.00191     -0.00591     -0.01789 *
 * La        4     -0.00825      0.01215     -0.00519 *
 * La        5     -0.00259      0.00003     -0.00225 *
 * La        6      0.00191      0.00591      0.01789 *
 * La        7      0.00825     -0.01215      0.00519 *
 * La        8     -0.00000     -0.00000     -0.00000 *
 * La        9     -0.00842      0.00412     -0.00988 *
 * La       10      0.00902     -0.00423     -0.00552 *
 * La       11      0.00842     -0.00412      0.00988 *
 * La       12     -0.00902      0.00422      0.00552 *
 * La       13      0.00000     -0.00000     -0.00000 *
 * La       14     -0.01903     -0.00708     -0.02146 *
 * La       15      0.01903      0.00708      0.02146 *
 * La       16      0.00000      0.00000     -0.00000 *

 ***************** Stress Tensor *****************
 *          Cartesian components (GPa)           *
 *             x             y             z     *
 *  x     -0.001158     -0.051068     -0.047053  *
 *  y     -0.051068      0.007896      0.039374  *
 *  z     -0.047053      0.039374      0.000397  *
 *  Pressure:   -0.0024                          *

[...]

 Pseudo atomic calculation performed for Sn 4d10 5s2 5p2

[...]

 Pseudo atomic calculation performed for La 5s2 5p6 5d1 6s2

 Converged in 34 iterations to a total energy of -968.0372 eV

Charge spilling parameter for spin component 1 = 0.25%

     Atomic Populations (Mulliken)
Species   Ion     s      p      d      f     Total  Charge (e)
  O        1     1.87   5.00   0.00   0.00   6.87    -0.87
  O        2     1.87   5.00   0.00   0.00   6.87    -0.87
  O        3     1.87   5.00   0.00   0.00   6.87    -0.87
  O        4     1.87   5.00   0.00   0.00   6.87    -0.87
  O        5     1.87   5.00   0.00   0.00   6.87    -0.87
  O        6     1.87   5.00   0.00   0.00   6.87    -0.87
  O        7     1.87   5.00   0.00   0.00   6.87    -0.87
  O        8     1.87   5.00   0.00   0.00   6.87    -0.87
  O        9     1.88   5.03   0.00   0.00   6.91    -0.91
  O       10     1.87   4.99   0.00   0.00   6.86    -0.86
  O       11     1.88   5.03   0.00   0.00   6.91    -0.91
  O       12     1.87   4.99   0.00   0.00   6.86    -0.86
  O       13     1.87   4.99   0.00   0.00   6.86    -0.86
  O       14     1.87   4.99   0.00   0.00   6.86    -0.86
  O       15     1.88   5.03   0.00   0.00   6.91    -0.91
  O       16     1.87   4.99   0.00   0.00   6.86    -0.86
  O       17     1.88   5.03   0.00   0.00   6.91    -0.91
  O       18     1.88   5.02   0.00   0.00   6.91    -0.91
  O       19     1.88   5.03   0.00   0.00   6.91    -0.91
  O       20     1.87   4.99   0.00   0.00   6.86    -0.86
  O       21     1.88   5.03   0.00   0.00   6.91    -0.91
  O       22     1.87   4.99   0.00   0.00   6.86    -0.86
  O       23     1.87   4.99   0.00   0.00   6.86    -0.86
  O       24     1.88   5.03   0.00   0.00   6.91    -0.91
  O       25     1.88   5.03   0.00   0.00   6.91    -0.91
  O       26     1.88   5.03   0.00   0.00   6.91    -0.91
  O       27     1.88   5.03   0.00   0.00   6.91    -0.91
  O       28     1.87   4.99   0.00   0.00   6.86    -0.86
  O       29     1.86   4.95   0.00   0.00   6.80    -0.80
  O       30     1.88   5.03   0.00   0.00   6.91    -0.91
  O       31     1.87   4.99   0.00   0.00   6.86    -0.86
  O       32     1.88   5.03   0.00   0.00   6.91    -0.91
  O       33     1.87   4.99   0.00   0.00   6.86    -0.86
  O       34     1.87   4.99   0.00   0.00   6.86    -0.86
  O       35     1.87   4.99   0.00   0.00   6.86    -0.86
  O       36     1.87   4.99   0.00   0.00   6.86    -0.86
  O       37     1.88   5.02   0.00   0.00   6.91    -0.91
  O       38     1.87   4.99   0.00   0.00   6.86    -0.86
  O       39     1.88   5.03   0.00   0.00   6.91    -0.91
  O       40     1.87   4.99   0.00   0.00   6.86    -0.86
  O       41     1.88   5.03   0.00   0.00   6.91    -0.91
  O       42     1.87   4.99   0.00   0.00   6.86    -0.86
  O       43     1.86   4.95   0.00   0.00   6.80    -0.80
  O       44     1.87   4.99   0.00   0.00   6.86    -0.86
  O       45     1.87   4.99   0.00   0.00   6.86    -0.86
  O       46     1.86   4.95   0.00   0.00   6.80    -0.80
  O       47     1.87   4.99   0.00   0.00   6.86    -0.86
  O       48     1.87   4.99   0.00   0.00   6.86    -0.86
  O       49     1.87   4.99   0.00   0.00   6.86    -0.86
  O       50     1.87   4.99   0.00   0.00   6.86    -0.86
  O       51     1.86   4.95   0.00   0.00   6.80    -0.80
  O       52     1.87   4.99   0.00   0.00   6.86    -0.86
  O       53     1.87   4.99   0.00   0.00   6.86    -0.86
  O       54     1.87   4.99   0.00   0.00   6.86    -0.86
  O       55     1.87   4.99   0.00   0.00   6.86    -0.86
  O       56     1.87   4.99   0.00   0.00   6.86    -0.86
  Zr       1     2.37   6.50   1.92   0.00  10.79     1.21
  Zr       2     2.37   6.48   1.92   0.00  10.77     1.23
  Zr       3     2.37   6.49   1.92   0.00  10.78     1.22
  Zr       4     2.37   6.48   1.92   0.00  10.77     1.23
[...]
  La       2     2.08   6.18   1.19   0.00   9.46     1.54
  La       3     2.06   6.17   1.20   0.00   9.43     1.57
  La       4     2.03   6.18   1.19   0.00   9.39     1.61
  La       5     2.08   6.18   1.19   0.00   9.46     1.54
  La       6     2.06   6.17   1.20   0.00   9.43     1.57
  La       7     2.03   6.18   1.19   0.00   9.39     1.61
  La       8     2.12   6.21   1.19   0.00   9.52     1.48
  La       9     2.07   6.18   1.19   0.00   9.44     1.56
  La      10     2.09   6.19   1.19   0.00   9.48     1.52
  La      11     2.07   6.18   1.19   0.00   9.44     1.56
  La      12     2.09   6.19   1.19   0.00   9.48     1.52
  La      13     2.08   6.18   1.19   0.00   9.46     1.54
  La      14     2.04   6.18   1.19   0.00   9.41     1.59
  La      15     2.04   6.18   1.19   0.00   9.41     1.59
  La      16     2.07   6.18   1.19   0.00   9.44     1.56

            Bond              Population      Length (A)
         O 20 -- Sn 3              0.35        2.10238
         O 38 -- Sn 3              0.35        2.10238
         O 53 -- Sn 2              0.34        2.10456
         O 47 -- Sn 1              0.34        2.10456
         O 56 -- Sn 5              0.35        2.10526
         O 50 -- Sn 7              0.35        2.10526
         O 36 -- Sn 10             0.35        2.10529
         O 16 -- Sn 10             0.35        2.10529
         O 55 -- Sn 2              0.34        2.10612
         O 49 -- Sn 1              0.34        2.10612
         O 13 -- Sn 7              0.35        2.10620
         O 22 -- Sn 5              0.35        2.10620
         O 19 -- Sn 9              0.34        2.10620
         O 30 -- Sn 8              0.34        2.10620
         O 33 -- Sn 6              0.34        2.10631
         O 10 -- Sn 4              0.34        2.10631
         O 45 -- Sn 9              0.34        2.10647
         O 52 -- Sn 8              0.34        2.10647
         O 40 -- Sn 3              0.35        2.10658
         O 23 -- Sn 3              0.35        2.10658
         O 12 -- Sn 2              0.34        2.10754
         O 34 -- Sn 1              0.34        2.10754
         O 28 -- Sn 5              0.34        2.10795
         O 42 -- Sn 7              0.34        2.10795
         O 14 -- Sn 8              0.34        2.10836
         O 35 -- Sn 9              0.34        2.10836
         O 21 -- Sn 2              0.34        2.10931
         O 39 -- Sn 1              0.34        2.10931
         O 31 -- Sn 9              0.34        2.10965
         O 44 -- Sn 8              0.34        2.10965
         O 30 -- Sn 7              0.33        2.10965
         O 19 -- Sn 5              0.33        2.10965
         O 54 -- Sn 4              0.34        2.10981
         O 48 -- Sn 6              0.34        2.10981
         O 15 -- Sn 9              0.34        2.11077
         O 24 -- Sn 8              0.34        2.11077
         O 41 -- Sn 1              0.34        2.11087
         O 26 -- Sn 2              0.34        2.11087
         O 15 -- Sn 6              0.33        2.11094
         O 24 -- Sn 4              0.33        2.11094
         O 25 -- Sn 7              0.34        2.11131
         O 11 -- Sn 5              0.34        2.11131
         O 41 -- Sn 10             0.33        2.11148
         O 26 -- Sn 10             0.33        2.11148
         O 21 -- Sn 6              0.33        2.11184
         O 39 -- Sn 4              0.33        2.11184
         O 25 -- Sn 4              0.34        2.11254
         O 11 -- Sn 6              0.34        2.11254
         O 9  -- Sn 8              0.34        2.11282
         O 27 -- Sn 9              0.34        2.11282
         O 43 -- Zr 2              0.41        2.11378
         O 29 -- Zr 4              0.41        2.11378
         O 17 -- Sn 4              0.34        2.11427
         O 32 -- Sn 6              0.34        2.11427
         O 29 -- Zr 6              0.41        2.11514
         O 43 -- Zr 6              0.41        2.11514
         O 47 -- Zr 5              0.44        2.11577
         O 53 -- Zr 3              0.44        2.11577
         O 51 -- Zr 5              0.42        2.11603
         O 46 -- Zr 3              0.42        2.11603
[...]
         O 14 -- O 29             -0.03        2.82570
         O 51 -- O 55             -0.03        2.82625
         O 46 -- O 49             -0.03        2.82625
         O 13 -- O 29             -0.03        2.82751
         O 22 -- O 43             -0.03        2.82751
         O 13 -- O 34             -0.03        2.83058
         O 12 -- O 22             -0.03        2.83058
         O 48 -- O 50             -0.03        2.83346
         O 54 -- O 56             -0.03        2.83346
         O 36 -- O 44             -0.03        2.83415
         O 16 -- O 31             -0.03        2.83415
         O 10 -- O 23             -0.03        2.83503
         O 33 -- O 40             -0.03        2.83503
         O 38 -- O 42             -0.03        2.83854
         O 20 -- O 28             -0.03        2.83854

Writing analysis data to 008.castep_bin

Writing model to 008.check

 A BibTeX formatted list of references used in this run has been written to
 008.bib

Initialisation time =     53.73 s
Calculation time    =  33906.98 s
Finalisation time   =     73.93 s
Total time          =  34034.63 s

Overall parallel efficiency rating: Good (79%)

Data was distributed by:-
G-vector (4-way); efficiency rating: Good (79%)
k-point (14-way); efficiency rating: Excellent (99%)