 Compiled for linux_x86_64_ifort16 on Sat, 23 Jul 2016 23:44:54 +0100
 from code version
 203e84763863+ Castep161_branch Fri, 04 Mar 2016 19:21:07 +0000
 Compiler: Intel Fortran 16.0.3.210; Optimisation: fast
 MATHLIBS: Intel MKL(11.3.3) (LAPACK version 3.6.0)
 FFT Lib : mkl
 Fundamental constants values: CODATA 2010

 Run started: Thu, 22 Mar 2018 12:00:16 +0000
 |           N   N    M   M    RRRR                |
 |           NN  N    MM MM    R   R               |
 |           N N N    M M M    RRRR                |
 |           N  NN    M   M    R  R                |
 |           N   N    M   M    R   R               |
 | Welcome to Materials Studio CASTEP-NMR          |
 | Authors:                                        |
 | J.R. Yates, C.J. Pickard, F. Mauri              |
 | Contributors:                                   |
 | T.F.G. Green, S.A. Joyce                        |
 | Copyright (c) 2004 - 2015                       |
 | Please cite the appropriate publications in all |
 | work arising from your use of CASTEP NMR.       |
 | For NMR Shielding Tensors cite:                 |
 |    "All-electron magnetic response with         |
 |    pseudopotentials: NMR chemical shifts",      |
 |    C. J. Pickard, F. Mauri;                     |
 |    Physical Review B63 245101 (2001), and       |
 |    "Calculation of NMR Chemical Shifts          |
 |    for extended systems using                   |
 |    Ultrasoft Pseudopotentials",                 |
 |    J. R. Yates, C. J. Pickard and F. Mauri      |
 |    Physical Review B76 024401 (2007)            |
 | For Electric Field Gradients cite:              |
 |   "Accurate First Principles Prediction of 17O  |
 |    NMR Parameters in SiO2: Assignment of the    |
 |    Zeolite Ferrierite Spectrum"                 |
 |    M. Profeta, F. Mauri and C. J. Pickard       |
 |    J. Amer. Chem. Soc. 125 541 (2003)           |
 | For Spin-Spin (J) Couplings cite:               |
 |   "A first principles theory of NMR J-coupling  |
 |   in solid-state systems"                       |
 |   S.A. Joyce, J.R. Yates, C.J. Pickard, F. Mauri|
 |   J. Chem. Phys. 127 204107 (2007)              |
 |   "Relativistic NMR J-coupling with ultrasoft   |
 |   pseudopotentials and the zeroth-order regular |
 |   approximation"                                |
 |   T.F.G. Green and J.R. Yates                   |
 |   J. Chem. Phys. 140 234106 (2014)              |

 Atomic calculation performed for O: 1s2 2s2 2p4

 Converged in 44 iterations to an ae energy of -2040.855 eV

 Atomic calculation performed for O: 1s2 2s2 2p4

 Exceeded max iterations: converged to 0.000000062 eV

   | Pseudopotential Report - Date of generation 22-03-2018   |
   | Element: O Ionic charge:  6.00 Level of theory: PBE      |
   | Atomic Solver: ZORA (scalar)                             |
   |               Reference Electronic Structure             |
   |         Orbital         Occupation         Energy        |
   |            2s              2.000           -0.881        |
   |            2p              4.000           -0.332        |
   |                 Pseudopotential Definition               |
   |        Beta     l      e      Rc     scheme   norm       |
   |          1      0   -0.881   1.100     qc      0         |
   |          2      0    0.250   1.100     qc      0         |
   |          3      1   -0.332   1.100     qc      0         |
   |          4      1    0.250   1.100     qc      0         |
   |         loc     2    0.000   1.100     pn      0         |
   | Augmentation charge Rinner = 0.769                       |
   | Partial core correction Rc = 0.769                       |
   | "2|1.1|15|18|20|20:21(qc=7)"                             |
   |      Author: Chris J. Pickard, Cambridge University      |

 Atomic calculation performed for Zr: 1s2 2s2 2p6 3s2 3p6 3d10 4s2 4p6 4d2 5s2

[...]

 Atomic calculation performed for Zr: 1s2 2s2 2p6 3s2 3p6 3d10 4s2 4p6 4d2 5s2

[...]

 Warning: ion_atom_descreen_psp: negative charge density encountered
   | Pseudopotential Report - Date of generation 22-03-2018   |
   | Element: Zr Ionic charge: 12.00 Level of theory: PBE     |
   | Atomic Solver: ZORA (scalar)                             |
   |               Reference Electronic Structure             |
   |         Orbital         Occupation         Energy        |
   |            4s              2.000           -2.003        |
   |            4p              6.000           -1.193        |
   |            5s              2.000           -0.163        |
   |            4d              2.000           -0.132        |
   |                 Pseudopotential Definition               |
   |        Beta     l      e      Rc     scheme   norm       |
   |          1      0   -2.003   2.105     qc      0         |
   |          2      0   -0.163   2.105     qc      0         |
   |          3      0    0.250   2.105     qc      0         |
   |          4      1   -1.193   2.105     qc      0         |
   |          5      1    0.250   2.105     qc      0         |
   |          6      2   -0.132   2.105     qc      0         |
   |          7      2    0.250   2.105     qc      0         |
   |         loc     3    0.000   2.105     pn      0         |
   | Augmentation charge Rinner = 1.471                       |
   | Partial core correction Rc = 1.471                       |
   | "3|2.1|7|8|9|40U:50:41:42"                               |
   |      Author: Chris J. Pickard, Cambridge University      |

 Atomic calculation performed for Sn:

[...]

 Atomic calculation performed for Sn:

[...]

   | Pseudopotential Report - Date of generation 22-03-2018   |
   | Element: Sn Ionic charge: 14.00 Level of theory: PBE     |
   | Atomic Solver: ZORA (scalar)                             |
   |               Reference Electronic Structure             |
   |         Orbital         Occupation         Energy        |
   |            4d             10.000           -0.950        |
   |            5s              2.000           -0.388        |
   |            5p              2.000           -0.136        |
   |                 Pseudopotential Definition               |
   |        Beta     l      e      Rc     scheme   norm       |
   |          1      0   -0.388   2.199     qc      0         |
   |          2      0    0.250   2.199     qc      0         |
   |          3      1   -0.136   2.199     qc      0         |
   |          4      1    0.250   2.199     qc      0         |
   |          5      2   -0.950   2.199     qc      0         |
   |          6      2    0.250   2.199     qc      0         |
   |         loc     3    0.000   2.199     pn      0         |
   | Augmentation charge Rinner = 1.537                       |
   | Partial core correction Rc = 1.537                       |
   | "3|2.2|7|8|9|50:51:42"                                   |
   |      Author: Chris J. Pickard, Cambridge University      |

 Atomic calculation performed for La:

 Converged in 56 iterations to an ae energy of -230121.495 eV

 Atomic calculation performed for La:

 Exceeded max iterations: converged to 0.000000907 eV

 Warning: ion_atom_descreen_psp: negative charge density encountered
   | Pseudopotential Report - Date of generation 22-03-2018   |
   | Element: La Ionic charge: 11.00 Level of theory: PBE     |
   | Atomic Solver: ZORA (scalar)                             |
   |               Reference Electronic Structure             |
   |         Orbital         Occupation         Energy        |
   |            5s              2.000           -1.430        |
   |            5p              6.000           -0.823        |
   |            6s              2.000           -0.135        |
   |            5d              1.000           -0.114        |
   |                 Pseudopotential Definition               |
   |        Beta     l      e      Rc     scheme   norm       |
   |          1      0   -1.430   2.298     qc      0         |
   |          2      0   -0.135   2.298     qc      0         |
   |          3      0    0.250   2.298     qc      0         |
   |          4      1   -0.823   2.298     qc      0         |
   |          5      1    0.250   2.298     qc      0         |
   |          6      2   -0.114   2.298     qc      0         |
   |          7      2    0.250   2.298     qc      0         |
   |         loc     2    0.000   2.298     pn      0         |
   | Augmentation charge Rinner = 1.606                       |
   | Partial core correction Rc = 1.606                       |
   | "2|2.3|5|6|7|50U:60:51:52(qc=4.5)"                       |
   |      Author: Chris J. Pickard, Cambridge University      |

 Pseudo atomic calculation performed for O 2s2 2p4

 Converged in 39 iterations to a total energy of -432.6554 eV

 Pseudo atomic calculation performed for Zr 4s2 4p6 4d2 5s2

[...]

 Calculation parallelised over 56 processes.
 Data is distributed by G-vector(4-way) and k-point(14-way)

 ************************************ Title ************************************
 nmr testing

 ***************************** General Parameters ******************************

 output verbosity                               : normal  (1)
 write checkpoint data to                       : 011.check
 type of calculation                            : Magnetic Resonance
 stress calculation                             : on
 density difference calculation                 : off
 electron localisation func (ELF) calculation   : off
 Hirshfeld analysis                             : off
 unlimited duration calculation
 timing information                             : on
 write final potential to formatted file        : off
 write final density to formatted file          : off
 write structure in CIF formatted file          : on
 write structure in CELL formatted file         : on
 write BibTeX reference list                    : on
 write OTFG pseudopotential files               : on
 checkpoint writing                             : both castep_bin and check files

 output         length unit                     : A
 output           mass unit                     : amu
 output           time unit                     : ps
 output         charge unit                     : e
 output           spin unit                     : hbar/2
 output         energy unit                     : eV
 output          force unit                     : eV/A
 output       velocity unit                     : A/ps
 output       pressure unit                     : GPa
 output     inv_length unit                     : 1/A
 output      frequency unit                     : cm-1
 output force constant unit                     : eV/A**2
 output         volume unit                     : A**3
 output   IR intensity unit                     : (D/A)**2/amu
 output         dipole unit                     : D
 output         efield unit                     : eV/A/e
 output        entropy unit                     : J/mol/K

 wavefunctions paging                           : none
 random number generator seed                   : randomised (120017802)
 data distribution                              : optimal for this architecture
[...]
  |    O          42      -86.78      86.15      0.23  -3.173E+00   0.06 |
  |    O          43      -86.62      87.41      0.14  -3.166E+00   0.05 |
  |    O          44      -87.61      97.19      0.32  -3.143E+00   0.08 |
  |    O          45      -88.20      84.26      0.07  -3.232E+00   0.08 |
  |    O          46     -162.44     148.27      0.86   1.023E+00   0.71 |
  |    O          47       -9.45      56.88      0.88   3.872E+00   0.90 |
  |    O          48      -92.97      90.62      0.25  -3.156E+00   0.09 |
  |    O          49      -88.17      88.08      0.05  -3.223E+00   0.06 |
  |    O          50      -90.41      94.22      0.29  -3.155E+00   0.08 |
  |    O          51      -88.17      88.09      0.05  -3.223E+00   0.06 |
  |    O          52      -90.41      94.20      0.29  -3.155E+00   0.08 |
  |    O          53     -161.44     153.54      0.85   1.045E+00   0.74 |
  |    O          54     -161.96     141.19      0.87   1.040E+00   0.62 |
  |    O          55     -162.44     148.26      0.86   1.023E+00   0.71 |
  |    O          56      -88.20      84.26      0.07  -3.232E+00   0.08 |
  |    Zr          1     1610.30    -116.04      0.10  -3.514E+01   0.03 |
  |    Zr          2     1611.47    -116.21      0.09  -3.512E+01   0.07 |
  |    Zr          3     1624.26    -121.88      0.11  -3.599E+01   0.11 |
  |    Zr          4     1611.47    -116.21      0.09  -3.512E+01   0.07 |
[...]
  |    La          2     4598.48     529.13      0.05  -7.801E+01   0.07 |
  |    La          3     4656.78     649.68      0.07  -8.424E+01   0.12 |
  |    La          4     4653.50     651.19      0.02  -8.373E+01   0.03 |
  |    La          5     4598.48     529.13      0.05  -7.801E+01   0.07 |
  |    La          6     4653.50     651.20      0.02  -8.373E+01   0.03 |
  |    La          7     4656.78     649.68      0.07  -8.424E+01   0.12 |
  |    La          8     4607.58     522.10      0.06  -7.916E+01   0.08 |
  |    La          9     4596.75     510.71      0.06  -7.675E+01   0.04 |
  |    La         10     4653.31     659.12      0.07  -8.267E+01   0.10 |
  |    La         11     4487.76     230.95      0.02  -6.827E+01   0.00 |
  |    La         12     4556.73     374.27      0.05  -7.491E+01   0.09 |
  |    La         13     4607.58     522.10      0.06  -7.916E+01   0.08 |
  |    La         14     4556.73     374.26      0.05  -7.491E+01   0.09 |
  |    La         15     4653.30     659.11      0.07  -8.267E+01   0.10 |
  |    La         16     4607.16     543.61      0.05  -7.910E+01   0.16 |

 *********************** Forces ***********************
 *            Cartesian components (eV/A)             *
 *                   x            y            z      *
 * O         1     -0.00860     -0.00860      0.00695 *
 * O         2     -0.00028      0.00061     -0.00446 *
 * O         3      0.00061     -0.00028     -0.00446 *
 * O         4     -0.00105     -0.00105     -0.00042 *
 * O         5      0.00130     -0.00413     -0.00441 *
 * O         6      0.00133      0.00133      0.01004 *
 * O         7      0.00156      0.00156     -0.00422 *
 * O         8     -0.00413      0.00130     -0.00441 *
 * O         9      0.00027     -0.00384      0.00025 *
 * O        10     -0.00326     -0.03229      0.02424 *
 * O        11     -0.00210     -0.00807      0.01119 *
 * O        12      0.00111     -0.02157     -0.00624 *
 * O        13     -0.00384      0.00027      0.00024 *
 * O        14     -0.01418      0.00372      0.02680 *
 * O        15     -0.00807     -0.00210      0.01119 *
 * O        16      0.00105      0.00600     -0.00453 *
 * O        17     -0.02829     -0.02829     -0.00670 *
 * O        18      0.01536     -0.01052     -0.00368 *
 * O        19      0.00410      0.00410      0.00316 *
 * O        20     -0.02725     -0.01660     -0.00399 *
 * O        21     -0.01298     -0.00488      0.00757 *
 * O        22     -0.01184      0.00066     -0.00403 *
 * O        23     -0.00306     -0.00695     -0.00009 *
 * O        24      0.01426     -0.00727     -0.02206 *
 * O        25     -0.00727      0.01426     -0.02206 *
 * O        26      0.00255      0.02053      0.01577 *
 * O        27      0.00066     -0.01184     -0.00403 *
 * O        28      0.00058      0.02044     -0.02552 *
 * O        29      0.02171      0.02987     -0.00030 *
 * O        30     -0.00104     -0.00104      0.00305 *
 * O        31      0.00180     -0.00124      0.00279 *
 * O        32      0.00678      0.00678     -0.01003 *
 * O        33     -0.00488     -0.01298      0.00757 *
 * O        34     -0.00695     -0.00306     -0.00009 *
 * O        35      0.02044      0.00058     -0.02552 *
 * O        36      0.02053      0.00255      0.01577 *
 * O        37     -0.00124      0.00180      0.00279 *
 * O        38      0.02987      0.02171     -0.00030 *
 * O        39     -0.03229     -0.00326      0.02424 *
 * O        40     -0.02157      0.00111     -0.00624 *
 * O        41      0.00600      0.00105     -0.00453 *
 * O        42      0.00372     -0.01418      0.02680 *
 * O        43     -0.01660     -0.02725     -0.00399 *
 * O        44     -0.01052      0.01536     -0.00368 *
 * O        45      0.00349      0.01599      0.01509 *
 * O        46     -0.00062     -0.00307      0.00389 *
 * O        47     -0.00173     -0.00173     -0.00125 *
 * O        48      0.00605      0.00605      0.00362 *
 * O        49      0.03508     -0.00403     -0.02244 *
 * O        50     -0.01053     -0.00400     -0.01185 *
 * O        51     -0.00403      0.03508     -0.02244 *
 * O        52     -0.00400     -0.01053     -0.01185 *
 * O        53      0.00655      0.00655      0.01528 *
 * O        54     -0.00249     -0.00249     -0.00788 *
 * O        55     -0.00307     -0.00062      0.00389 *
 * O        56      0.01599      0.00349      0.01509 *
 * Zr        1     -0.01108     -0.01108     -0.00177 *
 * Zr        2     -0.00058     -0.01297     -0.01374 *
 * Zr        3     -0.01182     -0.00989      0.00510 *
 * Zr        4     -0.01297     -0.00058     -0.01375 *
[...]
 * La        2     -0.00309     -0.00099      0.00658 *
 * La        3     -0.00352      0.00433      0.01195 *
 * La        4      0.00768     -0.00184      0.00614 *
 * La        5     -0.00099     -0.00310      0.00659 *
 * La        6     -0.00184      0.00768      0.00614 *
 * La        7      0.00433     -0.00351      0.01196 *
 * La        8     -0.00191      0.00876      0.00560 *
 * La        9     -0.00136     -0.00136     -0.01645 *
 * La       10      0.01153      0.01768     -0.00112 *
 * La       11      0.00629      0.00629      0.00492 *
 * La       12     -0.00215     -0.00808     -0.00116 *
 * La       13      0.00876     -0.00192      0.00560 *
 * La       14     -0.00808     -0.00215     -0.00116 *
 * La       15      0.01768      0.01154     -0.00112 *
 * La       16     -0.00865     -0.00865     -0.00008 *

 ***************** Stress Tensor *****************
 *          Cartesian components (GPa)           *
 *             x             y             z     *
 *  x     -0.000190      0.003547     -0.004527  *
 *  y      0.003547     -0.000190     -0.004527  *
 *  z     -0.004527     -0.004527      0.000466  *
 *  Pressure:   -0.0000                          *

[...]

 Pseudo atomic calculation performed for Sn 4d10 5s2 5p2

[...]

 Pseudo atomic calculation performed for La 5s2 5p6 5d1 6s2

 Converged in 34 iterations to a total energy of -968.0372 eV

Charge spilling parameter for spin component 1 = 0.25%

     Atomic Populations (Mulliken)
Species   Ion     s      p      d      f     Total  Charge (e)
  O        1     1.87   5.00   0.00   0.00   6.87    -0.87
  O        2     1.87   5.00   0.00   0.00   6.87    -0.87
  O        3     1.87   5.00   0.00   0.00   6.87    -0.87
  O        4     1.87   5.00   0.00   0.00   6.87    -0.87
  O        5     1.87   5.00   0.00   0.00   6.87    -0.87
  O        6     1.87   5.00   0.00   0.00   6.87    -0.87
  O        7     1.87   5.00   0.00   0.00   6.87    -0.87
  O        8     1.87   5.00   0.00   0.00   6.87    -0.87
  O        9     1.88   5.03   0.00   0.00   6.91    -0.91
  O       10     1.87   4.99   0.00   0.00   6.86    -0.86
  O       11     1.88   5.02   0.00   0.00   6.91    -0.91
  O       12     1.87   4.99   0.00   0.00   6.86    -0.86
  O       13     1.88   5.03   0.00   0.00   6.91    -0.91
  O       14     1.87   4.99   0.00   0.00   6.86    -0.86
  O       15     1.88   5.02   0.00   0.00   6.91    -0.91
  O       16     1.88   5.03   0.00   0.00   6.91    -0.91
  O       17     1.87   4.99   0.00   0.00   6.86    -0.86
  O       18     1.87   4.99   0.00   0.00   6.86    -0.86
  O       19     1.88   5.03   0.00   0.00   6.91    -0.91
  O       20     1.87   4.99   0.00   0.00   6.86    -0.86
  O       21     1.87   4.99   0.00   0.00   6.86    -0.86
  O       22     1.88   5.03   0.00   0.00   6.91    -0.91
  O       23     1.88   5.03   0.00   0.00   6.91    -0.91
  O       24     1.87   4.99   0.00   0.00   6.86    -0.86
  O       25     1.87   4.99   0.00   0.00   6.86    -0.86
  O       26     1.87   4.99   0.00   0.00   6.86    -0.86
  O       27     1.88   5.03   0.00   0.00   6.91    -0.91
  O       28     1.87   4.99   0.00   0.00   6.86    -0.86
  O       29     1.87   4.99   0.00   0.00   6.86    -0.86
  O       30     1.88   5.03   0.00   0.00   6.91    -0.91
  O       31     1.88   5.02   0.00   0.00   6.91    -0.91
  O       32     1.88   5.02   0.00   0.00   6.91    -0.91
  O       33     1.87   4.99   0.00   0.00   6.86    -0.86
  O       34     1.88   5.03   0.00   0.00   6.91    -0.91
  O       35     1.87   4.99   0.00   0.00   6.86    -0.86
  O       36     1.87   4.99   0.00   0.00   6.86    -0.86
  O       37     1.88   5.02   0.00   0.00   6.91    -0.91
  O       38     1.87   4.99   0.00   0.00   6.86    -0.86
  O       39     1.87   4.99   0.00   0.00   6.86    -0.86
  O       40     1.87   4.99   0.00   0.00   6.86    -0.86
  O       41     1.88   5.03   0.00   0.00   6.91    -0.91
  O       42     1.87   4.99   0.00   0.00   6.86    -0.86
  O       43     1.87   4.99   0.00   0.00   6.86    -0.86
  O       44     1.87   4.99   0.00   0.00   6.86    -0.86
  O       45     1.87   4.99   0.00   0.00   6.86    -0.86
  O       46     1.86   4.95   0.00   0.00   6.80    -0.80
  O       47     1.88   5.03   0.00   0.00   6.91    -0.91
  O       48     1.87   4.99   0.00   0.00   6.86    -0.86
  O       49     1.87   4.99   0.00   0.00   6.86    -0.86
  O       50     1.87   4.99   0.00   0.00   6.86    -0.86
  O       51     1.87   4.99   0.00   0.00   6.86    -0.86
  O       52     1.87   4.99   0.00   0.00   6.86    -0.86
  O       53     1.86   4.95   0.00   0.00   6.80    -0.80
  O       54     1.86   4.95   0.00   0.00   6.80    -0.80
  O       55     1.86   4.95   0.00   0.00   6.80    -0.80
  O       56     1.87   4.99   0.00   0.00   6.86    -0.86
  Zr       1     2.37   6.49   1.92   0.00  10.78     1.22
  Zr       2     2.36   6.49   1.92   0.00  10.78     1.22
  Zr       3     2.37   6.48   1.92   0.00  10.78     1.22
  Zr       4     2.36   6.49   1.92   0.00  10.78     1.22
[...]
  La       2     2.09   6.18   1.19   0.00   9.46     1.54
  La       3     2.05   6.18   1.19   0.00   9.42     1.58
  La       4     2.03   6.17   1.19   0.00   9.40     1.60
  La       5     2.09   6.18   1.19   0.00   9.46     1.54
  La       6     2.03   6.17   1.19   0.00   9.40     1.60
  La       7     2.05   6.18   1.19   0.00   9.42     1.58
  La       8     2.06   6.18   1.19   0.00   9.44     1.56
  La       9     2.10   6.18   1.19   0.00   9.47     1.53
  La      10     2.04   6.17   1.20   0.00   9.41     1.59
  La      11     2.12   6.20   1.19   0.00   9.52     1.48
  La      12     2.09   6.20   1.19   0.00   9.48     1.52
  La      13     2.06   6.18   1.19   0.00   9.44     1.56
  La      14     2.09   6.20   1.19   0.00   9.48     1.52
  La      15     2.04   6.17   1.20   0.00   9.41     1.59
  La      16     2.06   6.18   1.19   0.00   9.44     1.56

            Bond              Population      Length (A)
         O 29 -- Sn 7              0.35        2.10292
         O 38 -- Sn 3              0.35        2.10292
         O 18 -- Sn 6              0.34        2.10320
         O 44 -- Sn 8              0.34        2.10320
         O 45 -- Sn 9              0.34        2.10353
         O 56 -- Sn 4              0.34        2.10353
         O 48 -- Sn 5              0.34        2.10459
         O 26 -- Sn 10             0.34        2.10551
         O 36 -- Sn 10             0.34        2.10551
         O 51 -- Sn 2              0.35        2.10572
         O 49 -- Sn 1              0.35        2.10572
         O 17 -- Sn 10             0.34        2.10577
         O 10 -- Sn 2              0.35        2.10577
         O 39 -- Sn 1              0.35        2.10577
         O 40 -- Sn 3              0.34        2.10634
         O 12 -- Sn 7              0.34        2.10634
         O 25 -- Sn 6              0.34        2.10656
         O 24 -- Sn 8              0.34        2.10656
         O 14 -- Sn 8              0.34        2.10674
         O 42 -- Sn 6              0.34        2.10674
         O 35 -- Sn 9              0.34        2.10729
         O 28 -- Sn 4              0.34        2.10729
         O 33 -- Sn 5              0.34        2.10761
         O 21 -- Sn 5              0.34        2.10761
         O 52 -- Sn 8              0.34        2.10768
         O 50 -- Sn 6              0.34        2.10768
         O 22 -- Sn 4              0.34        2.10855
         O 27 -- Sn 9              0.34        2.10855
         O 41 -- Sn 10             0.34        2.10966
         O 16 -- Sn 10             0.34        2.10966
         O 23 -- Sn 3              0.34        2.10970
         O 34 -- Sn 7              0.34        2.10970
         O 20 -- Sn 3              0.35        2.10975
         O 43 -- Sn 7              0.35        2.10975
         O 30 -- Sn 6              0.34        2.11008
         O 30 -- Sn 8              0.34        2.11008
         O 17 -- Zr 6              0.44        2.11086
         O 11 -- Sn 5              0.34        2.11128
         O 15 -- Sn 5              0.34        2.11128
         O 23 -- Sn 2              0.33        2.11174
         O 34 -- Sn 1              0.33        2.11174
         O 16 -- Sn 2              0.33        2.11203
         O 41 -- Sn 1              0.33        2.11203
         O 27 -- Sn 3              0.33        2.11212
         O 22 -- Sn 7              0.33        2.11212
         O 13 -- Sn 6              0.34        2.11321
         O 9  -- Sn 8              0.34        2.11321
         O 47 -- Sn 1              0.33        2.11440
         O 47 -- Sn 2              0.33        2.11440
         O 19 -- Sn 4              0.33        2.11442
         O 19 -- Sn 9              0.33        2.11442
         O 37 -- Sn 1              0.33        2.11457
         O 31 -- Sn 2              0.33        2.11457
         O 15 -- Sn 9              0.34        2.11460
         O 11 -- Sn 4              0.34        2.11460
         O 44 -- Zr 3              0.44        2.11475
         O 18 -- Zr 5              0.44        2.11475
         O 53 -- Zr 5              0.41        2.11563
         O 53 -- Zr 3              0.41        2.11563
         O 31 -- Sn 9              0.33        2.11591
[...]
         O 54 -- O 56             -0.03        2.82758
         O 48 -- O 52             -0.03        2.82780
         O 48 -- O 50             -0.03        2.82780
         O 18 -- O 21             -0.03        2.82855
         O 33 -- O 44             -0.03        2.82855
         O 38 -- O 42             -0.03        2.82855
         O 14 -- O 29             -0.03        2.82855
         O 20 -- O 49             -0.03        2.82895
         O 43 -- O 51             -0.03        2.82895
         O 25 -- O 39             -0.03        2.82925
         O 10 -- O 24             -0.03        2.82925
         O 35 -- O 43             -0.03        2.83701
         O 20 -- O 28             -0.03        2.83701
         O 12 -- O 21             -0.03        2.83776
         O 33 -- O 40             -0.03        2.83776

Writing analysis data to 011.castep_bin

Writing model to 011.check

 A BibTeX formatted list of references used in this run has been written to
 011.bib

Initialisation time =     53.84 s
Calculation time    =  33904.06 s
Finalisation time   =     56.82 s
Total time          =  34014.72 s

Overall parallel efficiency rating: Very good (80%)

Data was distributed by:-
G-vector (4-way); efficiency rating: Very good (80%)
k-point (14-way); efficiency rating: Excellent (99%)