 Compiled for linux_x86_64_ifort16 on Sat, 23 Jul 2016 23:44:54 +0100
 from code version
 203e84763863+ Castep161_branch Fri, 04 Mar 2016 19:21:07 +0000
 Compiler: Intel Fortran 16.0.3.210; Optimisation: fast
 MATHLIBS: Intel MKL(11.3.3) (LAPACK version 3.6.0)
 FFT Lib : mkl
 Fundamental constants values: CODATA 2010

 Run started: Sun, 25 Mar 2018 02:14:41 +0100
 |           N   N    M   M    RRRR                |
 |           NN  N    MM MM    R   R               |
 |           N N N    M M M    RRRR                |
 |           N  NN    M   M    R  R                |
 |           N   N    M   M    R   R               |
 | Welcome to Materials Studio CASTEP-NMR          |
 | Authors:                                        |
 | J.R. Yates, C.J. Pickard, F. Mauri              |
 | Contributors:                                   |
 | T.F.G. Green, S.A. Joyce                        |
 | Copyright (c) 2004 - 2015                       |
 | Please cite the appropriate publications in all |
 | work arising from your use of CASTEP NMR.       |
 | For NMR Shielding Tensors cite:                 |
 |    "All-electron magnetic response with         |
 |    pseudopotentials: NMR chemical shifts",      |
 |    C. J. Pickard, F. Mauri;                     |
 |    Physical Review B63 245101 (2001), and       |
 |    "Calculation of NMR Chemical Shifts          |
 |    for extended systems using                   |
 |    Ultrasoft Pseudopotentials",                 |
 |    J. R. Yates, C. J. Pickard and F. Mauri      |
 |    Physical Review B76 024401 (2007)            |
 | For Electric Field Gradients cite:              |
 |   "Accurate First Principles Prediction of 17O  |
 |    NMR Parameters in SiO2: Assignment of the    |
 |    Zeolite Ferrierite Spectrum"                 |
 |    M. Profeta, F. Mauri and C. J. Pickard       |
 |    J. Amer. Chem. Soc. 125 541 (2003)           |
 | For Spin-Spin (J) Couplings cite:               |
 |   "A first principles theory of NMR J-coupling  |
 |   in solid-state systems"                       |
 |   S.A. Joyce, J.R. Yates, C.J. Pickard, F. Mauri|
 |   J. Chem. Phys. 127 204107 (2007)              |
 |   "Relativistic NMR J-coupling with ultrasoft   |
 |   pseudopotentials and the zeroth-order regular |
 |   approximation"                                |
 |   T.F.G. Green and J.R. Yates                   |
 |   J. Chem. Phys. 140 234106 (2014)              |

 Atomic calculation performed for O: 1s2 2s2 2p4

 Converged in 44 iterations to an ae energy of -2040.855 eV

 Atomic calculation performed for O: 1s2 2s2 2p4

 Exceeded max iterations: converged to 0.000000062 eV

   | Pseudopotential Report - Date of generation 25-03-2018   |
   | Element: O Ionic charge:  6.00 Level of theory: PBE      |
   | Atomic Solver: ZORA (scalar)                             |
   |               Reference Electronic Structure             |
   |         Orbital         Occupation         Energy        |
   |            2s              2.000           -0.881        |
   |            2p              4.000           -0.332        |
   |                 Pseudopotential Definition               |
   |        Beta     l      e      Rc     scheme   norm       |
   |          1      0   -0.881   1.100     qc      0         |
   |          2      0    0.250   1.100     qc      0         |
   |          3      1   -0.332   1.100     qc      0         |
   |          4      1    0.250   1.100     qc      0         |
   |         loc     2    0.000   1.100     pn      0         |
   | Augmentation charge Rinner = 0.769                       |
   | Partial core correction Rc = 0.769                       |
   | "2|1.1|15|18|20|20:21(qc=7)"                             |
   |      Author: Chris J. Pickard, Cambridge University      |

 Atomic calculation performed for Zr: 1s2 2s2 2p6 3s2 3p6 3d10 4s2 4p6 4d2 5s2

[...]

 Atomic calculation performed for Zr: 1s2 2s2 2p6 3s2 3p6 3d10 4s2 4p6 4d2 5s2

[...]

 Warning: ion_atom_descreen_psp: negative charge density encountered
   | Pseudopotential Report - Date of generation 25-03-2018   |
   | Element: Zr Ionic charge: 12.00 Level of theory: PBE     |
   | Atomic Solver: ZORA (scalar)                             |
   |               Reference Electronic Structure             |
   |         Orbital         Occupation         Energy        |
   |            4s              2.000           -2.003        |
   |            4p              6.000           -1.193        |
   |            5s              2.000           -0.163        |
   |            4d              2.000           -0.132        |
   |                 Pseudopotential Definition               |
   |        Beta     l      e      Rc     scheme   norm       |
   |          1      0   -2.003   2.105     qc      0         |
   |          2      0   -0.163   2.105     qc      0         |
   |          3      0    0.250   2.105     qc      0         |
   |          4      1   -1.193   2.105     qc      0         |
   |          5      1    0.250   2.105     qc      0         |
   |          6      2   -0.132   2.105     qc      0         |
   |          7      2    0.250   2.105     qc      0         |
   |         loc     3    0.000   2.105     pn      0         |
   | Augmentation charge Rinner = 1.471                       |
   | Partial core correction Rc = 1.471                       |
   | "3|2.1|7|8|9|40U:50:41:42"                               |
   |      Author: Chris J. Pickard, Cambridge University      |

 Atomic calculation performed for Sn:

[...]

 Atomic calculation performed for Sn:

[...]

   | Pseudopotential Report - Date of generation 25-03-2018   |
   | Element: Sn Ionic charge: 14.00 Level of theory: PBE     |
   | Atomic Solver: ZORA (scalar)                             |
   |               Reference Electronic Structure             |
   |         Orbital         Occupation         Energy        |
   |            4d             10.000           -0.950        |
   |            5s              2.000           -0.388        |
   |            5p              2.000           -0.136        |
   |                 Pseudopotential Definition               |
   |        Beta     l      e      Rc     scheme   norm       |
   |          1      0   -0.388   2.199     qc      0         |
   |          2      0    0.250   2.199     qc      0         |
   |          3      1   -0.136   2.199     qc      0         |
   |          4      1    0.250   2.199     qc      0         |
   |          5      2   -0.950   2.199     qc      0         |
   |          6      2    0.250   2.199     qc      0         |
   |         loc     3    0.000   2.199     pn      0         |
   | Augmentation charge Rinner = 1.537                       |
   | Partial core correction Rc = 1.537                       |
   | "3|2.2|7|8|9|50:51:42"                                   |
   |      Author: Chris J. Pickard, Cambridge University      |

 Atomic calculation performed for La:

 Converged in 56 iterations to an ae energy of -230121.495 eV

 Atomic calculation performed for La:

 Exceeded max iterations: converged to 0.000000907 eV

 Warning: ion_atom_descreen_psp: negative charge density encountered
   | Pseudopotential Report - Date of generation 25-03-2018   |
   | Element: La Ionic charge: 11.00 Level of theory: PBE     |
   | Atomic Solver: ZORA (scalar)                             |
   |               Reference Electronic Structure             |
   |         Orbital         Occupation         Energy        |
   |            5s              2.000           -1.430        |
   |            5p              6.000           -0.823        |
   |            6s              2.000           -0.135        |
   |            5d              1.000           -0.114        |
   |                 Pseudopotential Definition               |
   |        Beta     l      e      Rc     scheme   norm       |
   |          1      0   -1.430   2.298     qc      0         |
   |          2      0   -0.135   2.298     qc      0         |
   |          3      0    0.250   2.298     qc      0         |
   |          4      1   -0.823   2.298     qc      0         |
   |          5      1    0.250   2.298     qc      0         |
   |          6      2   -0.114   2.298     qc      0         |
   |          7      2    0.250   2.298     qc      0         |
   |         loc     2    0.000   2.298     pn      0         |
   | Augmentation charge Rinner = 1.606                       |
   | Partial core correction Rc = 1.606                       |
   | "2|2.3|5|6|7|50U:60:51:52(qc=4.5)"                       |
   |      Author: Chris J. Pickard, Cambridge University      |

 Pseudo atomic calculation performed for O 2s2 2p4

 Converged in 39 iterations to a total energy of -432.6554 eV

 Pseudo atomic calculation performed for Zr 4s2 4p6 4d2 5s2

[...]

 Calculation parallelised over 56 processes.
 Data is distributed by G-vector(4-way) and k-point(14-way)

 ************************************ Title ************************************
 nmr testing

 ***************************** General Parameters ******************************

 output verbosity                               : normal  (1)
 write checkpoint data to                       : 012.check
 type of calculation                            : Magnetic Resonance
 stress calculation                             : on
 density difference calculation                 : off
 electron localisation func (ELF) calculation   : off
 Hirshfeld analysis                             : off
 unlimited duration calculation
 timing information                             : on
 write final potential to formatted file        : off
 write final density to formatted file          : off
 write structure in CIF formatted file          : on
 write structure in CELL formatted file         : on
 write BibTeX reference list                    : on
 write OTFG pseudopotential files               : on
 checkpoint writing                             : both castep_bin and check files

 output         length unit                     : A
 output           mass unit                     : amu
 output           time unit                     : ps
 output         charge unit                     : e
 output           spin unit                     : hbar/2
 output         energy unit                     : eV
 output          force unit                     : eV/A
 output       velocity unit                     : A/ps
 output       pressure unit                     : GPa
 output     inv_length unit                     : 1/A
 output      frequency unit                     : cm-1
 output force constant unit                     : eV/A**2
 output         volume unit                     : A**3
 output   IR intensity unit                     : (D/A)**2/amu
 output         dipole unit                     : D
 output         efield unit                     : eV/A/e
 output        entropy unit                     : J/mol/K

 wavefunctions paging                           : none
 random number generator seed                   : randomised (21443059)
 data distribution                              : optimal for this architecture
[...]
  |    O          42      -90.47      85.58      0.22  -3.144E+00   0.07 |
  |    O          43      -85.70      85.24      0.24  -3.195E+00   0.07 |
  |    O          44      -84.31      86.44      0.32  -3.139E+00   0.08 |
  |    O          45      -87.30      85.46      0.23  -3.173E+00   0.07 |
  |    O          46     -160.84     148.75      0.86   1.068E+00   0.68 |
  |    O          47      -16.21     -40.58      0.82   3.891E+00   0.89 |
  |    O          48      -92.40      92.21      0.25  -3.150E+00   0.08 |
  |    O          49      -87.32      87.51      0.11  -3.188E+00   0.08 |
  |    O          50      -91.20      91.78      0.28  -3.162E+00   0.08 |
  |    O          51      -90.17      86.09      0.11  -3.214E+00   0.07 |
  |    O          52      -91.73      92.50      0.24  -3.213E+00   0.09 |
  |    O          53     -161.62     152.20      0.86   1.021E+00   0.77 |
  |    O          54      -88.67      84.46      0.14  -3.234E+00   0.07 |
  |    O          55     -161.74     149.75      0.85   1.050E+00   0.67 |
  |    O          56     -161.59     148.09      0.85   1.048E+00   0.67 |
  |    Zr          1     1611.25    -115.95      0.06  -3.512E+01   0.11 |
  |    Zr          2     1610.85    -116.00      0.05  -3.523E+01   0.13 |
  |    Zr          3     1624.48    -122.01      0.08  -3.598E+01   0.08 |
  |    Zr          4     1626.02    -124.85      0.16  -3.613E+01   0.16 |
[...]
  |    La          2     4651.46     658.95      0.08  -8.337E+01   0.14 |
  |    La          3     4603.96     521.93      0.06  -7.996E+01   0.09 |
  |    La          4     4653.58     650.74      0.01  -8.351E+01   0.03 |
  |    La          5     4605.59     526.33      0.04  -7.988E+01   0.09 |
  |    La          6     4647.34     655.77      0.02  -8.249E+01   0.03 |
  |    La          7     4656.96     621.07      0.01  -8.285E+01   0.03 |
  |    La          8     4608.57     524.96      0.06  -7.901E+01   0.09 |
  |    La          9     4648.50     666.52      0.08  -8.146E+01   0.11 |
  |    La         10     4602.34     504.96      0.07  -7.872E+01   0.07 |
  |    La         11     4497.39     225.86      0.02  -6.999E+01   0.00 |
  |    La         12     4547.27     383.90      0.07  -7.436E+01   0.11 |
  |    La         13     4559.74     380.94      0.05  -7.454E+01   0.10 |
  |    La         14     4606.99     522.07      0.06  -7.924E+01   0.08 |
  |    La         15     4605.49     505.43      0.08  -7.803E+01   0.07 |
  |    La         16     4654.99     660.70      0.08  -8.211E+01   0.12 |

 *********************** Forces ***********************
 *            Cartesian components (eV/A)             *
 *                   x            y            z      *
 * O         1     -0.01810     -0.00846      0.00228 *
 * O         2     -0.00665      0.00633      0.00238 *
 * O         3     -0.01178     -0.00118      0.00103 *
 * O         4     -0.00237     -0.00095     -0.00094 *
 * O         5      0.00477      0.00531     -0.00524 *
 * O         6      0.00491     -0.00373      0.01214 *
 * O         7      0.01853      0.00411      0.00250 *
 * O         8      0.00987     -0.00149     -0.00527 *
 * O         9      0.01221     -0.00283     -0.00048 *
 * O        10     -0.00489     -0.00165      0.00505 *
 * O        11      0.00150      0.01972     -0.02230 *
 * O        12      0.00188     -0.01577     -0.00931 *
 * O        13     -0.00149      0.00478      0.00539 *
 * O        14     -0.01495      0.00282      0.02548 *
 * O        15      0.00124     -0.00536      0.00486 *
 * O        16      0.00024      0.00614      0.00342 *
 * O        17      0.00892      0.01197     -0.00179 *
 * O        18      0.01860     -0.02011     -0.00187 *
 * O        19     -0.01315      0.02489      0.00582 *
 * O        20     -0.02561     -0.02185     -0.00021 *
 * O        21     -0.02211     -0.00032      0.00905 *
 * O        22      0.01296      0.00183      0.02652 *
 * O        23     -0.00098     -0.01014     -0.00607 *
 * O        24     -0.01156      0.00692      0.00043 *
 * O        25     -0.00262     -0.01065      0.00051 *
 * O        26     -0.00096      0.01468      0.02348 *
 * O        27      0.00518     -0.00424      0.00355 *
 * O        28      0.00200      0.00061      0.00735 *
 * O        29      0.00807      0.02914      0.00133 *
 * O        30      0.00275     -0.00011     -0.00428 *
 * O        31     -0.00397      0.00553      0.00665 *
 * O        32      0.00431      0.00743     -0.00555 *
 * O        33     -0.00437     -0.03222      0.01213 *
 * O        34     -0.01360     -0.00516     -0.00523 *
 * O        35      0.02343      0.00986     -0.01146 *
 * O        36      0.01432      0.00266      0.02954 *
 * O        37      0.02810     -0.02099     -0.00289 *
 * O        38      0.03300      0.01482     -0.00394 *
 * O        39     -0.00049     -0.00543     -0.00510 *
 * O        40     -0.02449     -0.00431     -0.01595 *
 * O        41      0.00237     -0.00196     -0.00558 *
 * O        42      0.00789     -0.01847      0.02050 *
 * O        43     -0.02012     -0.01226      0.00435 *
 * O        44     -0.01273      0.02653     -0.00051 *
 * O        45      0.00501      0.01448      0.02073 *
 * O        46     -0.00366     -0.00479     -0.00635 *
 * O        47     -0.00079     -0.00823      0.00063 *
 * O        48      0.01891      0.01504     -0.00210 *
 * O        49      0.02557     -0.00452     -0.01910 *
 * O        50     -0.01080     -0.00976     -0.02112 *
 * O        51     -0.00591      0.02740     -0.02390 *
 * O        52     -0.01069     -0.01075     -0.02104 *
 * O        53     -0.00233     -0.00406      0.00419 *
 * O        54     -0.02584     -0.02244      0.00214 *
 * O        55     -0.00630     -0.00547     -0.00678 *
 * O        56      0.00440      0.00727      0.00215 *
 * Zr        1     -0.02278      0.01352      0.02659 *
 * Zr        2     -0.00703     -0.01223     -0.00318 *
 * Zr        3     -0.00604      0.01652      0.00814 *
 * Zr        4      0.00172     -0.00322     -0.00509 *
[...]
 * La        2     -0.00031     -0.02169      0.00228 *
 * La        3      0.00290     -0.00249      0.00303 *
 * La        4     -0.00871      0.00902      0.01659 *
 * La        5      0.00140     -0.00188     -0.00274 *
 * La        6      0.00655     -0.00461      0.00209 *
 * La        7     -0.01864     -0.01250     -0.00472 *
 * La        8      0.00000      0.00920      0.00787 *
 * La        9     -0.00455     -0.00143     -0.02291 *
 * La       10      0.00079      0.01424      0.00774 *
 * La       11     -0.00292      0.00554      0.00496 *
 * La       12     -0.00655     -0.00169     -0.01282 *
 * La       13      0.00801     -0.00361     -0.00058 *
 * La       14     -0.00422     -0.00597     -0.00807 *
 * La       15      0.01947     -0.00030     -0.00406 *
 * La       16     -0.02668     -0.00661     -0.00383 *

 ***************** Stress Tensor *****************
 *          Cartesian components (GPa)           *
 *             x             y             z     *
 *  x     -0.006815     -0.008463      0.005120  *
 *  y     -0.008463      0.003864      0.054523  *
 *  z      0.005120      0.054523      0.007222  *
 *  Pressure:   -0.0014                          *

[...]

 Pseudo atomic calculation performed for Sn 4d10 5s2 5p2

[...]

 Pseudo atomic calculation performed for La 5s2 5p6 5d1 6s2

 Converged in 34 iterations to a total energy of -968.0372 eV

Charge spilling parameter for spin component 1 = 0.25%

     Atomic Populations (Mulliken)
Species   Ion     s      p      d      f     Total  Charge (e)
  O        1     1.87   5.00   0.00   0.00   6.87    -0.87
  O        2     1.87   5.00   0.00   0.00   6.87    -0.87
  O        3     1.87   5.00   0.00   0.00   6.87    -0.87
  O        4     1.87   5.00   0.00   0.00   6.87    -0.87
  O        5     1.87   5.00   0.00   0.00   6.87    -0.87
  O        6     1.87   5.00   0.00   0.00   6.87    -0.87
  O        7     1.87   5.00   0.00   0.00   6.87    -0.87
  O        8     1.87   5.00   0.00   0.00   6.87    -0.87
  O        9     1.88   5.02   0.00   0.00   6.91    -0.91
  O       10     1.88   5.03   0.00   0.00   6.91    -0.91
  O       11     1.87   4.99   0.00   0.00   6.86    -0.86
  O       12     1.87   4.99   0.00   0.00   6.86    -0.86
  O       13     1.88   5.02   0.00   0.00   6.91    -0.91
  O       14     1.87   4.99   0.00   0.00   6.86    -0.86
  O       15     1.88   5.02   0.00   0.00   6.91    -0.91
  O       16     1.88   5.03   0.00   0.00   6.91    -0.91
  O       17     1.88   5.03   0.00   0.00   6.91    -0.91
  O       18     1.87   4.99   0.00   0.00   6.86    -0.86
  O       19     1.87   4.99   0.00   0.00   6.86    -0.86
  O       20     1.87   4.99   0.00   0.00   6.86    -0.86
  O       21     1.87   4.99   0.00   0.00   6.86    -0.86
  O       22     1.87   4.99   0.00   0.00   6.86    -0.86
  O       23     1.88   5.03   0.00   0.00   6.91    -0.91
  O       24     1.88   5.03   0.00   0.00   6.91    -0.91
  O       25     1.88   5.03   0.00   0.00   6.91    -0.91
  O       26     1.87   4.99   0.00   0.00   6.86    -0.86
  O       27     1.88   5.03   0.00   0.00   6.91    -0.91
  O       28     1.86   4.95   0.00   0.00   6.80    -0.80
  O       29     1.87   4.99   0.00   0.00   6.86    -0.86
  O       30     1.88   5.03   0.00   0.00   6.91    -0.91
  O       31     1.88   5.02   0.00   0.00   6.91    -0.91
  O       32     1.88   5.02   0.00   0.00   6.91    -0.91
  O       33     1.87   4.99   0.00   0.00   6.86    -0.86
  O       34     1.88   5.02   0.00   0.00   6.91    -0.91
  O       35     1.87   4.99   0.00   0.00   6.86    -0.86
  O       36     1.87   4.99   0.00   0.00   6.86    -0.86
  O       37     1.87   4.99   0.00   0.00   6.86    -0.86
  O       38     1.87   4.99   0.00   0.00   6.86    -0.86
  O       39     1.88   5.03   0.00   0.00   6.91    -0.91
  O       40     1.87   4.99   0.00   0.00   6.86    -0.86
  O       41     1.88   5.03   0.00   0.00   6.91    -0.91
  O       42     1.87   4.99   0.00   0.00   6.86    -0.86
  O       43     1.87   4.99   0.00   0.00   6.86    -0.86
  O       44     1.87   4.99   0.00   0.00   6.86    -0.86
  O       45     1.87   4.99   0.00   0.00   6.86    -0.86
  O       46     1.86   4.95   0.00   0.00   6.80    -0.80
  O       47     1.88   5.03   0.00   0.00   6.91    -0.91
  O       48     1.87   4.99   0.00   0.00   6.86    -0.86
  O       49     1.87   4.99   0.00   0.00   6.86    -0.86
  O       50     1.87   4.99   0.00   0.00   6.86    -0.86
  O       51     1.87   4.99   0.00   0.00   6.86    -0.86
  O       52     1.87   4.99   0.00   0.00   6.86    -0.86
  O       53     1.86   4.95   0.00   0.00   6.80    -0.80
  O       54     1.87   4.99   0.00   0.00   6.86    -0.86
  O       55     1.86   4.95   0.00   0.00   6.80    -0.80
  O       56     1.86   4.95   0.00   0.00   6.80    -0.80
  Zr       1     2.37   6.49   1.92   0.00  10.78     1.22
  Zr       2     2.37   6.49   1.92   0.00  10.78     1.22
  Zr       3     2.37   6.48   1.92   0.00  10.77     1.23
  Zr       4     2.36   6.48   1.92   0.00  10.77     1.23
[...]
  La       2     2.06   6.17   1.20   0.00   9.43     1.57
  La       3     2.08   6.18   1.19   0.00   9.46     1.54
  La       4     2.03   6.17   1.19   0.00   9.40     1.60
  La       5     2.08   6.18   1.19   0.00   9.46     1.54
  La       6     2.04   6.17   1.20   0.00   9.40     1.60
  La       7     2.06   6.18   1.19   0.00   9.43     1.57
  La       8     2.06   6.18   1.19   0.00   9.44     1.56
  La       9     2.05   6.17   1.20   0.00   9.41     1.59
  La      10     2.09   6.19   1.19   0.00   9.46     1.54
  La      11     2.12   6.21   1.19   0.00   9.52     1.48
  La      12     2.10   6.19   1.19   0.00   9.48     1.52
  La      13     2.09   6.20   1.19   0.00   9.48     1.52
  La      14     2.06   6.18   1.19   0.00   9.44     1.56
  La      15     2.07   6.19   1.19   0.00   9.45     1.55
  La      16     2.04   6.17   1.20   0.00   9.41     1.59

            Bond              Population      Length (A)
         O 38 -- Sn 3              0.35        2.10099
         O 29 -- Sn 7              0.35        2.10223
         O 33 -- Sn 5              0.35        2.10235
         O 11 -- Sn 5              0.35        2.10251
         O 41 -- Sn 10             0.34        2.10322
         O 50 -- Sn 6              0.34        2.10356
         O 35 -- Sn 9              0.34        2.10383
         O 52 -- Sn 8              0.34        2.10441
         O 27 -- Sn 9              0.34        2.10493
         O 43 -- Sn 7              0.35        2.10496
         O 20 -- Sn 3              0.35        2.10531
         O 22 -- Sn 7              0.34        2.10543
         O 21 -- Sn 5              0.34        2.10565
         O 12 -- Sn 7              0.34        2.10575
         O 44 -- Sn 8              0.34        2.10605
         O 18 -- Sn 6              0.34        2.10658
         O 17 -- Sn 4              0.35        2.10684
         O 30 -- Sn 8              0.34        2.10691
         O 41 -- Sn 1              0.33        2.10716
         O 30 -- Sn 6              0.34        2.10723
         O 47 -- Sn 1              0.34        2.10729
         O 39 -- Sn 1              0.34        2.10757
         O 54 -- Sn 4              0.35        2.10763
         O 26 -- Sn 10             0.34        2.10783
         O 40 -- Sn 3              0.34        2.10807
         O 16 -- Sn 10             0.34        2.10835
         O 51 -- Sn 2              0.34        2.10854
         O 19 -- Sn 9              0.34        2.10854
         O 14 -- Sn 8              0.34        2.10863
         O 45 -- Sn 9              0.34        2.10903
         O 47 -- Sn 2              0.33        2.10950
         O 16 -- Sn 2              0.33        2.10977
         O 48 -- Sn 5              0.34        2.10978
         O 49 -- Sn 1              0.34        2.10990
         O 37 -- Sn 1              0.34        2.10993
         O 39 -- Sn 4              0.33        2.11007
         O 27 -- Sn 3              0.33        2.11008
         O 36 -- Sn 10             0.34        2.11009
         O 17 -- Sn 10             0.33        2.11069
         O 10 -- Sn 2              0.34        2.11182
         O 42 -- Sn 6              0.34        2.11192
         O 22 -- Zr 6              0.44        2.11357
         O 10 -- Sn 4              0.33        2.11376
         O 25 -- Sn 6              0.34        2.11380
         O 24 -- Sn 8              0.34        2.11384
         O 23 -- Sn 3              0.34        2.11397
         O 28 -- Zr 6              0.41        2.11398
         O 46 -- Zr 3              0.41        2.11398
         O 31 -- Sn 9              0.34        2.11462
         O 28 -- Zr 4              0.41        2.11482
         O 13 -- Sn 7              0.33        2.11482
         O 53 -- Zr 3              0.42        2.11505
         O 15 -- Sn 5              0.33        2.11507
         O 13 -- Sn 6              0.34        2.11520
         O 31 -- Sn 2              0.33        2.11522
         O 46 -- Zr 4              0.41        2.11538
         O 35 -- Zr 2              0.44        2.11543
         O 21 -- Zr 5              0.44        2.11548
         O 15 -- Sn 9              0.34        2.11565
         O 24 -- Sn 4              0.33        2.11601
[...]
         O 51 -- O 55             -0.03        2.82680
         O 48 -- O 50             -0.03        2.82691
         O 54 -- O 56             -0.03        2.82759
         O 18 -- O 21             -0.03        2.82767
         O 20 -- O 49             -0.03        2.82888
         O 20 -- O 28             -0.03        2.82939
         O 14 -- O 29             -0.03        2.82953
         O 46 -- O 49             -0.03        2.82987
         O 38 -- O 42             -0.03        2.83133
         O 43 -- O 51             -0.03        2.83180
         O 11 -- O 37             -0.03        2.83327
         O 33 -- O 40             -0.03        2.83461
         O 45 -- O 54             -0.03        2.83613
         O 36 -- O 44             -0.03        2.83671
         O 18 -- O 26             -0.03        2.83698

Writing analysis data to 012.castep_bin

Writing model to 012.check

 A BibTeX formatted list of references used in this run has been written to
 012.bib

Initialisation time =     54.11 s
Calculation time    =  33927.92 s
Finalisation time   =     81.89 s
Total time          =  34063.92 s

Overall parallel efficiency rating: Good (79%)

Data was distributed by:-
G-vector (4-way); efficiency rating: Very good (80%)
k-point (14-way); efficiency rating: Excellent (99%)