 Compiled for linux_x86_64_ifort16 on Sat, 23 Jul 2016 23:44:54 +0100
 from code version
 203e84763863+ Castep161_branch Fri, 04 Mar 2016 19:21:07 +0000
 Compiler: Intel Fortran 16.0.3.210; Optimisation: fast
 MATHLIBS: Intel MKL(11.3.3) (LAPACK version 3.6.0)
 FFT Lib : mkl
 Fundamental constants values: CODATA 2010

 Run started: Mon, 26 Mar 2018 16:04:35 +0100
 |           N   N    M   M    RRRR                |
 |           NN  N    MM MM    R   R               |
 |           N N N    M M M    RRRR                |
 |           N  NN    M   M    R  R                |
 |           N   N    M   M    R   R               |
 | Welcome to Materials Studio CASTEP-NMR          |
 | Authors:                                        |
 | J.R. Yates, C.J. Pickard, F. Mauri              |
 | Contributors:                                   |
 | T.F.G. Green, S.A. Joyce                        |
 | Copyright (c) 2004 - 2015                       |
 | Please cite the appropriate publications in all |
 | work arising from your use of CASTEP NMR.       |
 | For NMR Shielding Tensors cite:                 |
 |    "All-electron magnetic response with         |
 |    pseudopotentials: NMR chemical shifts",      |
 |    C. J. Pickard, F. Mauri;                     |
 |    Physical Review B63 245101 (2001), and       |
 |    "Calculation of NMR Chemical Shifts          |
 |    for extended systems using                   |
 |    Ultrasoft Pseudopotentials",                 |
 |    J. R. Yates, C. J. Pickard and F. Mauri      |
 |    Physical Review B76 024401 (2007)            |
 | For Electric Field Gradients cite:              |
 |   "Accurate First Principles Prediction of 17O  |
 |    NMR Parameters in SiO2: Assignment of the    |
 |    Zeolite Ferrierite Spectrum"                 |
 |    M. Profeta, F. Mauri and C. J. Pickard       |
 |    J. Amer. Chem. Soc. 125 541 (2003)           |
 | For Spin-Spin (J) Couplings cite:               |
 |   "A first principles theory of NMR J-coupling  |
 |   in solid-state systems"                       |
 |   S.A. Joyce, J.R. Yates, C.J. Pickard, F. Mauri|
 |   J. Chem. Phys. 127 204107 (2007)              |
 |   "Relativistic NMR J-coupling with ultrasoft   |
 |   pseudopotentials and the zeroth-order regular |
 |   approximation"                                |
 |   T.F.G. Green and J.R. Yates                   |
 |   J. Chem. Phys. 140 234106 (2014)              |

 Atomic calculation performed for O: 1s2 2s2 2p4

 Converged in 44 iterations to an ae energy of -2040.855 eV

 Atomic calculation performed for O: 1s2 2s2 2p4

 Exceeded max iterations: converged to 0.000000062 eV

   | Pseudopotential Report - Date of generation 26-03-2018   |
   | Element: O Ionic charge:  6.00 Level of theory: PBE      |
   | Atomic Solver: ZORA (scalar)                             |
   |               Reference Electronic Structure             |
   |         Orbital         Occupation         Energy        |
   |            2s              2.000           -0.881        |
   |            2p              4.000           -0.332        |
   |                 Pseudopotential Definition               |
   |        Beta     l      e      Rc     scheme   norm       |
   |          1      0   -0.881   1.100     qc      0         |
   |          2      0    0.250   1.100     qc      0         |
   |          3      1   -0.332   1.100     qc      0         |
   |          4      1    0.250   1.100     qc      0         |
   |         loc     2    0.000   1.100     pn      0         |
   | Augmentation charge Rinner = 0.769                       |
   | Partial core correction Rc = 0.769                       |
   | "2|1.1|15|18|20|20:21(qc=7)"                             |
   |      Author: Chris J. Pickard, Cambridge University      |

 Atomic calculation performed for Zr: 1s2 2s2 2p6 3s2 3p6 3d10 4s2 4p6 4d2 5s2

[...]

 Atomic calculation performed for Zr: 1s2 2s2 2p6 3s2 3p6 3d10 4s2 4p6 4d2 5s2

[...]

 Warning: ion_atom_descreen_psp: negative charge density encountered
   | Pseudopotential Report - Date of generation 26-03-2018   |
   | Element: Zr Ionic charge: 12.00 Level of theory: PBE     |
   | Atomic Solver: ZORA (scalar)                             |
   |               Reference Electronic Structure             |
   |         Orbital         Occupation         Energy        |
   |            4s              2.000           -2.003        |
   |            4p              6.000           -1.193        |
   |            5s              2.000           -0.163        |
   |            4d              2.000           -0.132        |
   |                 Pseudopotential Definition               |
   |        Beta     l      e      Rc     scheme   norm       |
   |          1      0   -2.003   2.105     qc      0         |
   |          2      0   -0.163   2.105     qc      0         |
   |          3      0    0.250   2.105     qc      0         |
   |          4      1   -1.193   2.105     qc      0         |
   |          5      1    0.250   2.105     qc      0         |
   |          6      2   -0.132   2.105     qc      0         |
   |          7      2    0.250   2.105     qc      0         |
   |         loc     3    0.000   2.105     pn      0         |
   | Augmentation charge Rinner = 1.471                       |
   | Partial core correction Rc = 1.471                       |
   | "3|2.1|7|8|9|40U:50:41:42"                               |
   |      Author: Chris J. Pickard, Cambridge University      |

 Atomic calculation performed for Sn:

[...]

 Atomic calculation performed for Sn:

[...]

   | Pseudopotential Report - Date of generation 26-03-2018   |
   | Element: Sn Ionic charge: 14.00 Level of theory: PBE     |
   | Atomic Solver: ZORA (scalar)                             |
   |               Reference Electronic Structure             |
   |         Orbital         Occupation         Energy        |
   |            4d             10.000           -0.950        |
   |            5s              2.000           -0.388        |
   |            5p              2.000           -0.136        |
   |                 Pseudopotential Definition               |
   |        Beta     l      e      Rc     scheme   norm       |
   |          1      0   -0.388   2.199     qc      0         |
   |          2      0    0.250   2.199     qc      0         |
   |          3      1   -0.136   2.199     qc      0         |
   |          4      1    0.250   2.199     qc      0         |
   |          5      2   -0.950   2.199     qc      0         |
   |          6      2    0.250   2.199     qc      0         |
   |         loc     3    0.000   2.199     pn      0         |
   | Augmentation charge Rinner = 1.537                       |
   | Partial core correction Rc = 1.537                       |
   | "3|2.2|7|8|9|50:51:42"                                   |
   |      Author: Chris J. Pickard, Cambridge University      |

 Atomic calculation performed for La:

 Converged in 56 iterations to an ae energy of -230121.495 eV

 Atomic calculation performed for La:

 Exceeded max iterations: converged to 0.000000907 eV

 Warning: ion_atom_descreen_psp: negative charge density encountered
   | Pseudopotential Report - Date of generation 26-03-2018   |
   | Element: La Ionic charge: 11.00 Level of theory: PBE     |
   | Atomic Solver: ZORA (scalar)                             |
   |               Reference Electronic Structure             |
   |         Orbital         Occupation         Energy        |
   |            5s              2.000           -1.430        |
   |            5p              6.000           -0.823        |
   |            6s              2.000           -0.135        |
   |            5d              1.000           -0.114        |
   |                 Pseudopotential Definition               |
   |        Beta     l      e      Rc     scheme   norm       |
   |          1      0   -1.430   2.298     qc      0         |
   |          2      0   -0.135   2.298     qc      0         |
   |          3      0    0.250   2.298     qc      0         |
   |          4      1   -0.823   2.298     qc      0         |
   |          5      1    0.250   2.298     qc      0         |
   |          6      2   -0.114   2.298     qc      0         |
   |          7      2    0.250   2.298     qc      0         |
   |         loc     2    0.000   2.298     pn      0         |
   | Augmentation charge Rinner = 1.606                       |
   | Partial core correction Rc = 1.606                       |
   | "2|2.3|5|6|7|50U:60:51:52(qc=4.5)"                       |
   |      Author: Chris J. Pickard, Cambridge University      |

 Pseudo atomic calculation performed for O 2s2 2p4

 Converged in 39 iterations to a total energy of -432.6554 eV

 Pseudo atomic calculation performed for Zr 4s2 4p6 4d2 5s2

[...]

 Calculation parallelised over 56 processes.
 Data is distributed by G-vector(4-way) and k-point(14-way)

 ************************************ Title ************************************
 nmr testing

 ***************************** General Parameters ******************************

 output verbosity                               : normal  (1)
 write checkpoint data to                       : 016.check
 type of calculation                            : Magnetic Resonance
 stress calculation                             : on
 density difference calculation                 : off
 electron localisation func (ELF) calculation   : off
 Hirshfeld analysis                             : off
 unlimited duration calculation
 timing information                             : on
 write final potential to formatted file        : off
 write final density to formatted file          : off
 write structure in CIF formatted file          : on
 write structure in CELL formatted file         : on
 write BibTeX reference list                    : on
 write OTFG pseudopotential files               : on
 checkpoint writing                             : both castep_bin and check files

 output         length unit                     : A
 output           mass unit                     : amu
 output           time unit                     : ps
 output         charge unit                     : e
 output           spin unit                     : hbar/2
 output         energy unit                     : eV
 output          force unit                     : eV/A
 output       velocity unit                     : A/ps
 output       pressure unit                     : GPa
 output     inv_length unit                     : 1/A
 output      frequency unit                     : cm-1
 output force constant unit                     : eV/A**2
 output         volume unit                     : A**3
 output   IR intensity unit                     : (D/A)**2/amu
 output         dipole unit                     : D
 output         efield unit                     : eV/A/e
 output        entropy unit                     : J/mol/K

 wavefunctions paging                           : none
 random number generator seed                   : randomised (160436945)
 data distribution                              : optimal for this architecture
[...]
  |    O          41      -12.66      59.30      0.64   3.862E+00   0.90 |
  |    O          42      -88.19      85.00      0.05  -3.233E+00   0.08 |
  |    O          43      -88.00      86.74      0.15  -3.167E+00   0.05 |
  |    O          44      -87.40      98.50      0.34  -3.123E+00   0.07 |
  |    O          45      -85.82      86.42      0.08  -3.258E+00   0.07 |
  |    O          46     -160.84     139.40      0.82   1.021E+00   0.64 |
  |    O          47      -12.40      59.27      0.44   3.922E+00   0.85 |
  |    O          48      -89.88      83.22      0.20  -3.152E+00   0.08 |
  |    O          49      -87.65      78.96      0.04  -3.276E+00   0.08 |
  |    O          50      -87.10      86.46      0.19  -3.145E+00   0.07 |
  |    O          51      -86.70      88.04      0.18  -3.169E+00   0.04 |
  |    O          52      -86.31      96.24      0.30  -3.196E+00   0.06 |
  |    O          53      -87.83      76.79      0.13  -3.294E+00   0.10 |
  |    O          54     -163.14     142.02      0.88   1.018E+00   0.65 |
  |    O          55      -90.02      86.21      0.29  -3.183E+00   0.08 |
  |    O          56      -89.20      84.63      0.06  -3.209E+00   0.08 |
  |    Zr          1     1609.93    -117.57      0.14  -3.522E+01   0.07 |
  |    Zr          2     1610.26    -117.74      0.13  -3.504E+01   0.07 |
  |    Zr          3     1614.95    -116.79      0.04  -3.617E+01   0.05 |
  |    Zr          4     1615.37    -115.20      0.07  -3.612E+01   0.03 |
[...]
  |    La          2     4599.25     531.38      0.07  -7.826E+01   0.06 |
  |    La          3     4657.49     651.55      0.07  -8.438E+01   0.12 |
  |    La          4     4704.32     760.43      0.03  -8.743E+01   0.08 |
  |    La          5     4547.78     383.30      0.06  -7.341E+01   0.08 |
  |    La          6     4608.06     525.15      0.07  -7.963E+01   0.07 |
  |    La          7     4705.14     776.15      0.09  -8.739E+01   0.12 |
  |    La          8     4556.46     376.69      0.06  -7.475E+01   0.08 |
  |    La          9     4596.72     508.20      0.09  -7.649E+01   0.07 |
  |    La         10     4655.26     663.33      0.08  -8.293E+01   0.09 |
  |    La         11     4542.13     394.81      0.09  -7.247E+01   0.10 |
  |    La         12     4606.03     504.12      0.08  -7.791E+01   0.07 |
  |    La         13     4599.38     526.99      0.08  -7.825E+01   0.06 |
  |    La         14     4567.14     369.90      0.04  -7.594E+01   0.09 |
  |    La         15     4660.35     653.20      0.07  -8.414E+01   0.13 |
  |    La         16     4600.08     550.72      0.08  -7.827E+01   0.16 |

 *********************** Forces ***********************
 *            Cartesian components (eV/A)             *
 *                   x            y            z      *
 * O         1     -0.00134     -0.00080     -0.00035 *
 * O         2     -0.00103      0.00099     -0.00384 *
 * O         3      0.00245     -0.00107     -0.00530 *
 * O         4     -0.00143      0.00298     -0.00478 *
 * O         5     -0.00422     -0.00361     -0.00008 *
 * O         6     -0.00427     -0.00007      0.00246 *
 * O         7      0.00183     -0.00037     -0.00171 *
 * O         8     -0.00105      0.00261     -0.00395 *
 * O         9      0.00167      0.01478      0.02133 *
 * O        10     -0.01145     -0.01993      0.01507 *
 * O        11     -0.01474     -0.00493      0.00485 *
 * O        12      0.00740      0.00166      0.00353 *
 * O        13     -0.00020      0.00540     -0.00157 *
 * O        14     -0.01370      0.00351      0.02056 *
 * O        15     -0.00472     -0.00593      0.00442 *
 * O        16      0.00230      0.01294     -0.00528 *
 * O        17     -0.02495     -0.02203      0.00083 *
 * O        18     -0.00587      0.00795     -0.01210 *
 * O        19      0.00126     -0.00047     -0.00544 *
 * O        20      0.00088      0.01415      0.00623 *
 * O        21      0.00657      0.00971     -0.00785 *
 * O        22     -0.01037     -0.01291     -0.00015 *
 * O        23     -0.01157     -0.00599     -0.02163 *
 * O        24      0.00903      0.00914     -0.01596 *
 * O        25     -0.00030      0.01063     -0.02577 *
 * O        26     -0.00521     -0.00212     -0.00444 *
 * O        27     -0.00605     -0.02185     -0.02048 *
 * O        28      0.00715      0.02888     -0.02627 *
 * O        29      0.02758      0.03551     -0.00081 *
 * O        30     -0.00156      0.00259      0.00434 *
 * O        31      0.00417      0.00065      0.00768 *
 * O        32     -0.00051      0.00427     -0.01366 *
 * O        33      0.00704     -0.01114      0.01540 *
 * O        34     -0.01068     -0.00786     -0.00095 *
 * O        35      0.01360      0.00365     -0.02294 *
 * O        36      0.01819     -0.00728      0.02439 *
 * O        37     -0.00477     -0.00335      0.01027 *
 * O        38     -0.00092     -0.00408     -0.00743 *
 * O        39     -0.02633     -0.00921      0.02283 *
 * O        40      0.00828      0.01220      0.01802 *
 * O        41      0.00907      0.00189      0.00027 *
 * O        42     -0.00979     -0.02022      0.02062 *
 * O        43     -0.01663     -0.03105      0.00282 *
 * O        44     -0.00895      0.01066     -0.00528 *
 * O        45      0.01440      0.01276      0.01682 *
 * O        46     -0.00682     -0.00055      0.00998 *
 * O        47     -0.00699      0.00546     -0.01096 *
 * O        48      0.00347      0.01486      0.00338 *
 * O        49      0.02898      0.01378     -0.02246 *
 * O        50     -0.00525     -0.00477     -0.02686 *
 * O        51     -0.00201      0.02230     -0.01450 *
 * O        52     -0.01298     -0.01631     -0.01237 *
 * O        53      0.01671     -0.01006      0.01990 *
 * O        54      0.00047     -0.00762     -0.00913 *
 * O        55     -0.02772     -0.01053      0.01743 *
 * O        56      0.01538      0.00796      0.01538 *
 * Zr        1     -0.00852      0.00172     -0.00933 *
 * Zr        2      0.00818      0.01041     -0.02422 *
 * Zr        3      0.00124      0.01509     -0.01198 *
 * Zr        4     -0.00454     -0.01533      0.01811 *
[...]
 * La        2      0.00161      0.00340      0.00427 *
 * La        3     -0.01299      0.01217      0.00859 *
 * La        4      0.00380     -0.01232      0.01251 *
 * La        5     -0.00527     -0.00075      0.00643 *
 * La        6     -0.00054      0.00212      0.00280 *
 * La        7     -0.00027     -0.01270      0.00959 *
 * La        8      0.00059      0.00643      0.00149 *
 * La        9      0.00544     -0.00368     -0.00858 *
 * La       10      0.00035      0.00561      0.00185 *
 * La       11      0.00476     -0.00326      0.00112 *
 * La       12      0.00264     -0.00764     -0.00202 *
 * La       13     -0.00107     -0.00469      0.00481 *
 * La       14      0.00319     -0.00039     -0.00274 *
 * La       15      0.00841      0.01133     -0.00333 *
 * La       16     -0.00279     -0.00299      0.00314 *

 ***************** Stress Tensor *****************
 *          Cartesian components (GPa)           *
 *             x             y             z     *
 *  x      0.038552      0.020834     -0.004704  *
 *  y      0.020834      0.041032     -0.010673  *
 *  z     -0.004704     -0.010673      0.023682  *
 *  Pressure:   -0.0344                          *

[...]

 Pseudo atomic calculation performed for Sn 4d10 5s2 5p2

[...]

 Pseudo atomic calculation performed for La 5s2 5p6 5d1 6s2

 Converged in 34 iterations to a total energy of -968.0372 eV

Charge spilling parameter for spin component 1 = 0.25%

     Atomic Populations (Mulliken)
Species   Ion     s      p      d      f     Total  Charge (e)
  O        1     1.87   5.00   0.00   0.00   6.87    -0.87
  O        2     1.87   5.00   0.00   0.00   6.87    -0.87
  O        3     1.87   5.00   0.00   0.00   6.87    -0.87
  O        4     1.87   5.00   0.00   0.00   6.87    -0.87
  O        5     1.87   5.00   0.00   0.00   6.87    -0.87
  O        6     1.87   5.00   0.00   0.00   6.87    -0.87
  O        7     1.87   5.00   0.00   0.00   6.87    -0.87
  O        8     1.87   5.00   0.00   0.00   6.87    -0.87
  O        9     1.87   4.99   0.00   0.00   6.86    -0.86
  O       10     1.87   4.99   0.00   0.00   6.86    -0.86
  O       11     1.88   5.02   0.00   0.00   6.91    -0.91
  O       12     1.88   5.02   0.00   0.00   6.91    -0.91
  O       13     1.88   5.03   0.00   0.00   6.91    -0.91
  O       14     1.87   4.99   0.00   0.00   6.86    -0.86
  O       15     1.88   5.03   0.00   0.00   6.91    -0.91
  O       16     1.88   5.03   0.00   0.00   6.91    -0.91
  O       17     1.87   4.99   0.00   0.00   6.86    -0.86
  O       18     1.88   5.03   0.00   0.00   6.91    -0.91
  O       19     1.88   5.03   0.00   0.00   6.91    -0.91
  O       20     1.86   4.95   0.00   0.00   6.80    -0.80
  O       21     1.88   5.02   0.00   0.00   6.91    -0.91
  O       22     1.88   5.02   0.00   0.00   6.91    -0.91
  O       23     1.87   4.99   0.00   0.00   6.86    -0.86
  O       24     1.87   4.99   0.00   0.00   6.86    -0.86
  O       25     1.87   4.99   0.00   0.00   6.86    -0.86
  O       26     1.88   5.03   0.00   0.00   6.91    -0.91
  O       27     1.87   4.99   0.00   0.00   6.86    -0.86
  O       28     1.87   4.99   0.00   0.00   6.86    -0.86
  O       29     1.87   4.99   0.00   0.00   6.86    -0.86
  O       30     1.88   5.03   0.00   0.00   6.91    -0.91
  O       31     1.88   5.02   0.00   0.00   6.91    -0.91
  O       32     1.88   5.02   0.00   0.00   6.91    -0.91
  O       33     1.87   4.99   0.00   0.00   6.86    -0.86
  O       34     1.88   5.02   0.00   0.00   6.91    -0.91
  O       35     1.87   4.99   0.00   0.00   6.86    -0.86
  O       36     1.87   4.99   0.00   0.00   6.86    -0.86
  O       37     1.88   5.02   0.00   0.00   6.91    -0.91
  O       38     1.86   4.95   0.00   0.00   6.80    -0.80
  O       39     1.87   4.99   0.00   0.00   6.86    -0.86
  O       40     1.86   4.95   0.00   0.00   6.80    -0.80
  O       41     1.88   5.02   0.00   0.00   6.91    -0.91
  O       42     1.87   4.99   0.00   0.00   6.86    -0.86
  O       43     1.87   4.99   0.00   0.00   6.86    -0.86
  O       44     1.87   4.99   0.00   0.00   6.86    -0.86
  O       45     1.87   4.99   0.00   0.00   6.86    -0.86
  O       46     1.86   4.95   0.00   0.00   6.80    -0.80
  O       47     1.88   5.03   0.00   0.00   6.91    -0.91
  O       48     1.87   4.99   0.00   0.00   6.86    -0.86
  O       49     1.87   4.99   0.00   0.00   6.86    -0.86
  O       50     1.87   4.99   0.00   0.00   6.86    -0.86
  O       51     1.87   4.99   0.00   0.00   6.86    -0.86
  O       52     1.87   4.99   0.00   0.00   6.86    -0.86
  O       53     1.87   4.99   0.00   0.00   6.86    -0.86
  O       54     1.86   4.95   0.00   0.00   6.80    -0.80
  O       55     1.87   4.99   0.00   0.00   6.86    -0.86
  O       56     1.87   4.99   0.00   0.00   6.86    -0.86
  Zr       1     2.37   6.49   1.92   0.00  10.78     1.22
  Zr       2     2.37   6.49   1.92   0.00  10.78     1.22
  Zr       3     2.37   6.49   1.92   0.00  10.78     1.22
  Zr       4     2.36   6.49   1.92   0.00  10.77     1.23
[...]
  La       2     2.09   6.18   1.19   0.00   9.46     1.54
  La       3     2.05   6.18   1.20   0.00   9.42     1.58
  La       4     2.01   6.16   1.20   0.00   9.37     1.63
  La       5     2.12   6.19   1.19   0.00   9.50     1.50
  La       6     2.06   6.18   1.19   0.00   9.44     1.56
  La       7     2.01   6.16   1.20   0.00   9.37     1.63
  La       8     2.10   6.20   1.19   0.00   9.49     1.51
  La       9     2.10   6.18   1.19   0.00   9.47     1.53
  La      10     2.04   6.17   1.20   0.00   9.41     1.59
  La      11     2.10   6.19   1.19   0.00   9.48     1.52
  La      12     2.07   6.19   1.19   0.00   9.45     1.55
  La      13     2.07   6.18   1.19   0.00   9.44     1.56
  La      14     2.08   6.21   1.19   0.00   9.48     1.52
  La      15     2.03   6.18   1.19   0.00   9.40     1.60
  La      16     2.07   6.18   1.20   0.00   9.44     1.56

            Bond              Population      Length (A)
         O 53 -- Sn 3              0.35        2.09888
         O 45 -- Sn 9              0.35        2.09974
         O 27 -- Sn 9              0.35        2.10004
         O 49 -- Sn 1              0.35        2.10128
         O 52 -- Sn 8              0.34        2.10183
         O 36 -- Sn 10             0.34        2.10211
         O 10 -- Sn 2              0.35        2.10259
         O 9  -- Sn 8              0.35        2.10329
         O 42 -- Sn 6              0.35        2.10342
         O 24 -- Sn 8              0.34        2.10364
         O 33 -- Sn 5              0.34        2.10381
         O 29 -- Sn 7              0.35        2.10434
         O 23 -- Sn 2              0.34        2.10518
         O 39 -- Sn 1              0.35        2.10520
         O 43 -- Sn 7              0.35        2.10619
         O 28 -- Sn 4              0.34        2.10630
         O 56 -- Sn 4              0.34        2.10636
         O 48 -- Sn 5              0.34        2.10703
         O 18 -- Sn 3              0.34        2.10769
         O 17 -- Sn 10             0.34        2.10845
         O 19 -- Sn 4              0.34        2.10846
         O 55 -- Sn 3              0.34        2.10864
         O 14 -- Sn 8              0.34        2.10883
         O 44 -- Sn 8              0.33        2.10935
         O 30 -- Sn 8              0.33        2.10959
         O 51 -- Sn 2              0.35        2.10975
         O 47 -- Sn 1              0.33        2.11024
         O 30 -- Sn 6              0.33        2.11064
         O 50 -- Sn 6              0.34        2.11066
         O 25 -- Sn 6              0.35        2.11070
         O 18 -- Sn 6              0.33        2.11079
         O 16 -- Sn 10             0.34        2.11095
         O 13 -- Sn 6              0.34        2.11112
         O 47 -- Sn 2              0.33        2.11196
         O 16 -- Sn 2              0.34        2.11209
         O 15 -- Sn 5              0.33        2.11238
         O 35 -- Sn 9              0.34        2.11247
         O 13 -- Sn 7              0.33        2.11275
         O 15 -- Sn 9              0.34        2.11280
         O 19 -- Sn 9              0.33        2.11285
         O 37 -- Sn 4              0.33        2.11342
         O 26 -- Sn 10             0.33        2.11393
         O 36 -- Zr 3              0.43        2.11425
         O 34 -- Sn 7              0.33        2.11426
         O 12 -- Sn 7              0.33        2.11444
         O 37 -- Sn 1              0.33        2.11451
         O 28 -- Zr 4              0.44        2.11458
         O 41 -- Sn 10             0.33        2.11463
         O 22 -- Sn 4              0.34        2.11466
         O 29 -- Zr 4              0.44        2.11499
         O 52 -- Zr 1              0.45        2.11501
         O 38 -- Zr 2              0.41        2.11518
         O 21 -- Sn 5              0.33        2.11543
         O 22 -- Sn 7              0.33        2.11558
         O 11 -- Sn 5              0.34        2.11577
         O 44 -- Zr 3              0.46        2.11601
         O 32 -- Sn 5              0.34        2.11636
         O 33 -- Zr 3              0.43        2.11655
         O 26 -- Sn 3              0.33        2.11660
         O 24 -- Zr 6              0.45        2.11662
[...]
         O 9  -- O 38             -0.03        2.82576
         O 45 -- O 54             -0.03        2.82590
         O 33 -- O 44             -0.03        2.82610
         O 54 -- O 56             -0.03        2.82651
         O 20 -- O 28             -0.03        2.82941
         O 36 -- O 46             -0.03        2.82966
         O 25 -- O 39             -0.03        2.83058
         O 33 -- O 40             -0.03        2.83146
         O 43 -- O 51             -0.03        2.83258
         O 20 -- O 23             -0.03        2.83280
         O 14 -- O 29             -0.03        2.83280
         O 51 -- O 55             -0.03        2.83349
         O 17 -- O 25             -0.03        2.83622
         O 35 -- O 43             -0.03        2.83762
         O 48 -- O 50             -0.03        2.84052

Writing analysis data to 016.castep_bin

Writing model to 016.check

 A BibTeX formatted list of references used in this run has been written to
 016.bib

Initialisation time =     54.17 s
Calculation time    =  34139.92 s
Finalisation time   =     58.52 s
Total time          =  34252.61 s

Overall parallel efficiency rating: Good (78%)

Data was distributed by:-
G-vector (4-way); efficiency rating: Good (78%)
k-point (14-way); efficiency rating: Ideal (100%)