 Compiled for linux_x86_64_ifort16 on Sat, 23 Jul 2016 23:44:54 +0100
 from code version
 203e84763863+ Castep161_branch Fri, 04 Mar 2016 19:21:07 +0000
 Compiler: Intel Fortran 16.0.3.210; Optimisation: fast
 MATHLIBS: Intel MKL(11.3.3) (LAPACK version 3.6.0)
 FFT Lib : mkl
 Fundamental constants values: CODATA 2010

 Run started: Wed, 28 Mar 2018 14:05:21 +0100
 |           N   N    M   M    RRRR                |
 |           NN  N    MM MM    R   R               |
 |           N N N    M M M    RRRR                |
 |           N  NN    M   M    R  R                |
 |           N   N    M   M    R   R               |
 | Welcome to Materials Studio CASTEP-NMR          |
 | Authors:                                        |
 | J.R. Yates, C.J. Pickard, F. Mauri              |
 | Contributors:                                   |
 | T.F.G. Green, S.A. Joyce                        |
 | Copyright (c) 2004 - 2015                       |
 | Please cite the appropriate publications in all |
 | work arising from your use of CASTEP NMR.       |
 | For NMR Shielding Tensors cite:                 |
 |    "All-electron magnetic response with         |
 |    pseudopotentials: NMR chemical shifts",      |
 |    C. J. Pickard, F. Mauri;                     |
 |    Physical Review B63 245101 (2001), and       |
 |    "Calculation of NMR Chemical Shifts          |
 |    for extended systems using                   |
 |    Ultrasoft Pseudopotentials",                 |
 |    J. R. Yates, C. J. Pickard and F. Mauri      |
 |    Physical Review B76 024401 (2007)            |
 | For Electric Field Gradients cite:              |
 |   "Accurate First Principles Prediction of 17O  |
 |    NMR Parameters in SiO2: Assignment of the    |
 |    Zeolite Ferrierite Spectrum"                 |
 |    M. Profeta, F. Mauri and C. J. Pickard       |
 |    J. Amer. Chem. Soc. 125 541 (2003)           |
 | For Spin-Spin (J) Couplings cite:               |
 |   "A first principles theory of NMR J-coupling  |
 |   in solid-state systems"                       |
 |   S.A. Joyce, J.R. Yates, C.J. Pickard, F. Mauri|
 |   J. Chem. Phys. 127 204107 (2007)              |
 |   "Relativistic NMR J-coupling with ultrasoft   |
 |   pseudopotentials and the zeroth-order regular |
 |   approximation"                                |
 |   T.F.G. Green and J.R. Yates                   |
 |   J. Chem. Phys. 140 234106 (2014)              |

 Atomic calculation performed for O: 1s2 2s2 2p4

 Converged in 44 iterations to an ae energy of -2040.855 eV

 Atomic calculation performed for O: 1s2 2s2 2p4

 Exceeded max iterations: converged to 0.000000062 eV

   | Pseudopotential Report - Date of generation 28-03-2018   |
   | Element: O Ionic charge:  6.00 Level of theory: PBE      |
   | Atomic Solver: ZORA (scalar)                             |
   |               Reference Electronic Structure             |
   |         Orbital         Occupation         Energy        |
   |            2s              2.000           -0.881        |
   |            2p              4.000           -0.332        |
   |                 Pseudopotential Definition               |
   |        Beta     l      e      Rc     scheme   norm       |
   |          1      0   -0.881   1.100     qc      0         |
   |          2      0    0.250   1.100     qc      0         |
   |          3      1   -0.332   1.100     qc      0         |
   |          4      1    0.250   1.100     qc      0         |
   |         loc     2    0.000   1.100     pn      0         |
   | Augmentation charge Rinner = 0.769                       |
   | Partial core correction Rc = 0.769                       |
   | "2|1.1|15|18|20|20:21(qc=7)"                             |
   |      Author: Chris J. Pickard, Cambridge University      |

 Atomic calculation performed for Zr: 1s2 2s2 2p6 3s2 3p6 3d10 4s2 4p6 4d2 5s2

[...]

 Atomic calculation performed for Zr: 1s2 2s2 2p6 3s2 3p6 3d10 4s2 4p6 4d2 5s2

[...]

 Warning: ion_atom_descreen_psp: negative charge density encountered
   | Pseudopotential Report - Date of generation 28-03-2018   |
   | Element: Zr Ionic charge: 12.00 Level of theory: PBE     |
   | Atomic Solver: ZORA (scalar)                             |
   |               Reference Electronic Structure             |
   |         Orbital         Occupation         Energy        |
   |            4s              2.000           -2.003        |
   |            4p              6.000           -1.193        |
   |            5s              2.000           -0.163        |
   |            4d              2.000           -0.132        |
   |                 Pseudopotential Definition               |
   |        Beta     l      e      Rc     scheme   norm       |
   |          1      0   -2.003   2.105     qc      0         |
   |          2      0   -0.163   2.105     qc      0         |
   |          3      0    0.250   2.105     qc      0         |
   |          4      1   -1.193   2.105     qc      0         |
   |          5      1    0.250   2.105     qc      0         |
   |          6      2   -0.132   2.105     qc      0         |
   |          7      2    0.250   2.105     qc      0         |
   |         loc     3    0.000   2.105     pn      0         |
   | Augmentation charge Rinner = 1.471                       |
   | Partial core correction Rc = 1.471                       |
   | "3|2.1|7|8|9|40U:50:41:42"                               |
   |      Author: Chris J. Pickard, Cambridge University      |

 Atomic calculation performed for Sn:

[...]

 Atomic calculation performed for Sn:

[...]

   | Pseudopotential Report - Date of generation 28-03-2018   |
   | Element: Sn Ionic charge: 14.00 Level of theory: PBE     |
   | Atomic Solver: ZORA (scalar)                             |
   |               Reference Electronic Structure             |
   |         Orbital         Occupation         Energy        |
   |            4d             10.000           -0.950        |
   |            5s              2.000           -0.388        |
   |            5p              2.000           -0.136        |
   |                 Pseudopotential Definition               |
   |        Beta     l      e      Rc     scheme   norm       |
   |          1      0   -0.388   2.199     qc      0         |
   |          2      0    0.250   2.199     qc      0         |
   |          3      1   -0.136   2.199     qc      0         |
   |          4      1    0.250   2.199     qc      0         |
   |          5      2   -0.950   2.199     qc      0         |
   |          6      2    0.250   2.199     qc      0         |
   |         loc     3    0.000   2.199     pn      0         |
   | Augmentation charge Rinner = 1.537                       |
   | Partial core correction Rc = 1.537                       |
   | "3|2.2|7|8|9|50:51:42"                                   |
   |      Author: Chris J. Pickard, Cambridge University      |

 Atomic calculation performed for La:

 Converged in 56 iterations to an ae energy of -230121.495 eV

 Atomic calculation performed for La:

 Exceeded max iterations: converged to 0.000000907 eV

 Warning: ion_atom_descreen_psp: negative charge density encountered
   | Pseudopotential Report - Date of generation 28-03-2018   |
   | Element: La Ionic charge: 11.00 Level of theory: PBE     |
   | Atomic Solver: ZORA (scalar)                             |
   |               Reference Electronic Structure             |
   |         Orbital         Occupation         Energy        |
   |            5s              2.000           -1.430        |
   |            5p              6.000           -0.823        |
   |            6s              2.000           -0.135        |
   |            5d              1.000           -0.114        |
   |                 Pseudopotential Definition               |
   |        Beta     l      e      Rc     scheme   norm       |
   |          1      0   -1.430   2.298     qc      0         |
   |          2      0   -0.135   2.298     qc      0         |
   |          3      0    0.250   2.298     qc      0         |
   |          4      1   -0.823   2.298     qc      0         |
   |          5      1    0.250   2.298     qc      0         |
   |          6      2   -0.114   2.298     qc      0         |
   |          7      2    0.250   2.298     qc      0         |
   |         loc     2    0.000   2.298     pn      0         |
   | Augmentation charge Rinner = 1.606                       |
   | Partial core correction Rc = 1.606                       |
   | "2|2.3|5|6|7|50U:60:51:52(qc=4.5)"                       |
   |      Author: Chris J. Pickard, Cambridge University      |

 Pseudo atomic calculation performed for O 2s2 2p4

 Converged in 39 iterations to a total energy of -432.6554 eV

 Pseudo atomic calculation performed for Zr 4s2 4p6 4d2 5s2

[...]

 Calculation parallelised over 56 processes.
 Data is distributed by G-vector(4-way) and k-point(14-way)

 ************************************ Title ************************************
 nmr testing

 ***************************** General Parameters ******************************

 output verbosity                               : normal  (1)
 write checkpoint data to                       : 023.check
 type of calculation                            : Magnetic Resonance
 stress calculation                             : on
 density difference calculation                 : off
 electron localisation func (ELF) calculation   : off
 Hirshfeld analysis                             : off
 unlimited duration calculation
 timing information                             : on
 write final potential to formatted file        : off
 write final density to formatted file          : off
 write structure in CIF formatted file          : on
 write structure in CELL formatted file         : on
 write BibTeX reference list                    : on
 write OTFG pseudopotential files               : on
 checkpoint writing                             : both castep_bin and check files

 output         length unit                     : A
 output           mass unit                     : amu
 output           time unit                     : ps
 output         charge unit                     : e
 output           spin unit                     : hbar/2
 output         energy unit                     : eV
 output          force unit                     : eV/A
 output       velocity unit                     : A/ps
 output       pressure unit                     : GPa
 output     inv_length unit                     : 1/A
 output      frequency unit                     : cm-1
 output force constant unit                     : eV/A**2
 output         volume unit                     : A**3
 output   IR intensity unit                     : (D/A)**2/amu
 output         dipole unit                     : D
 output         efield unit                     : eV/A/e
 output        entropy unit                     : J/mol/K

 wavefunctions paging                           : none
 random number generator seed                   : randomised (140523508)
 data distribution                              : optimal for this architecture
[...]
  |    O          41      -89.75      85.95      0.26  -3.184E+00   0.08 |
  |    O          42      -90.00      84.42      0.06  -3.205E+00   0.08 |
  |    O          43      -87.74      85.14      0.12  -3.182E+00   0.05 |
  |    O          44      -83.06      88.40      0.13  -3.166E+00   0.08 |
  |    O          45      -87.60      86.33      0.20  -3.186E+00   0.05 |
  |    O          46     -160.51     147.95      0.80   1.033E+00   0.69 |
  |    O          47      -13.27      59.67      0.38   3.916E+00   0.86 |
  |    O          48      -88.95      84.15      0.19  -3.188E+00   0.06 |
  |    O          49      -89.45      77.99      0.15  -3.253E+00   0.10 |
  |    O          50      -90.73      85.73      0.20  -3.147E+00   0.06 |
  |    O          51      -88.66      86.10      0.13  -3.145E+00   0.06 |
  |    O          52      -88.63      94.33      0.29  -3.189E+00   0.06 |
  |    O          53      -86.02      77.90      0.19  -3.263E+00   0.11 |
  |    O          54      -89.86      85.97      0.09  -3.181E+00   0.04 |
  |    O          55      -91.39      95.01      0.25  -3.194E+00   0.09 |
  |    O          56      -90.98      85.17      0.15  -3.143E+00   0.07 |
  |    Zr          1     1596.19    -109.97      0.07  -3.425E+01   0.09 |
  |    Zr          2     1610.31    -118.41      0.17  -3.504E+01   0.04 |
  |    Zr          3     1630.50    -123.29      0.10  -3.707E+01   0.08 |
  |    Zr          4     1615.70    -116.97      0.09  -3.597E+01   0.06 |
[...]
  |    La          2     4652.97     664.40      0.08  -8.320E+01   0.09 |
  |    La          3     4611.52     512.95      0.06  -8.084E+01   0.07 |
  |    La          4     4704.18     762.41      0.03  -8.748E+01   0.05 |
  |    La          5     4605.52     544.60      0.05  -7.926E+01   0.15 |
  |    La          6     4605.60     520.95      0.07  -7.982E+01   0.07 |
  |    La          7     4659.82     650.32      0.07  -8.401E+01   0.13 |
  |    La          8     4497.18     224.85      0.02  -6.906E+01   0.02 |
  |    La          9     4599.32     512.33      0.10  -7.659E+01   0.07 |
  |    La         10     4653.13     657.54      0.09  -8.310E+01   0.13 |
  |    La         11     4550.34     388.33      0.08  -7.393E+01   0.10 |
  |    La         12     4652.63     652.18      0.09  -8.250E+01   0.14 |
  |    La         13     4541.59     396.85      0.07  -7.274E+01   0.10 |
  |    La         14     4613.98     513.66      0.06  -8.056E+01   0.08 |
  |    La         15     4658.01     616.64      0.01  -8.278E+01   0.01 |
  |    La         16     4598.65     552.65      0.07  -7.836E+01   0.17 |

 *********************** Forces ***********************
 *            Cartesian components (eV/A)             *
 *                   x            y            z      *
 * O         1     -0.00793     -0.00498      0.00271 *
 * O         2      0.00243     -0.00058     -0.00339 *
 * O         3      0.00156      0.00110     -0.00480 *
 * O         4     -0.00273      0.00508      0.00150 *
 * O         5     -0.00504     -0.00831     -0.00174 *
 * O         6     -0.00247      0.00224      0.00376 *
 * O         7      0.00209      0.00207      0.00147 *
 * O         8      0.00004     -0.00161     -0.00682 *
 * O         9     -0.00882      0.02716      0.03292 *
 * O        10     -0.00134     -0.00320     -0.00593 *
 * O        11     -0.01362     -0.00594      0.00605 *
 * O        12     -0.00067      0.00309      0.00517 *
 * O        13      0.00296      0.00152      0.01107 *
 * O        14     -0.01420      0.00648      0.02589 *
 * O        15     -0.00561     -0.00138      0.00644 *
 * O        16      0.02301      0.00576      0.02144 *
 * O        17      0.03138      0.02173     -0.00611 *
 * O        18      0.00121     -0.00123     -0.00608 *
 * O        19      0.00300      0.00230      0.00016 *
 * O        20      0.01740      0.01255      0.00026 *
 * O        21     -0.00016      0.00828     -0.00683 *
 * O        22     -0.01223     -0.00615     -0.00319 *
 * O        23     -0.02871      0.00059     -0.03208 *
 * O        24     -0.00317     -0.00227     -0.00257 *
 * O        25      0.00835     -0.00221     -0.01083 *
 * O        26      0.00178     -0.01745     -0.03014 *
 * O        27      0.00254     -0.03319     -0.03596 *
 * O        28      0.00612      0.03111     -0.02494 *
 * O        29      0.03122      0.03598      0.00785 *
 * O        30     -0.00450      0.00469      0.00280 *
 * O        31      0.00652      0.00203      0.00101 *
 * O        32     -0.02414     -0.01870      0.00355 *
 * O        33     -0.00380     -0.02290      0.01415 *
 * O        34     -0.01080     -0.01142     -0.00624 *
 * O        35      0.01481      0.00168     -0.01818 *
 * O        36     -0.00169     -0.00169      0.00375 *
 * O        37     -0.00374     -0.00557      0.00086 *
 * O        38     -0.00927     -0.01547      0.00272 *
 * O        39     -0.00747     -0.01395      0.00576 *
 * O        40      0.00957     -0.00179      0.01906 *
 * O        41      0.00246      0.02024      0.02822 *
 * O        42     -0.00432     -0.02142      0.02415 *
 * O        43     -0.02280     -0.02389     -0.00002 *
 * O        44     -0.01803      0.02290      0.00471 *
 * O        45      0.00794      0.01719      0.01844 *
 * O        46     -0.00496      0.00050      0.00237 *
 * O        47     -0.01232      0.00485      0.00048 *
 * O        48      0.01279      0.02623     -0.00450 *
 * O        49      0.02771      0.01139     -0.02507 *
 * O        50     -0.01224     -0.00084     -0.03161 *
 * O        51     -0.00360      0.01528     -0.01523 *
 * O        52     -0.00793     -0.02329     -0.01502 *
 * O        53      0.01942     -0.01388      0.00974 *
 * O        54     -0.01818     -0.02511     -0.00177 *
 * O        55     -0.02323     -0.01129      0.01622 *
 * O        56      0.02085     -0.00084      0.01932 *
 * Zr        1     -0.01853      0.00076      0.02041 *
 * Zr        2      0.00833      0.00728     -0.03499 *
 * Zr        3     -0.00084      0.00686     -0.00957 *
 * Zr        4     -0.01963     -0.01819      0.01469 *
[...]
 * La        2     -0.00083      0.01132      0.00637 *
 * La        3     -0.00344      0.00560      0.00012 *
 * La        4      0.00371     -0.00809      0.00640 *
 * La        5     -0.00755     -0.00192      0.01407 *
 * La        6      0.00909     -0.00237     -0.00457 *
 * La        7     -0.01373     -0.01140      0.00558 *
 * La        8     -0.00115      0.00421      0.00237 *
 * La        9      0.00712     -0.00723     -0.00544 *
 * La       10      0.00152      0.01517      0.00207 *
 * La       11      0.01081     -0.01167     -0.00468 *
 * La       12     -0.00675     -0.00884     -0.00290 *
 * La       13     -0.00425     -0.00071      0.00934 *
 * La       14      0.00570     -0.00629     -0.00537 *
 * La       15      0.01187      0.01726     -0.00344 *
 * La       16     -0.00156     -0.00474     -0.00377 *

 ***************** Stress Tensor *****************
 *          Cartesian components (GPa)           *
 *             x             y             z     *
 *  x     -0.001415      0.009648      0.004181  *
 *  y      0.009648     -0.002944     -0.000272  *
 *  z      0.004181     -0.000272      0.004106  *
 *  Pressure:    0.0001                          *

[...]

 Pseudo atomic calculation performed for Sn 4d10 5s2 5p2

[...]

 Pseudo atomic calculation performed for La 5s2 5p6 5d1 6s2

 Converged in 34 iterations to a total energy of -968.0372 eV

Charge spilling parameter for spin component 1 = 0.25%

     Atomic Populations (Mulliken)
Species   Ion     s      p      d      f     Total  Charge (e)
  O        1     1.87   5.00   0.00   0.00   6.87    -0.87
  O        2     1.87   5.00   0.00   0.00   6.87    -0.87
  O        3     1.87   5.00   0.00   0.00   6.87    -0.87
  O        4     1.87   5.00   0.00   0.00   6.87    -0.87
  O        5     1.87   5.00   0.00   0.00   6.87    -0.87
  O        6     1.87   5.00   0.00   0.00   6.87    -0.87
  O        7     1.87   5.00   0.00   0.00   6.87    -0.87
  O        8     1.87   5.00   0.00   0.00   6.87    -0.87
  O        9     1.87   4.99   0.00   0.00   6.86    -0.86
  O       10     1.88   5.03   0.00   0.00   6.91    -0.91
  O       11     1.88   5.03   0.00   0.00   6.91    -0.91
  O       12     1.88   5.03   0.00   0.00   6.91    -0.91
  O       13     1.88   5.02   0.00   0.00   6.91    -0.91
  O       14     1.87   4.99   0.00   0.00   6.86    -0.86
  O       15     1.88   5.03   0.00   0.00   6.91    -0.91
  O       16     1.87   4.99   0.00   0.00   6.86    -0.86
  O       17     1.87   4.99   0.00   0.00   6.86    -0.86
  O       18     1.88   5.03   0.00   0.00   6.91    -0.91
  O       19     1.88   5.03   0.00   0.00   6.91    -0.91
  O       20     1.86   4.95   0.00   0.00   6.80    -0.80
  O       21     1.88   5.02   0.00   0.00   6.91    -0.91
  O       22     1.88   5.02   0.00   0.00   6.91    -0.91
  O       23     1.87   4.99   0.00   0.00   6.86    -0.86
  O       24     1.88   5.03   0.00   0.00   6.91    -0.91
  O       25     1.88   5.03   0.00   0.00   6.91    -0.91
  O       26     1.87   4.99   0.00   0.00   6.86    -0.86
  O       27     1.87   4.99   0.00   0.00   6.86    -0.86
  O       28     1.87   4.99   0.00   0.00   6.86    -0.86
  O       29     1.87   4.99   0.00   0.00   6.86    -0.86
  O       30     1.88   5.03   0.00   0.00   6.91    -0.91
  O       31     1.88   5.02   0.00   0.00   6.91    -0.91
  O       32     1.87   4.99   0.00   0.00   6.86    -0.86
  O       33     1.87   4.99   0.00   0.00   6.86    -0.86
  O       34     1.88   5.02   0.00   0.00   6.91    -0.91
  O       35     1.87   4.99   0.00   0.00   6.86    -0.86
  O       36     1.86   4.95   0.00   0.00   6.80    -0.80
  O       37     1.88   5.03   0.00   0.00   6.91    -0.91
  O       38     1.86   4.95   0.00   0.00   6.80    -0.80
  O       39     1.88   5.02   0.00   0.00   6.91    -0.91
  O       40     1.86   4.95   0.00   0.00   6.80    -0.80
  O       41     1.87   4.99   0.00   0.00   6.86    -0.86
  O       42     1.87   4.99   0.00   0.00   6.86    -0.86
  O       43     1.87   4.99   0.00   0.00   6.86    -0.86
  O       44     1.87   4.99   0.00   0.00   6.86    -0.86
  O       45     1.87   4.99   0.00   0.00   6.86    -0.86
  O       46     1.86   4.95   0.00   0.00   6.80    -0.80
  O       47     1.88   5.03   0.00   0.00   6.91    -0.91
  O       48     1.87   4.99   0.00   0.00   6.86    -0.86
  O       49     1.87   4.99   0.00   0.00   6.86    -0.86
  O       50     1.87   4.99   0.00   0.00   6.86    -0.86
  O       51     1.87   4.99   0.00   0.00   6.86    -0.86
  O       52     1.87   4.99   0.00   0.00   6.86    -0.86
  O       53     1.87   4.99   0.00   0.00   6.86    -0.86
  O       54     1.87   4.99   0.00   0.00   6.86    -0.86
  O       55     1.87   4.99   0.00   0.00   6.86    -0.86
  O       56     1.87   4.99   0.00   0.00   6.86    -0.86
  Zr       1     2.37   6.50   1.92   0.00  10.79     1.21
  Zr       2     2.37   6.49   1.92   0.00  10.78     1.22
  Zr       3     2.37   6.47   1.92   0.00  10.77     1.23
  Zr       4     2.37   6.49   1.92   0.00  10.77     1.23
[...]
  La       2     2.06   6.17   1.20   0.00   9.43     1.57
  La       3     2.07   6.19   1.19   0.00   9.45     1.55
  La       4     2.01   6.16   1.20   0.00   9.37     1.63
  La       5     2.08   6.18   1.20   0.00   9.46     1.54
  La       6     2.06   6.19   1.19   0.00   9.44     1.56
  La       7     2.03   6.18   1.19   0.00   9.40     1.60
  La       8     2.14   6.20   1.19   0.00   9.53     1.47
  La       9     2.07   6.18   1.19   0.00   9.45     1.55
  La      10     2.04   6.17   1.20   0.00   9.41     1.59
  La      11     2.09   6.19   1.19   0.00   9.48     1.52
  La      12     2.04   6.17   1.20   0.00   9.40     1.60
  La      13     2.10   6.19   1.19   0.00   9.48     1.52
  La      14     2.05   6.19   1.19   0.00   9.44     1.56
  La      15     2.04   6.18   1.19   0.00   9.41     1.59
  La      16     2.09   6.18   1.20   0.00   9.46     1.54

            Bond              Population      Length (A)
         O 53 -- Sn 3              0.34        2.10118
         O 52 -- Sn 9              0.34        2.10176
         O 16 -- Sn 2              0.35        2.10235
         O 49 -- Sn 1              0.34        2.10238
         O 27 -- Sn 10             0.35        2.10307
         O 29 -- Sn 8              0.35        2.10346
         O 28 -- Sn 5              0.34        2.10346
         O 33 -- Sn 6              0.34        2.10418
         O 55 -- Sn 3              0.34        2.10463
         O 45 -- Sn 10             0.35        2.10473
         O 23 -- Sn 2              0.35        2.10526
         O 30 -- Sn 9              0.34        2.10550
         O 48 -- Sn 6              0.35        2.10554
         O 43 -- Sn 8              0.35        2.10579
         O 30 -- Sn 7              0.33        2.10587
         O 15 -- Sn 10             0.34        2.10625
         O 17 -- Sn 4              0.35        2.10675
         O 42 -- Sn 7              0.34        2.10683
         O 24 -- Sn 9              0.34        2.10703
         O 24 -- Sn 4              0.34        2.10707
         O 44 -- Sn 9              0.34        2.10782
         O 18 -- Sn 3              0.34        2.10812
         O 41 -- Sn 1              0.34        2.10840
         O 19 -- Sn 5              0.34        2.10846
         O 9  -- Sn 9              0.35        2.10907
         O 18 -- Sn 7              0.33        2.10920
         O 35 -- Sn 10             0.34        2.10923
         O 47 -- Sn 1              0.33        2.10943
         O 15 -- Sn 6              0.33        2.10946
         O 54 -- Sn 4              0.35        2.10964
         O 32 -- Sn 6              0.35        2.11019
         O 10 -- Sn 2              0.34        2.11036
         O 50 -- Sn 7              0.34        2.11044
         O 51 -- Sn 2              0.34        2.11060
         O 56 -- Sn 5              0.34        2.11068
         O 11 -- Sn 6              0.34        2.11096
         O 47 -- Sn 2              0.33        2.11149
         O 26 -- Sn 3              0.34        2.11177
         O 12 -- Sn 8              0.33        2.11191
         O 12 -- Sn 3              0.34        2.11225
         O 37 -- Sn 5              0.33        2.11279
         O 14 -- Sn 9              0.34        2.11293
         O 10 -- Sn 4              0.33        2.11305
         O 36 -- Zr 6              0.42        2.11310
         O 37 -- Sn 1              0.33        2.11316
         O 19 -- Sn 10             0.33        2.11319
         O 11 -- Sn 5              0.34        2.11323
         O 39 -- Sn 4              0.33        2.11379
         O 52 -- Zr 1              0.44        2.11416
         O 55 -- Zr 2              0.44        2.11430
         O 36 -- Zr 3              0.41        2.11445
         O 29 -- Zr 4              0.44        2.11448
         O 40 -- Zr 5              0.42        2.11471
         O 34 -- Sn 8              0.33        2.11495
         O 39 -- Sn 1              0.34        2.11508
         O 28 -- Zr 4              0.44        2.11523
         O 25 -- Sn 7              0.34        2.11561
         O 22 -- Sn 5              0.34        2.11590
         O 22 -- Sn 8              0.33        2.11592
         O 33 -- Zr 3              0.44        2.11599
[...]
         O 20 -- O 23             -0.03        2.82796
         O 36 -- O 44             -0.03        2.82861
         O 29 -- O 46             -0.03        2.82876
         O 9  -- O 23             -0.03        2.82885
         O 20 -- O 28             -0.03        2.82926
         O 32 -- O 41             -0.03        2.83141
         O 17 -- O 26             -0.03        2.83213
         O 45 -- O 54             -0.03        2.83219
         O 16 -- O 32             -0.03        2.83233
         O 54 -- O 56             -0.03        2.83313
         O 48 -- O 50             -0.03        2.83431
         O 33 -- O 40             -0.03        2.83494
         O 14 -- O 29             -0.03        2.83609
         O 43 -- O 51             -0.03        2.83614
         O 35 -- O 43             -0.03        2.83722

Writing analysis data to 023.castep_bin

Writing model to 023.check

 A BibTeX formatted list of references used in this run has been written to
 023.bib

Initialisation time =     54.16 s
Calculation time    =  33962.33 s
Finalisation time   =     53.13 s
Total time          =  34069.62 s

Overall parallel efficiency rating: Good (79%)

Data was distributed by:-
G-vector (4-way); efficiency rating: Good (79%)
k-point (14-way); efficiency rating: Ideal (100%)