 Compiled for linux_x86_64_ifort16 on Sat, 23 Jul 2016 23:44:54 +0100
 from code version
 203e84763863+ Castep161_branch Fri, 04 Mar 2016 19:21:07 +0000
 Compiler: Intel Fortran 16.0.3.210; Optimisation: fast
 MATHLIBS: Intel MKL(11.3.3) (LAPACK version 3.6.0)
 FFT Lib : mkl
 Fundamental constants values: CODATA 2010

 Run started: Sun, 08 Apr 2018 13:07:57 +0100
 |           N   N    M   M    RRRR                |
 |           NN  N    MM MM    R   R               |
 |           N N N    M M M    RRRR                |
 |           N  NN    M   M    R  R                |
 |           N   N    M   M    R   R               |
 | Welcome to Materials Studio CASTEP-NMR          |
 | Authors:                                        |
 | J.R. Yates, C.J. Pickard, F. Mauri              |
 | Contributors:                                   |
 | T.F.G. Green, S.A. Joyce                        |
 | Copyright (c) 2004 - 2015                       |
 | Please cite the appropriate publications in all |
 | work arising from your use of CASTEP NMR.       |
 | For NMR Shielding Tensors cite:                 |
 |    "All-electron magnetic response with         |
 |    pseudopotentials: NMR chemical shifts",      |
 |    C. J. Pickard, F. Mauri;                     |
 |    Physical Review B63 245101 (2001), and       |
 |    "Calculation of NMR Chemical Shifts          |
 |    for extended systems using                   |
 |    Ultrasoft Pseudopotentials",                 |
 |    J. R. Yates, C. J. Pickard and F. Mauri      |
 |    Physical Review B76 024401 (2007)            |
 | For Electric Field Gradients cite:              |
 |   "Accurate First Principles Prediction of 17O  |
 |    NMR Parameters in SiO2: Assignment of the    |
 |    Zeolite Ferrierite Spectrum"                 |
 |    M. Profeta, F. Mauri and C. J. Pickard       |
 |    J. Amer. Chem. Soc. 125 541 (2003)           |
 | For Spin-Spin (J) Couplings cite:               |
 |   "A first principles theory of NMR J-coupling  |
 |   in solid-state systems"                       |
 |   S.A. Joyce, J.R. Yates, C.J. Pickard, F. Mauri|
 |   J. Chem. Phys. 127 204107 (2007)              |
 |   "Relativistic NMR J-coupling with ultrasoft   |
 |   pseudopotentials and the zeroth-order regular |
 |   approximation"                                |
 |   T.F.G. Green and J.R. Yates                   |
 |   J. Chem. Phys. 140 234106 (2014)              |

 Atomic calculation performed for O: 1s2 2s2 2p4

 Converged in 44 iterations to an ae energy of -2040.855 eV

 Atomic calculation performed for O: 1s2 2s2 2p4

 Exceeded max iterations: converged to 0.000000062 eV

   | Pseudopotential Report - Date of generation  8-04-2018   |
   | Element: O Ionic charge:  6.00 Level of theory: PBE      |
   | Atomic Solver: ZORA (scalar)                             |
   |               Reference Electronic Structure             |
   |         Orbital         Occupation         Energy        |
   |            2s              2.000           -0.881        |
   |            2p              4.000           -0.332        |
   |                 Pseudopotential Definition               |
   |        Beta     l      e      Rc     scheme   norm       |
   |          1      0   -0.881   1.100     qc      0         |
   |          2      0    0.250   1.100     qc      0         |
   |          3      1   -0.332   1.100     qc      0         |
   |          4      1    0.250   1.100     qc      0         |
   |         loc     2    0.000   1.100     pn      0         |
   | Augmentation charge Rinner = 0.769                       |
   | Partial core correction Rc = 0.769                       |
   | "2|1.1|15|18|20|20:21(qc=7)"                             |
   |      Author: Chris J. Pickard, Cambridge University      |

 Atomic calculation performed for Zr: 1s2 2s2 2p6 3s2 3p6 3d10 4s2 4p6 4d2 5s2

[...]

 Atomic calculation performed for Zr: 1s2 2s2 2p6 3s2 3p6 3d10 4s2 4p6 4d2 5s2

[...]

 Warning: ion_atom_descreen_psp: negative charge density encountered
   | Pseudopotential Report - Date of generation  8-04-2018   |
   | Element: Zr Ionic charge: 12.00 Level of theory: PBE     |
   | Atomic Solver: ZORA (scalar)                             |
   |               Reference Electronic Structure             |
   |         Orbital         Occupation         Energy        |
   |            4s              2.000           -2.003        |
   |            4p              6.000           -1.193        |
   |            5s              2.000           -0.163        |
   |            4d              2.000           -0.132        |
   |                 Pseudopotential Definition               |
   |        Beta     l      e      Rc     scheme   norm       |
   |          1      0   -2.003   2.105     qc      0         |
   |          2      0   -0.163   2.105     qc      0         |
   |          3      0    0.250   2.105     qc      0         |
   |          4      1   -1.193   2.105     qc      0         |
   |          5      1    0.250   2.105     qc      0         |
   |          6      2   -0.132   2.105     qc      0         |
   |          7      2    0.250   2.105     qc      0         |
   |         loc     3    0.000   2.105     pn      0         |
   | Augmentation charge Rinner = 1.471                       |
   | Partial core correction Rc = 1.471                       |
   | "3|2.1|7|8|9|40U:50:41:42"                               |
   |      Author: Chris J. Pickard, Cambridge University      |

 Atomic calculation performed for Sn:

[...]

 Atomic calculation performed for Sn:

[...]

   | Pseudopotential Report - Date of generation  8-04-2018   |
   | Element: Sn Ionic charge: 14.00 Level of theory: PBE     |
   | Atomic Solver: ZORA (scalar)                             |
   |               Reference Electronic Structure             |
   |         Orbital         Occupation         Energy        |
   |            4d             10.000           -0.950        |
   |            5s              2.000           -0.388        |
   |            5p              2.000           -0.136        |
   |                 Pseudopotential Definition               |
   |        Beta     l      e      Rc     scheme   norm       |
   |          1      0   -0.388   2.199     qc      0         |
   |          2      0    0.250   2.199     qc      0         |
   |          3      1   -0.136   2.199     qc      0         |
   |          4      1    0.250   2.199     qc      0         |
   |          5      2   -0.950   2.199     qc      0         |
   |          6      2    0.250   2.199     qc      0         |
   |         loc     3    0.000   2.199     pn      0         |
   | Augmentation charge Rinner = 1.537                       |
   | Partial core correction Rc = 1.537                       |
   | "3|2.2|7|8|9|50:51:42"                                   |
   |      Author: Chris J. Pickard, Cambridge University      |

 Atomic calculation performed for La:

 Converged in 56 iterations to an ae energy of -230121.495 eV

 Atomic calculation performed for La:

 Exceeded max iterations: converged to 0.000000907 eV

 Warning: ion_atom_descreen_psp: negative charge density encountered
   | Pseudopotential Report - Date of generation  8-04-2018   |
   | Element: La Ionic charge: 11.00 Level of theory: PBE     |
   | Atomic Solver: ZORA (scalar)                             |
   |               Reference Electronic Structure             |
   |         Orbital         Occupation         Energy        |
   |            5s              2.000           -1.430        |
   |            5p              6.000           -0.823        |
   |            6s              2.000           -0.135        |
   |            5d              1.000           -0.114        |
   |                 Pseudopotential Definition               |
   |        Beta     l      e      Rc     scheme   norm       |
   |          1      0   -1.430   2.298     qc      0         |
   |          2      0   -0.135   2.298     qc      0         |
   |          3      0    0.250   2.298     qc      0         |
   |          4      1   -0.823   2.298     qc      0         |
   |          5      1    0.250   2.298     qc      0         |
   |          6      2   -0.114   2.298     qc      0         |
   |          7      2    0.250   2.298     qc      0         |
   |         loc     2    0.000   2.298     pn      0         |
   | Augmentation charge Rinner = 1.606                       |
   | Partial core correction Rc = 1.606                       |
   | "2|2.3|5|6|7|50U:60:51:52(qc=4.5)"                       |
   |      Author: Chris J. Pickard, Cambridge University      |

 Pseudo atomic calculation performed for O 2s2 2p4

 Converged in 39 iterations to a total energy of -432.6554 eV

 Pseudo atomic calculation performed for Zr 4s2 4p6 4d2 5s2

[...]

 Calculation parallelised over 56 processes.
 Data is distributed by G-vector(4-way) and k-point(14-way)

 ************************************ Title ************************************
 nmr testing

 ***************************** General Parameters ******************************

 output verbosity                               : normal  (1)
 write checkpoint data to                       : 030.check
 type of calculation                            : Magnetic Resonance
 stress calculation                             : on
 density difference calculation                 : off
 electron localisation func (ELF) calculation   : off
 Hirshfeld analysis                             : off
 unlimited duration calculation
 timing information                             : on
 write final potential to formatted file        : off
 write final density to formatted file          : off
 write structure in CIF formatted file          : on
 write structure in CELL formatted file         : on
 write BibTeX reference list                    : on
 write OTFG pseudopotential files               : on
 checkpoint writing                             : both castep_bin and check files

 output         length unit                     : A
 output           mass unit                     : amu
 output           time unit                     : ps
 output         charge unit                     : e
 output           spin unit                     : hbar/2
 output         energy unit                     : eV
 output          force unit                     : eV/A
 output       velocity unit                     : A/ps
 output       pressure unit                     : GPa
 output     inv_length unit                     : 1/A
 output      frequency unit                     : cm-1
 output force constant unit                     : eV/A**2
 output         volume unit                     : A**3
 output   IR intensity unit                     : (D/A)**2/amu
 output         dipole unit                     : D
 output         efield unit                     : eV/A/e
 output        entropy unit                     : J/mol/K

 wavefunctions paging                           : none
 random number generator seed                   : randomised (130759648)
 data distribution                              : optimal for this architecture
[...]
  |    O          42     -163.75     149.26      0.87   1.009E+00   0.74 |
  |    O          43      -86.68      86.62      0.14  -3.158E+00   0.04 |
  |    O          44      -84.12      89.35      0.31  -3.232E+00   0.08 |
  |    O          45      -85.30      86.19      0.23  -3.228E+00   0.08 |
  |    O          46     -161.46     141.66      0.87   1.054E+00   0.63 |
  |    O          47      -20.27     -38.33      0.86   3.880E+00   0.89 |
  |    O          48     -162.90     153.89      0.86   1.003E+00   0.81 |
  |    O          49      -89.39      85.43      0.14  -3.189E+00   0.06 |
  |    O          50     -162.31     155.01      0.85   1.024E+00   0.78 |
  |    O          51      -90.15      86.16      0.12  -3.126E+00   0.06 |
  |    O          52      -89.12      96.11      0.23  -3.208E+00   0.10 |
  |    O          53      -82.97      87.17      0.11  -3.236E+00   0.08 |
  |    O          54      -85.92      84.51      0.14  -3.143E+00   0.06 |
  |    O          55      -84.59      87.57      0.20  -3.173E+00   0.06 |
  |    O          56      -85.99      85.07      0.17  -3.143E+00   0.07 |
  |    Zr          1     1624.39    -124.13      0.18  -3.615E+01   0.05 |
  |    Zr          2     1610.40    -117.57      0.12  -3.519E+01   0.03 |
  |    Zr          3     1624.48    -126.35      0.20  -3.620E+01   0.10 |
  |    Zr          4     1609.36    -115.52      0.13  -3.512E+01   0.06 |
[...]
  |    La          2     4598.92     527.49      0.09  -7.794E+01   0.10 |
  |    La          3     4604.66     519.52      0.08  -7.956E+01   0.11 |
  |    La          4     4748.91     871.33      0.04  -8.983E+01   0.05 |
  |    La          5     4597.12     512.08      0.08  -7.685E+01   0.05 |
  |    La          6     4648.02     661.03      0.09  -8.123E+01   0.10 |
  |    La          7     4615.04     516.57      0.06  -8.069E+01   0.10 |
  |    La          8     4607.71     522.56      0.07  -7.947E+01   0.10 |
  |    La          9     4540.26     388.41      0.08  -7.216E+01   0.09 |
  |    La         10     4547.99     382.48      0.07  -7.388E+01   0.08 |
  |    La         11     4549.32     388.41      0.07  -7.352E+01   0.09 |
  |    La         12     4605.19     541.41      0.07  -7.964E+01   0.18 |
  |    La         13     4606.30     508.30      0.08  -7.835E+01   0.05 |
  |    La         14     4615.23     538.63      0.05  -8.074E+01   0.19 |
  |    La         15     4660.79     655.02      0.08  -8.414E+01   0.15 |
  |    La         16     4653.57     657.37      0.08  -8.258E+01   0.10 |

 *********************** Forces ***********************
 *            Cartesian components (eV/A)             *
 *                   x            y            z      *
 * O         1     -0.00110      0.00040     -0.00170 *
 * O         2      0.00099      0.00023     -0.00281 *
 * O         3      0.00411      0.00192     -0.00223 *
 * O         4     -0.00202     -0.00174      0.00242 *
 * O         5     -0.00539     -0.00060     -0.00028 *
 * O         6     -0.00285     -0.00039      0.00328 *
 * O         7     -0.00220     -0.00014      0.00451 *
 * O         8      0.00110     -0.00626      0.00132 *
 * O         9      0.00938     -0.00086     -0.00064 *
 * O        10     -0.00635     -0.00888      0.00257 *
 * O        11     -0.00080     -0.01380      0.01435 *
 * O        12      0.00304     -0.00303      0.00047 *
 * O        13     -0.01690      0.00630     -0.00533 *
 * O        14     -0.00890     -0.00801      0.00751 *
 * O        15     -0.00808     -0.00657      0.01918 *
 * O        16      0.00682      0.00703     -0.00624 *
 * O        17     -0.00162     -0.00575      0.00338 *
 * O        18     -0.01364      0.00436     -0.01014 *
 * O        19     -0.00038      0.00424     -0.00415 *
 * O        20     -0.01046     -0.00770      0.00059 *
 * O        21      0.01351      0.00659     -0.00756 *
 * O        22     -0.00234     -0.00680      0.00498 *
 * O        23     -0.00171     -0.00876     -0.00102 *
 * O        24      0.00016      0.00471     -0.00134 *
 * O        25     -0.00078     -0.01454      0.00675 *
 * O        26     -0.00589      0.00101      0.00377 *
 * O        27     -0.00951     -0.00400     -0.00211 *
 * O        28      0.00692      0.01605     -0.01047 *
 * O        29      0.00803      0.01924     -0.01105 *
 * O        30      0.00780     -0.00890      0.00899 *
 * O        31      0.00060      0.00053      0.00242 *
 * O        32      0.01593      0.01445     -0.00263 *
 * O        33      0.00920     -0.00463     -0.00810 *
 * O        34     -0.00906     -0.00391     -0.00554 *
 * O        35      0.01009      0.01230     -0.01688 *
 * O        36      0.00878     -0.00328      0.01530 *
 * O        37      0.00600     -0.00557      0.00590 *
 * O        38      0.01950      0.00820     -0.00761 *
 * O        39     -0.00998     -0.00793      0.01025 *
 * O        40     -0.01688      0.00556     -0.00297 *
 * O        41      0.00702      0.00713      0.00237 *
 * O        42     -0.00952      0.00418      0.00363 *
 * O        43     -0.00931     -0.01048      0.00178 *
 * O        44     -0.00549      0.01547     -0.00888 *
 * O        45      0.01050      0.00196      0.01263 *
 * O        46     -0.01131      0.00136     -0.00088 *
 * O        47     -0.00228      0.00557     -0.00572 *
 * O        48     -0.00427     -0.00364      0.01484 *
 * O        49      0.01103      0.00620     -0.01701 *
 * O        50      0.00454     -0.01636     -0.00246 *
 * O        51      0.00343      0.01707     -0.01028 *
 * O        52     -0.01641     -0.00745     -0.00387 *
 * O        53      0.00863     -0.00613      0.01260 *
 * O        54     -0.00884     -0.00931     -0.00054 *
 * O        55     -0.01608     -0.00845      0.00215 *
 * O        56      0.00788      0.00672      0.00858 *
 * Zr        1     -0.00469     -0.01458      0.01347 *
 * Zr        2     -0.00232     -0.00139     -0.00862 *
 * Zr        3      0.00344      0.00721     -0.00170 *
 * Zr        4      0.00011     -0.00537     -0.00662 *
[...]
 * La        2      0.00400      0.00006      0.00257 *
 * La        3     -0.00382     -0.00443     -0.00252 *
 * La        4      0.00157      0.01728     -0.01483 *
 * La        5     -0.00742      0.01907      0.00517 *
 * La        6      0.01036      0.00055     -0.01458 *
 * La        7     -0.00119     -0.00038     -0.00057 *
 * La        8     -0.00177     -0.00181      0.00459 *
 * La        9      0.00017     -0.00995     -0.00256 *
 * La       10     -0.00069      0.00395      0.01020 *
 * La       11     -0.00086     -0.00231      0.00055 *
 * La       12     -0.00061     -0.00160     -0.00142 *
 * La       13     -0.01887      0.00587      0.00511 *
 * La       14     -0.00515     -0.00443     -0.00120 *
 * La       15      0.01374      0.00183      0.01022 *
 * La       16      0.01733     -0.00356     -0.00974 *

 ***************** Stress Tensor *****************
 *          Cartesian components (GPa)           *
 *             x             y             z     *
 *  x      0.019810      0.009375     -0.008504  *
 *  y      0.009375      0.036087     -0.016748  *
 *  z     -0.008504     -0.016748      0.021230  *
 *  Pressure:   -0.0257                          *

[...]

 Pseudo atomic calculation performed for Sn 4d10 5s2 5p2

[...]

 Pseudo atomic calculation performed for La 5s2 5p6 5d1 6s2

 Converged in 34 iterations to a total energy of -968.0372 eV

Charge spilling parameter for spin component 1 = 0.25%

     Atomic Populations (Mulliken)
Species   Ion     s      p      d      f     Total  Charge (e)
  O        1     1.87   5.00   0.00   0.00   6.87    -0.87
  O        2     1.87   5.00   0.00   0.00   6.87    -0.87
  O        3     1.87   5.00   0.00   0.00   6.87    -0.87
  O        4     1.87   5.00   0.00   0.00   6.87    -0.87
  O        5     1.87   5.00   0.00   0.00   6.87    -0.87
  O        6     1.87   5.00   0.00   0.00   6.87    -0.87
  O        7     1.87   5.00   0.00   0.00   6.87    -0.87
  O        8     1.87   5.00   0.00   0.00   6.87    -0.87
  O        9     1.88   5.03   0.00   0.00   6.91    -0.91
  O       10     1.88   5.03   0.00   0.00   6.91    -0.91
  O       11     1.87   4.99   0.00   0.00   6.86    -0.86
  O       12     1.88   5.03   0.00   0.00   6.91    -0.91
  O       13     1.87   4.99   0.00   0.00   6.86    -0.86
  O       14     1.87   4.99   0.00   0.00   6.86    -0.86
  O       15     1.87   4.99   0.00   0.00   6.86    -0.86
  O       16     1.88   5.03   0.00   0.00   6.91    -0.91
  O       17     1.88   5.03   0.00   0.00   6.91    -0.91
  O       18     1.87   4.99   0.00   0.00   6.86    -0.86
  O       19     1.88   5.02   0.00   0.00   6.91    -0.91
  O       20     1.87   4.99   0.00   0.00   6.86    -0.86
  O       21     1.87   4.99   0.00   0.00   6.86    -0.86
  O       22     1.88   5.03   0.00   0.00   6.91    -0.91
  O       23     1.88   5.02   0.00   0.00   6.91    -0.91
  O       24     1.88   5.02   0.00   0.00   6.91    -0.91
  O       25     1.87   4.99   0.00   0.00   6.86    -0.86
  O       26     1.88   5.03   0.00   0.00   6.91    -0.91
  O       27     1.88   5.03   0.00   0.00   6.91    -0.91
  O       28     1.87   4.99   0.00   0.00   6.86    -0.86
  O       29     1.87   4.99   0.00   0.00   6.86    -0.86
  O       30     1.87   4.99   0.00   0.00   6.86    -0.86
  O       31     1.88   5.03   0.00   0.00   6.91    -0.91
  O       32     1.87   4.99   0.00   0.00   6.86    -0.86
  O       33     1.86   4.95   0.00   0.00   6.80    -0.80
  O       34     1.88   5.03   0.00   0.00   6.91    -0.91
  O       35     1.87   4.99   0.00   0.00   6.86    -0.86
  O       36     1.87   4.99   0.00   0.00   6.86    -0.86
  O       37     1.88   5.03   0.00   0.00   6.91    -0.91
  O       38     1.87   4.99   0.00   0.00   6.86    -0.86
  O       39     1.88   5.03   0.00   0.00   6.91    -0.91
  O       40     1.87   4.99   0.00   0.00   6.86    -0.86
  O       41     1.88   5.03   0.00   0.00   6.91    -0.91
  O       42     1.86   4.95   0.00   0.00   6.80    -0.80
  O       43     1.87   4.99   0.00   0.00   6.86    -0.86
  O       44     1.87   4.99   0.00   0.00   6.86    -0.86
  O       45     1.87   4.99   0.00   0.00   6.86    -0.86
  O       46     1.86   4.95   0.00   0.00   6.80    -0.80
  O       47     1.88   5.03   0.00   0.00   6.91    -0.91
  O       48     1.86   4.95   0.00   0.00   6.80    -0.80
  O       49     1.87   4.99   0.00   0.00   6.86    -0.86
  O       50     1.86   4.95   0.00   0.00   6.80    -0.80
  O       51     1.87   4.99   0.00   0.00   6.86    -0.86
  O       52     1.87   4.99   0.00   0.00   6.86    -0.86
  O       53     1.87   4.99   0.00   0.00   6.86    -0.86
  O       54     1.87   4.99   0.00   0.00   6.86    -0.86
  O       55     1.87   4.99   0.00   0.00   6.86    -0.86
  O       56     1.87   4.99   0.00   0.00   6.86    -0.86
  Zr       1     2.37   6.48   1.92   0.00  10.77     1.23
  Zr       2     2.37   6.49   1.92   0.00  10.78     1.22
  Zr       3     2.37   6.48   1.92   0.00  10.77     1.23
  Zr       4     2.37   6.49   1.92   0.00  10.78     1.22
[...]
  La       2     2.09   6.18   1.19   0.00   9.46     1.54
  La       3     2.08   6.18   1.19   0.00   9.45     1.55
  La       4     1.99   6.15   1.20   0.00   9.34     1.66
  La       5     2.10   6.18   1.19   0.00   9.47     1.53
  La       6     2.05   6.17   1.20   0.00   9.41     1.59
  La       7     2.06   6.19   1.19   0.00   9.44     1.56
  La       8     2.06   6.18   1.19   0.00   9.44     1.56
  La       9     2.10   6.19   1.19   0.00   9.49     1.51
  La      10     2.09   6.20   1.19   0.00   9.48     1.52
  La      11     2.11   6.19   1.19   0.00   9.50     1.50
  La      12     2.08   6.18   1.19   0.00   9.46     1.54
  La      13     2.07   6.19   1.19   0.00   9.45     1.55
  La      14     2.06   6.19   1.19   0.00   9.44     1.56
  La      15     2.04   6.17   1.19   0.00   9.41     1.59
  La      16     2.04   6.17   1.20   0.00   9.41     1.59

            Bond              Population      Length (A)
         O 30 -- Sn 8              0.35        2.10039
         O 53 -- Sn 3              0.35        2.10091
         O 44 -- Sn 8              0.35        2.10134
         O 18 -- Sn 3              0.35        2.10145
         O 38 -- Sn 4              0.35        2.10239
         O 35 -- Sn 9              0.35        2.10285
         O 29 -- Sn 7              0.35        2.10332
         O 28 -- Sn 6              0.35        2.10349
         O 21 -- Sn 3              0.35        2.10365
         O 52 -- Sn 8              0.34        2.10389
         O 45 -- Sn 9              0.34        2.10392
         O 27 -- Sn 9              0.34        2.10458
         O 55 -- Sn 3              0.34        2.10534
         O 17 -- Sn 5              0.34        2.10582
         O 56 -- Sn 6              0.34        2.10588
         O 15 -- Sn 9              0.35        2.10630
         O 13 -- Sn 7              0.34        2.10682
         O 41 -- Sn 1              0.33        2.10743
         O 22 -- Sn 6              0.34        2.10765
         O 40 -- Sn 4              0.34        2.10777
         O 11 -- Sn 6              0.35        2.10779
         O 41 -- Sn 10             0.33        2.10798
         O 17 -- Sn 10             0.34        2.10844
         O 16 -- Sn 10             0.34        2.10845
         O 27 -- Sn 4              0.33        2.10877
         O 22 -- Sn 7              0.34        2.10894
         O 20 -- Sn 4              0.35        2.10902
         O 54 -- Sn 5              0.34        2.10924
         O 49 -- Sn 1              0.34        2.10944
         O 43 -- Sn 7              0.35        2.10991
         O 16 -- Sn 2              0.33        2.10994
         O 36 -- Sn 10             0.34        2.11002
         O 39 -- Sn 1              0.34        2.11018
         O 14 -- Sn 8              0.34        2.11026
         O 39 -- Sn 5              0.33        2.11027
         O 51 -- Sn 2              0.34        2.11034
         O 10 -- Sn 5              0.34        2.11037
         O 47 -- Sn 2              0.34        2.11047
         O 25 -- Sn 5              0.34        2.11131
         O 31 -- Sn 2              0.34        2.11190
         O 32 -- Sn 10             0.34        2.11199
         O 34 -- Sn 1              0.34        2.11236
         O 10 -- Sn 2              0.34        2.11245
         O 9  -- Sn 8              0.33        2.11276
         O 47 -- Sn 1              0.33        2.11347
         O 12 -- Sn 7              0.33        2.11351
         O 23 -- Sn 4              0.34        2.11413
         O 34 -- Sn 7              0.33        2.11429
         O 9  -- Sn 4              0.33        2.11476
         O 26 -- Sn 10             0.33        2.11509
         O 37 -- Sn 1              0.33        2.11523
         O 50 -- Zr 6              0.42        2.11547
         O 50 -- Zr 1              0.41        2.11549
         O 48 -- Zr 5              0.42        2.11551
         O 33 -- Zr 3              0.41        2.11559
         O 23 -- Sn 2              0.33        2.11562
         O 33 -- Zr 5              0.41        2.11571
         O 37 -- Sn 6              0.33        2.11609
         O 52 -- Zr 1              0.45        2.11619
         O 42 -- Zr 2              0.42        2.11698
[...]
         O 46 -- O 53             -0.03        2.82827
         O 36 -- O 44             -0.03        2.83047
         O 35 -- O 43             -0.03        2.83067
         O 11 -- O 21             -0.03        2.83145
         O 20 -- O 49             -0.03        2.83171
         O 33 -- O 40             -0.03        2.83193
         O 18 -- O 25             -0.03        2.83271
         O 15 -- O 32             -0.03        2.83329
         O 43 -- O 51             -0.03        2.83339
         O 20 -- O 28             -0.03        2.83404
         O 45 -- O 54             -0.03        2.83625
         O 51 -- O 55             -0.03        2.83635
         O 11 -- O 32             -0.03        2.83652
         O 13 -- O 25             -0.03        2.84008
         O 54 -- O 56             -0.03        2.84008

Writing analysis data to 030.castep_bin

Writing model to 030.check

 A BibTeX formatted list of references used in this run has been written to
 030.bib

Initialisation time =     54.86 s
Calculation time    =  34141.63 s
Finalisation time   =     56.29 s
Total time          =  34252.79 s

Overall parallel efficiency rating: Good (77%)

Data was distributed by:-
G-vector (4-way); efficiency rating: Good (78%)
k-point (14-way); efficiency rating: Excellent (97%)