 Compiled for linux_x86_64_ifort16 on Sat, 23 Jul 2016 23:44:54 +0100
 from code version
 203e84763863+ Castep161_branch Fri, 04 Mar 2016 19:21:07 +0000
 Compiler: Intel Fortran 16.0.3.210; Optimisation: fast
 MATHLIBS: Intel MKL(11.3.3) (LAPACK version 3.6.0)
 FFT Lib : mkl
 Fundamental constants values: CODATA 2010

 Run started: Thu, 29 Mar 2018 10:33:35 +0100
 |           N   N    M   M    RRRR                |
 |           NN  N    MM MM    R   R               |
 |           N N N    M M M    RRRR                |
 |           N  NN    M   M    R  R                |
 |           N   N    M   M    R   R               |
 | Welcome to Materials Studio CASTEP-NMR          |
 | Authors:                                        |
 | J.R. Yates, C.J. Pickard, F. Mauri              |
 | Contributors:                                   |
 | T.F.G. Green, S.A. Joyce                        |
 | Copyright (c) 2004 - 2015                       |
 | Please cite the appropriate publications in all |
 | work arising from your use of CASTEP NMR.       |
 | For NMR Shielding Tensors cite:                 |
 |    "All-electron magnetic response with         |
 |    pseudopotentials: NMR chemical shifts",      |
 |    C. J. Pickard, F. Mauri;                     |
 |    Physical Review B63 245101 (2001), and       |
 |    "Calculation of NMR Chemical Shifts          |
 |    for extended systems using                   |
 |    Ultrasoft Pseudopotentials",                 |
 |    J. R. Yates, C. J. Pickard and F. Mauri      |
 |    Physical Review B76 024401 (2007)            |
 | For Electric Field Gradients cite:              |
 |   "Accurate First Principles Prediction of 17O  |
 |    NMR Parameters in SiO2: Assignment of the    |
 |    Zeolite Ferrierite Spectrum"                 |
 |    M. Profeta, F. Mauri and C. J. Pickard       |
 |    J. Amer. Chem. Soc. 125 541 (2003)           |
 | For Spin-Spin (J) Couplings cite:               |
 |   "A first principles theory of NMR J-coupling  |
 |   in solid-state systems"                       |
 |   S.A. Joyce, J.R. Yates, C.J. Pickard, F. Mauri|
 |   J. Chem. Phys. 127 204107 (2007)              |
 |   "Relativistic NMR J-coupling with ultrasoft   |
 |   pseudopotentials and the zeroth-order regular |
 |   approximation"                                |
 |   T.F.G. Green and J.R. Yates                   |
 |   J. Chem. Phys. 140 234106 (2014)              |

 Atomic calculation performed for O: 1s2 2s2 2p4

 Converged in 44 iterations to an ae energy of -2040.855 eV

 Atomic calculation performed for O: 1s2 2s2 2p4

 Exceeded max iterations: converged to 0.000000062 eV

   | Pseudopotential Report - Date of generation 29-03-2018   |
   | Element: O Ionic charge:  6.00 Level of theory: PBE      |
   | Atomic Solver: ZORA (scalar)                             |
   |               Reference Electronic Structure             |
   |         Orbital         Occupation         Energy        |
   |            2s              2.000           -0.881        |
   |            2p              4.000           -0.332        |
   |                 Pseudopotential Definition               |
   |        Beta     l      e      Rc     scheme   norm       |
   |          1      0   -0.881   1.100     qc      0         |
   |          2      0    0.250   1.100     qc      0         |
   |          3      1   -0.332   1.100     qc      0         |
   |          4      1    0.250   1.100     qc      0         |
   |         loc     2    0.000   1.100     pn      0         |
   | Augmentation charge Rinner = 0.769                       |
   | Partial core correction Rc = 0.769                       |
   | "2|1.1|15|18|20|20:21(qc=7)"                             |
   |      Author: Chris J. Pickard, Cambridge University      |

 Atomic calculation performed for Zr: 1s2 2s2 2p6 3s2 3p6 3d10 4s2 4p6 4d2 5s2

[...]

 Atomic calculation performed for Zr: 1s2 2s2 2p6 3s2 3p6 3d10 4s2 4p6 4d2 5s2

[...]

 Warning: ion_atom_descreen_psp: negative charge density encountered
   | Pseudopotential Report - Date of generation 29-03-2018   |
   | Element: Zr Ionic charge: 12.00 Level of theory: PBE     |
   | Atomic Solver: ZORA (scalar)                             |
   |               Reference Electronic Structure             |
   |         Orbital         Occupation         Energy        |
   |            4s              2.000           -2.003        |
   |            4p              6.000           -1.193        |
   |            5s              2.000           -0.163        |
   |            4d              2.000           -0.132        |
   |                 Pseudopotential Definition               |
   |        Beta     l      e      Rc     scheme   norm       |
   |          1      0   -2.003   2.105     qc      0         |
   |          2      0   -0.163   2.105     qc      0         |
   |          3      0    0.250   2.105     qc      0         |
   |          4      1   -1.193   2.105     qc      0         |
   |          5      1    0.250   2.105     qc      0         |
   |          6      2   -0.132   2.105     qc      0         |
   |          7      2    0.250   2.105     qc      0         |
   |         loc     3    0.000   2.105     pn      0         |
   | Augmentation charge Rinner = 1.471                       |
   | Partial core correction Rc = 1.471                       |
   | "3|2.1|7|8|9|40U:50:41:42"                               |
   |      Author: Chris J. Pickard, Cambridge University      |

 Atomic calculation performed for Sn:

[...]

 Atomic calculation performed for Sn:

[...]

   | Pseudopotential Report - Date of generation 29-03-2018   |
   | Element: Sn Ionic charge: 14.00 Level of theory: PBE     |
   | Atomic Solver: ZORA (scalar)                             |
   |               Reference Electronic Structure             |
   |         Orbital         Occupation         Energy        |
   |            4d             10.000           -0.950        |
   |            5s              2.000           -0.388        |
   |            5p              2.000           -0.136        |
   |                 Pseudopotential Definition               |
   |        Beta     l      e      Rc     scheme   norm       |
   |          1      0   -0.388   2.199     qc      0         |
   |          2      0    0.250   2.199     qc      0         |
   |          3      1   -0.136   2.199     qc      0         |
   |          4      1    0.250   2.199     qc      0         |
   |          5      2   -0.950   2.199     qc      0         |
   |          6      2    0.250   2.199     qc      0         |
   |         loc     3    0.000   2.199     pn      0         |
   | Augmentation charge Rinner = 1.537                       |
   | Partial core correction Rc = 1.537                       |
   | "3|2.2|7|8|9|50:51:42"                                   |
   |      Author: Chris J. Pickard, Cambridge University      |

 Atomic calculation performed for La:

 Converged in 56 iterations to an ae energy of -230121.495 eV

 Atomic calculation performed for La:

 Exceeded max iterations: converged to 0.000000907 eV

 Warning: ion_atom_descreen_psp: negative charge density encountered
   | Pseudopotential Report - Date of generation 29-03-2018   |
   | Element: La Ionic charge: 11.00 Level of theory: PBE     |
   | Atomic Solver: ZORA (scalar)                             |
   |               Reference Electronic Structure             |
   |         Orbital         Occupation         Energy        |
   |            5s              2.000           -1.430        |
   |            5p              6.000           -0.823        |
   |            6s              2.000           -0.135        |
   |            5d              1.000           -0.114        |
   |                 Pseudopotential Definition               |
   |        Beta     l      e      Rc     scheme   norm       |
   |          1      0   -1.430   2.298     qc      0         |
   |          2      0   -0.135   2.298     qc      0         |
   |          3      0    0.250   2.298     qc      0         |
   |          4      1   -0.823   2.298     qc      0         |
   |          5      1    0.250   2.298     qc      0         |
   |          6      2   -0.114   2.298     qc      0         |
   |          7      2    0.250   2.298     qc      0         |
   |         loc     2    0.000   2.298     pn      0         |
   | Augmentation charge Rinner = 1.606                       |
   | Partial core correction Rc = 1.606                       |
   | "2|2.3|5|6|7|50U:60:51:52(qc=4.5)"                       |
   |      Author: Chris J. Pickard, Cambridge University      |

 Pseudo atomic calculation performed for O 2s2 2p4

 Converged in 39 iterations to a total energy of -432.6554 eV

 Pseudo atomic calculation performed for Zr 4s2 4p6 4d2 5s2

[...]

 Calculation parallelised over 56 processes.
 Data is distributed by G-vector(4-way) and k-point(14-way)

 ************************************ Title ************************************
 nmr testing

 ***************************** General Parameters ******************************

 output verbosity                               : normal  (1)
 write checkpoint data to                       : 031.check
 type of calculation                            : Magnetic Resonance
 stress calculation                             : on
 density difference calculation                 : off
 electron localisation func (ELF) calculation   : off
 Hirshfeld analysis                             : off
 unlimited duration calculation
 timing information                             : on
 write final potential to formatted file        : off
 write final density to formatted file          : off
 write structure in CIF formatted file          : on
 write structure in CELL formatted file         : on
 write BibTeX reference list                    : on
 write OTFG pseudopotential files               : on
 checkpoint writing                             : both castep_bin and check files

 output         length unit                     : A
 output           mass unit                     : amu
 output           time unit                     : ps
 output         charge unit                     : e
 output           spin unit                     : hbar/2
 output         energy unit                     : eV
 output          force unit                     : eV/A
 output       velocity unit                     : A/ps
 output       pressure unit                     : GPa
 output     inv_length unit                     : 1/A
 output      frequency unit                     : cm-1
 output force constant unit                     : eV/A**2
 output         volume unit                     : A**3
 output   IR intensity unit                     : (D/A)**2/amu
 output         dipole unit                     : D
 output         efield unit                     : eV/A/e
 output        entropy unit                     : J/mol/K

 wavefunctions paging                           : none
 random number generator seed                   : randomised (103337227)
 data distribution                              : optimal for this architecture
[...]
  |    O          41      -21.91      37.75      0.72   3.917E+00   0.85 |
  |    O          42      -93.53      93.79      0.28  -3.134E+00   0.08 |
  |    O          43      -88.74      86.92      0.12  -3.182E+00   0.03 |
  |    O          44     -160.10     156.03      0.78   1.039E+00   0.75 |
  |    O          45      -83.44      86.43      0.20  -3.164E+00   0.07 |
  |    O          46     -159.77     141.99      0.81   1.066E+00   0.62 |
  |    O          47      -19.81     -38.23      0.85   3.885E+00   0.88 |
  |    O          48     -163.01     153.90      0.85   1.006E+00   0.80 |
  |    O          49      -89.96      87.41      0.08  -3.163E+00   0.07 |
  |    O          50      -87.55      86.45      0.11  -3.205E+00   0.09 |
  |    O          51      -90.35      86.03      0.10  -3.150E+00   0.04 |
  |    O          52     -163.66     158.37      0.83   1.027E+00   0.84 |
  |    O          53      -84.50      88.31      0.10  -3.197E+00   0.09 |
  |    O          54      -86.42      84.47      0.14  -3.145E+00   0.06 |
  |    O          55      -88.08      84.91      0.18  -3.185E+00   0.06 |
  |    O          56      -87.46      85.49      0.21  -3.205E+00   0.09 |
  |    Zr          1     1625.12    -124.67      0.14  -3.608E+01   0.11 |
  |    Zr          2     1595.82    -109.07      0.02  -3.428E+01   0.02 |
  |    Zr          3     1629.89    -124.41      0.13  -3.715E+01   0.10 |
  |    Zr          4     1615.92    -116.48      0.12  -3.610E+01   0.09 |
[...]
  |    La          2     4646.14     632.50      0.01  -8.008E+01   0.04 |
  |    La          3     4612.79     517.97      0.06  -8.102E+01   0.09 |
  |    La          4     4700.00     771.57      0.02  -8.644E+01   0.01 |
  |    La          5     4548.65     387.50      0.06  -7.350E+01   0.10 |
  |    La          6     4698.57     751.78      0.04  -8.490E+01   0.09 |
  |    La          7     4606.53     522.06      0.08  -7.978E+01   0.11 |
  |    La          8     4558.38     379.32      0.06  -7.494E+01   0.09 |
  |    La          9     4541.41     393.83      0.08  -7.240E+01   0.10 |
  |    La         10     4606.77     523.68      0.06  -7.988E+01   0.09 |
  |    La         11     4550.91     394.94      0.06  -7.376E+01   0.11 |
  |    La         12     4606.92     543.75      0.07  -7.988E+01   0.19 |
  |    La         13     4652.99     625.35      0.01  -8.154E+01   0.04 |
  |    La         14     4612.99     539.82      0.04  -8.108E+01   0.18 |
  |    La         15     4605.30     505.91      0.08  -7.833E+01   0.08 |
  |    La         16     4653.55     656.68      0.08  -8.256E+01   0.10 |

 *********************** Forces ***********************
 *            Cartesian components (eV/A)             *
 *                   x            y            z      *
 * O         1     -0.00276      0.00048     -0.00236 *
 * O         2      0.00047      0.00051     -0.01255 *
 * O         3      0.00342      0.00091     -0.00306 *
 * O         4     -0.00218     -0.00474      0.00256 *
 * O         5     -0.01089     -0.00333     -0.00129 *
 * O         6     -0.00250     -0.00239      0.00248 *
 * O         7     -0.00075     -0.00016      0.00396 *
 * O         8      0.00424     -0.00452     -0.00017 *
 * O         9      0.00467     -0.01365     -0.00423 *
 * O        10     -0.00409     -0.01599      0.00714 *
 * O        11     -0.00475     -0.01621      0.01935 *
 * O        12      0.00203     -0.00684      0.00184 *
 * O        13     -0.00283      0.00949      0.00160 *
 * O        14      0.00209     -0.00385      0.00849 *
 * O        15     -0.01580     -0.00368      0.01796 *
 * O        16      0.00844      0.00797     -0.00142 *
 * O        17     -0.00491     -0.00396      0.00517 *
 * O        18      0.00166     -0.00106     -0.01242 *
 * O        19      0.00029      0.00167     -0.00615 *
 * O        20     -0.01110     -0.00971     -0.00336 *
 * O        21      0.01192     -0.00296     -0.01905 *
 * O        22     -0.00254     -0.01096      0.00536 *
 * O        23     -0.00464     -0.00957     -0.00924 *
 * O        24     -0.01201     -0.00110      0.00909 *
 * O        25      0.00955     -0.00259     -0.00419 *
 * O        26     -0.01068      0.00180      0.00192 *
 * O        27     -0.00715     -0.00470     -0.00384 *
 * O        28      0.00968      0.01885     -0.02004 *
 * O        29      0.01970      0.03109     -0.00468 *
 * O        30     -0.00741      0.01338      0.00741 *
 * O        31      0.00143      0.00695      0.00413 *
 * O        32      0.01847      0.01629     -0.00527 *
 * O        33      0.01312      0.00093     -0.00242 *
 * O        34     -0.01191     -0.00225     -0.00071 *
 * O        35      0.01438      0.00661     -0.01405 *
 * O        36      0.01267     -0.00310      0.01876 *
 * O        37     -0.00053     -0.00917      0.00047 *
 * O        38      0.01462      0.00071     -0.01310 *
 * O        39     -0.00883     -0.01131      0.00659 *
 * O        40     -0.01217      0.00059     -0.00168 *
 * O        41      0.00414      0.00930     -0.00266 *
 * O        42     -0.00974     -0.00976      0.01397 *
 * O        43     -0.01240     -0.01525      0.00267 *
 * O        44      0.00283      0.00499     -0.01105 *
 * O        45      0.00851      0.00962      0.01397 *
 * O        46     -0.00903      0.00004      0.00349 *
 * O        47      0.00164      0.00062     -0.00827 *
 * O        48     -0.00473     -0.00537      0.01164 *
 * O        49      0.01896      0.00705     -0.02113 *
 * O        50     -0.00424     -0.00574     -0.01393 *
 * O        51      0.00145      0.01570     -0.01356 *
 * O        52     -0.01989      0.00451      0.00316 *
 * O        53      0.01126     -0.00851      0.01156 *
 * O        54     -0.01068     -0.00814     -0.00379 *
 * O        55     -0.01635     -0.01078      0.00634 *
 * O        56      0.00686      0.00746      0.00864 *
 * Zr        1     -0.02554     -0.00038      0.02610 *
 * Zr        2     -0.00417      0.00190     -0.01243 *
 * Zr        3      0.00493     -0.00201     -0.01299 *
 * Zr        4     -0.00493     -0.01295     -0.01386 *
[...]
 * La        2      0.02448      0.00105      0.02106 *
 * La        3     -0.00472     -0.00520     -0.00677 *
 * La        4     -0.00918      0.00802     -0.01913 *
 * La        5     -0.00758      0.00084     -0.00217 *
 * La        6      0.02974      0.01170     -0.01188 *
 * La        7      0.00192     -0.00669      0.00484 *
 * La        8      0.00009     -0.00103     -0.00082 *
 * La        9     -0.00556      0.00289     -0.00210 *
 * La       10      0.00103      0.00950      0.00262 *
 * La       11      0.00441     -0.00614      0.00389 *
 * La       12     -0.00646      0.00123      0.00554 *
 * La       13     -0.02180      0.00155      0.01789 *
 * La       14     -0.00342     -0.00363     -0.00626 *
 * La       15      0.01301      0.00448      0.00970 *
 * La       16      0.00318      0.00495     -0.01198 *

 ***************** Stress Tensor *****************
 *          Cartesian components (GPa)           *
 *             x             y             z     *
 *  x      0.050676      0.015059     -0.012023  *
 *  y      0.015059      0.031784     -0.014407  *
 *  z     -0.012023     -0.014407      0.026431  *
 *  Pressure:   -0.0363                          *

[...]

 Pseudo atomic calculation performed for Sn 4d10 5s2 5p2

[...]

 Pseudo atomic calculation performed for La 5s2 5p6 5d1 6s2

 Converged in 34 iterations to a total energy of -968.0372 eV

Charge spilling parameter for spin component 1 = 0.25%

     Atomic Populations (Mulliken)
Species   Ion     s      p      d      f     Total  Charge (e)
  O        1     1.87   5.00   0.00   0.00   6.87    -0.87
  O        2     1.87   5.00   0.00   0.00   6.87    -0.87
  O        3     1.87   5.00   0.00   0.00   6.87    -0.87
  O        4     1.87   5.00   0.00   0.00   6.87    -0.87
  O        5     1.87   5.00   0.00   0.00   6.87    -0.87
  O        6     1.87   5.00   0.00   0.00   6.87    -0.87
  O        7     1.87   5.00   0.00   0.00   6.87    -0.87
  O        8     1.87   5.00   0.00   0.00   6.87    -0.87
  O        9     1.87   4.99   0.00   0.00   6.86    -0.86
  O       10     1.88   5.03   0.00   0.00   6.91    -0.91
  O       11     1.87   4.99   0.00   0.00   6.86    -0.86
  O       12     1.88   5.03   0.00   0.00   6.91    -0.91
  O       13     1.88   5.03   0.00   0.00   6.91    -0.91
  O       14     1.86   4.95   0.00   0.00   6.80    -0.80
  O       15     1.87   4.99   0.00   0.00   6.86    -0.86
  O       16     1.88   5.03   0.00   0.00   6.91    -0.91
  O       17     1.88   5.03   0.00   0.00   6.91    -0.91
  O       18     1.88   5.03   0.00   0.00   6.91    -0.91
  O       19     1.88   5.02   0.00   0.00   6.91    -0.91
  O       20     1.87   4.99   0.00   0.00   6.86    -0.86
  O       21     1.87   4.99   0.00   0.00   6.86    -0.86
  O       22     1.88   5.03   0.00   0.00   6.91    -0.91
  O       23     1.88   5.03   0.00   0.00   6.91    -0.91
  O       24     1.87   4.99   0.00   0.00   6.86    -0.86
  O       25     1.88   5.02   0.00   0.00   6.91    -0.91
  O       26     1.88   5.02   0.00   0.00   6.91    -0.91
  O       27     1.88   5.03   0.00   0.00   6.91    -0.91
  O       28     1.87   4.99   0.00   0.00   6.86    -0.86
  O       29     1.87   4.99   0.00   0.00   6.86    -0.86
  O       30     1.87   4.99   0.00   0.00   6.86    -0.86
  O       31     1.88   5.03   0.00   0.00   6.91    -0.91
  O       32     1.87   4.99   0.00   0.00   6.86    -0.86
  O       33     1.86   4.95   0.00   0.00   6.80    -0.80
  O       34     1.88   5.02   0.00   0.00   6.91    -0.91
  O       35     1.87   4.99   0.00   0.00   6.86    -0.86
  O       36     1.87   4.99   0.00   0.00   6.86    -0.86
  O       37     1.88   5.03   0.00   0.00   6.91    -0.91
  O       38     1.87   4.99   0.00   0.00   6.86    -0.86
  O       39     1.88   5.03   0.00   0.00   6.91    -0.91
  O       40     1.87   4.99   0.00   0.00   6.86    -0.86
  O       41     1.88   5.03   0.00   0.00   6.91    -0.91
  O       42     1.87   4.99   0.00   0.00   6.86    -0.86
  O       43     1.87   4.99   0.00   0.00   6.86    -0.86
  O       44     1.86   4.95   0.00   0.00   6.80    -0.80
  O       45     1.87   4.99   0.00   0.00   6.86    -0.86
  O       46     1.86   4.95   0.00   0.00   6.80    -0.80
  O       47     1.88   5.03   0.00   0.00   6.91    -0.91
  O       48     1.86   4.95   0.00   0.00   6.80    -0.80
  O       49     1.87   4.99   0.00   0.00   6.86    -0.86
  O       50     1.87   4.99   0.00   0.00   6.86    -0.86
  O       51     1.87   4.99   0.00   0.00   6.86    -0.86
  O       52     1.86   4.95   0.00   0.00   6.80    -0.80
  O       53     1.87   4.99   0.00   0.00   6.86    -0.86
  O       54     1.87   4.99   0.00   0.00   6.86    -0.86
  O       55     1.87   4.99   0.00   0.00   6.86    -0.86
  O       56     1.87   4.99   0.00   0.00   6.86    -0.86
  Zr       1     2.37   6.48   1.92   0.00  10.77     1.23
  Zr       2     2.37   6.50   1.92   0.00  10.79     1.21
  Zr       3     2.37   6.47   1.92   0.00  10.76     1.24
  Zr       4     2.36   6.49   1.92   0.00  10.77     1.23
[...]
  La       2     2.08   6.17   1.20   0.00   9.44     1.56
  La       3     2.07   6.19   1.19   0.00   9.45     1.55
  La       4     2.02   6.16   1.20   0.00   9.38     1.62
  La       5     2.12   6.19   1.19   0.00   9.50     1.50
  La       6     2.02   6.16   1.20   0.00   9.38     1.62
  La       7     2.06   6.18   1.19   0.00   9.44     1.56
  La       8     2.09   6.20   1.19   0.00   9.48     1.52
  La       9     2.11   6.19   1.19   0.00   9.49     1.51
  La      10     2.06   6.18   1.19   0.00   9.44     1.56
  La      11     2.11   6.19   1.19   0.00   9.50     1.50
  La      12     2.06   6.18   1.19   0.00   9.44     1.56
  La      13     2.04   6.17   1.19   0.00   9.41     1.59
  La      14     2.08   6.18   1.19   0.00   9.45     1.55
  La      15     2.07   6.19   1.19   0.00   9.45     1.55
  La      16     2.04   6.17   1.20   0.00   9.41     1.59

            Bond              Population      Length (A)
         O 28 -- Sn 6              0.35        2.10096
         O 30 -- Sn 7              0.34        2.10179
         O 53 -- Sn 3              0.34        2.10226
         O 29 -- Sn 8              0.35        2.10254
         O 27 -- Sn 9              0.34        2.10280
         O 38 -- Sn 4              0.34        2.10340
         O 45 -- Sn 9              0.34        2.10362
         O 36 -- Sn 10             0.35        2.10435
         O 27 -- Sn 4              0.34        2.10450
         O 55 -- Sn 3              0.35        2.10524
         O 35 -- Sn 9              0.34        2.10614
         O 50 -- Sn 7              0.34        2.10617
         O 16 -- Sn 10             0.34        2.10624
         O 17 -- Sn 5              0.34        2.10627
         O 56 -- Sn 6              0.34        2.10674
         O 11 -- Sn 6              0.35        2.10686
         O 21 -- Sn 3              0.35        2.10689
         O 18 -- Sn 3              0.34        2.10722
         O 9  -- Sn 4              0.34        2.10727
         O 18 -- Sn 7              0.34        2.10731
         O 24 -- Sn 5              0.34        2.10736
         O 15 -- Sn 9              0.35        2.10804
         O 43 -- Sn 8              0.35        2.10810
         O 41 -- Sn 1              0.34        2.10811
         O 49 -- Sn 1              0.34        2.10844
         O 17 -- Sn 10             0.34        2.10878
         O 39 -- Sn 5              0.34        2.10924
         O 42 -- Sn 7              0.34        2.10936
         O 40 -- Sn 4              0.34        2.10940
         O 22 -- Sn 6              0.34        2.10955
         O 16 -- Sn 2              0.33        2.10957
         O 54 -- Sn 5              0.34        2.10958
         O 41 -- Sn 10             0.33        2.10996
         O 10 -- Sn 2              0.34        2.10999
         O 23 -- Sn 4              0.34        2.11022
         O 13 -- Sn 7              0.34        2.11032
         O 12 -- Sn 8              0.33        2.11084
         O 47 -- Sn 1              0.33        2.11116
         O 10 -- Sn 5              0.33        2.11118
         O 52 -- Zr 1              0.42        2.11121
         O 23 -- Sn 2              0.33        2.11127
         O 47 -- Sn 2              0.33        2.11218
         O 32 -- Sn 10             0.34        2.11219
         O 51 -- Sn 2              0.34        2.11255
         O 22 -- Sn 8              0.33        2.11257
         O 20 -- Sn 4              0.34        2.11259
         O 37 -- Sn 1              0.34        2.11283
         O 13 -- Sn 8              0.33        2.11286
         O 39 -- Sn 1              0.34        2.11292
         O 33 -- Zr 5              0.41        2.11300
         O 52 -- Zr 6              0.41        2.11318
         O 12 -- Sn 3              0.33        2.11350
         O 31 -- Sn 2              0.34        2.11365
         O 33 -- Zr 3              0.41        2.11373
         O 44 -- Zr 3              0.42        2.11568
         O 48 -- Zr 5              0.42        2.11589
         O 37 -- Sn 6              0.33        2.11591
         O 28 -- Zr 4              0.43        2.11601
         O 44 -- Zr 6              0.42        2.11641
         O 38 -- Zr 2              0.44        2.11680
[...]
         O 46 -- O 49             -0.03        2.82808
         O 14 -- O 30             -0.03        2.82931
         O 33 -- O 40             -0.03        2.82953
         O 20 -- O 28             -0.03        2.83115
         O 11 -- O 21             -0.03        2.83177
         O 15 -- O 32             -0.03        2.83206
         O 43 -- O 51             -0.03        2.83240
         O 46 -- O 53             -0.03        2.83243
         O 20 -- O 49             -0.03        2.83248
         O 35 -- O 43             -0.03        2.83347
         O 51 -- O 55             -0.03        2.83381
         O 54 -- O 56             -0.03        2.83596
         O 11 -- O 32             -0.03        2.83730
         O 9  -- O 24             -0.03        2.84014
         O 45 -- O 54             -0.03        2.84014

Writing analysis data to 031.castep_bin

Writing model to 031.check

 A BibTeX formatted list of references used in this run has been written to
 031.bib

Initialisation time =     54.12 s
Calculation time    =  33907.96 s
Finalisation time   =    108.56 s
Total time          =  34070.65 s

Overall parallel efficiency rating: Good (77%)

Data was distributed by:-
G-vector (4-way); efficiency rating: Good (78%)
k-point (14-way); efficiency rating: Ideal (100%)