 Compiled for linux_x86_64_ifort16 on Sat, 23 Jul 2016 23:44:54 +0100
 from code version
 203e84763863+ Castep161_branch Fri, 04 Mar 2016 19:21:07 +0000
 Compiler: Intel Fortran 16.0.3.210; Optimisation: fast
 MATHLIBS: Intel MKL(11.3.3) (LAPACK version 3.6.0)
 FFT Lib : mkl
 Fundamental constants values: CODATA 2010

 Run started: Sun, 08 Apr 2018 06:04:50 +0100
 |           N   N    M   M    RRRR                |
 |           NN  N    MM MM    R   R               |
 |           N N N    M M M    RRRR                |
 |           N  NN    M   M    R  R                |
 |           N   N    M   M    R   R               |
 | Welcome to Materials Studio CASTEP-NMR          |
 | Authors:                                        |
 | J.R. Yates, C.J. Pickard, F. Mauri              |
 | Contributors:                                   |
 | T.F.G. Green, S.A. Joyce                        |
 | Copyright (c) 2004 - 2015                       |
 | Please cite the appropriate publications in all |
 | work arising from your use of CASTEP NMR.       |
 | For NMR Shielding Tensors cite:                 |
 |    "All-electron magnetic response with         |
 |    pseudopotentials: NMR chemical shifts",      |
 |    C. J. Pickard, F. Mauri;                     |
 |    Physical Review B63 245101 (2001), and       |
 |    "Calculation of NMR Chemical Shifts          |
 |    for extended systems using                   |
 |    Ultrasoft Pseudopotentials",                 |
 |    J. R. Yates, C. J. Pickard and F. Mauri      |
 |    Physical Review B76 024401 (2007)            |
 | For Electric Field Gradients cite:              |
 |   "Accurate First Principles Prediction of 17O  |
 |    NMR Parameters in SiO2: Assignment of the    |
 |    Zeolite Ferrierite Spectrum"                 |
 |    M. Profeta, F. Mauri and C. J. Pickard       |
 |    J. Amer. Chem. Soc. 125 541 (2003)           |
 | For Spin-Spin (J) Couplings cite:               |
 |   "A first principles theory of NMR J-coupling  |
 |   in solid-state systems"                       |
 |   S.A. Joyce, J.R. Yates, C.J. Pickard, F. Mauri|
 |   J. Chem. Phys. 127 204107 (2007)              |
 |   "Relativistic NMR J-coupling with ultrasoft   |
 |   pseudopotentials and the zeroth-order regular |
 |   approximation"                                |
 |   T.F.G. Green and J.R. Yates                   |
 |   J. Chem. Phys. 140 234106 (2014)              |

 Atomic calculation performed for O: 1s2 2s2 2p4

 Converged in 44 iterations to an ae energy of -2040.855 eV

 Atomic calculation performed for O: 1s2 2s2 2p4

 Exceeded max iterations: converged to 0.000000062 eV

   | Pseudopotential Report - Date of generation  8-04-2018   |
   | Element: O Ionic charge:  6.00 Level of theory: PBE      |
   | Atomic Solver: ZORA (scalar)                             |
   |               Reference Electronic Structure             |
   |         Orbital         Occupation         Energy        |
   |            2s              2.000           -0.881        |
   |            2p              4.000           -0.332        |
   |                 Pseudopotential Definition               |
   |        Beta     l      e      Rc     scheme   norm       |
   |          1      0   -0.881   1.100     qc      0         |
   |          2      0    0.250   1.100     qc      0         |
   |          3      1   -0.332   1.100     qc      0         |
   |          4      1    0.250   1.100     qc      0         |
   |         loc     2    0.000   1.100     pn      0         |
   | Augmentation charge Rinner = 0.769                       |
   | Partial core correction Rc = 0.769                       |
   | "2|1.1|15|18|20|20:21(qc=7)"                             |
   |      Author: Chris J. Pickard, Cambridge University      |

 Atomic calculation performed for Zr: 1s2 2s2 2p6 3s2 3p6 3d10 4s2 4p6 4d2 5s2

[...]

 Atomic calculation performed for Zr: 1s2 2s2 2p6 3s2 3p6 3d10 4s2 4p6 4d2 5s2

[...]

 Warning: ion_atom_descreen_psp: negative charge density encountered
   | Pseudopotential Report - Date of generation  8-04-2018   |
   | Element: Zr Ionic charge: 12.00 Level of theory: PBE     |
   | Atomic Solver: ZORA (scalar)                             |
   |               Reference Electronic Structure             |
   |         Orbital         Occupation         Energy        |
   |            4s              2.000           -2.003        |
   |            4p              6.000           -1.193        |
   |            5s              2.000           -0.163        |
   |            4d              2.000           -0.132        |
   |                 Pseudopotential Definition               |
   |        Beta     l      e      Rc     scheme   norm       |
   |          1      0   -2.003   2.105     qc      0         |
   |          2      0   -0.163   2.105     qc      0         |
   |          3      0    0.250   2.105     qc      0         |
   |          4      1   -1.193   2.105     qc      0         |
   |          5      1    0.250   2.105     qc      0         |
   |          6      2   -0.132   2.105     qc      0         |
   |          7      2    0.250   2.105     qc      0         |
   |         loc     3    0.000   2.105     pn      0         |
   | Augmentation charge Rinner = 1.471                       |
   | Partial core correction Rc = 1.471                       |
   | "3|2.1|7|8|9|40U:50:41:42"                               |
   |      Author: Chris J. Pickard, Cambridge University      |

 Atomic calculation performed for Sn:

[...]

 Atomic calculation performed for Sn:

[...]

   | Pseudopotential Report - Date of generation  8-04-2018   |
   | Element: Sn Ionic charge: 14.00 Level of theory: PBE     |
   | Atomic Solver: ZORA (scalar)                             |
   |               Reference Electronic Structure             |
   |         Orbital         Occupation         Energy        |
   |            4d             10.000           -0.950        |
   |            5s              2.000           -0.388        |
   |            5p              2.000           -0.136        |
   |                 Pseudopotential Definition               |
   |        Beta     l      e      Rc     scheme   norm       |
   |          1      0   -0.388   2.199     qc      0         |
   |          2      0    0.250   2.199     qc      0         |
   |          3      1   -0.136   2.199     qc      0         |
   |          4      1    0.250   2.199     qc      0         |
   |          5      2   -0.950   2.199     qc      0         |
   |          6      2    0.250   2.199     qc      0         |
   |         loc     3    0.000   2.199     pn      0         |
   | Augmentation charge Rinner = 1.537                       |
   | Partial core correction Rc = 1.537                       |
   | "3|2.2|7|8|9|50:51:42"                                   |
   |      Author: Chris J. Pickard, Cambridge University      |

 Atomic calculation performed for La:

 Converged in 56 iterations to an ae energy of -230121.495 eV

 Atomic calculation performed for La:

 Exceeded max iterations: converged to 0.000000907 eV

 Warning: ion_atom_descreen_psp: negative charge density encountered
   | Pseudopotential Report - Date of generation  8-04-2018   |
   | Element: La Ionic charge: 11.00 Level of theory: PBE     |
   | Atomic Solver: ZORA (scalar)                             |
   |               Reference Electronic Structure             |
   |         Orbital         Occupation         Energy        |
   |            5s              2.000           -1.430        |
   |            5p              6.000           -0.823        |
   |            6s              2.000           -0.135        |
   |            5d              1.000           -0.114        |
   |                 Pseudopotential Definition               |
   |        Beta     l      e      Rc     scheme   norm       |
   |          1      0   -1.430   2.298     qc      0         |
   |          2      0   -0.135   2.298     qc      0         |
   |          3      0    0.250   2.298     qc      0         |
   |          4      1   -0.823   2.298     qc      0         |
   |          5      1    0.250   2.298     qc      0         |
   |          6      2   -0.114   2.298     qc      0         |
   |          7      2    0.250   2.298     qc      0         |
   |         loc     2    0.000   2.298     pn      0         |
   | Augmentation charge Rinner = 1.606                       |
   | Partial core correction Rc = 1.606                       |
   | "2|2.3|5|6|7|50U:60:51:52(qc=4.5)"                       |
   |      Author: Chris J. Pickard, Cambridge University      |

 Pseudo atomic calculation performed for O 2s2 2p4

 Converged in 39 iterations to a total energy of -432.6554 eV

 Pseudo atomic calculation performed for Zr 4s2 4p6 4d2 5s2

[...]

 Calculation parallelised over 56 processes.
 Data is distributed by G-vector(4-way) and k-point(14-way)

 ************************************ Title ************************************
 nmr testing

 ***************************** General Parameters ******************************

 output verbosity                               : normal  (1)
 write checkpoint data to                       : 035.check
 type of calculation                            : Magnetic Resonance
 stress calculation                             : on
 density difference calculation                 : off
 electron localisation func (ELF) calculation   : off
 Hirshfeld analysis                             : off
 unlimited duration calculation
 timing information                             : on
 write final potential to formatted file        : off
 write final density to formatted file          : off
 write structure in CIF formatted file          : on
 write structure in CELL formatted file         : on
 write BibTeX reference list                    : on
 write OTFG pseudopotential files               : on
 checkpoint writing                             : both castep_bin and check files

 output         length unit                     : A
 output           mass unit                     : amu
 output           time unit                     : ps
 output         charge unit                     : e
 output           spin unit                     : hbar/2
 output         energy unit                     : eV
 output          force unit                     : eV/A
 output       velocity unit                     : A/ps
 output       pressure unit                     : GPa
 output     inv_length unit                     : 1/A
 output      frequency unit                     : cm-1
 output force constant unit                     : eV/A**2
 output         volume unit                     : A**3
 output   IR intensity unit                     : (D/A)**2/amu
 output         dipole unit                     : D
 output         efield unit                     : eV/A/e
 output        entropy unit                     : J/mol/K

 wavefunctions paging                           : none
 random number generator seed                   : randomised (60451477)
 data distribution                              : optimal for this architecture
[...]
  |    O          41      -88.49      84.04      0.29  -3.213E+00   0.09 |
  |    O          42     -162.31     147.62      0.87   1.031E+00   0.70 |
  |    O          43      -86.54      84.53      0.12  -3.179E+00   0.04 |
  |    O          44      -83.33      88.81      0.09  -3.227E+00   0.07 |
  |    O          45      -88.49      84.04      0.29  -3.213E+00   0.09 |
  |    O          46     -162.31     147.62      0.87   1.031E+00   0.70 |
  |    O          47      -12.88      60.45      0.63   3.855E+00   0.90 |
  |    O          48      -88.02      86.02      0.03  -3.245E+00   0.08 |
  |    O          49      -88.56      84.30      0.28  -3.213E+00   0.09 |
  |    O          50     -162.24     147.60      0.87   1.032E+00   0.71 |
  |    O          51      -89.43      85.20      0.16  -3.145E+00   0.08 |
  |    O          52      -89.93      96.66      0.31  -3.137E+00   0.08 |
  |    O          53      -82.94      86.02      0.09  -3.233E+00   0.08 |
  |    O          54      -86.54      84.85      0.12  -3.179E+00   0.04 |
  |    O          55      -90.04      96.76      0.30  -3.138E+00   0.08 |
  |    O          56      -89.37      84.86      0.16  -3.147E+00   0.08 |
  |    Zr          1     1610.71    -117.67      0.12  -3.521E+01   0.09 |
  |    Zr          2     1610.33    -117.68      0.13  -3.522E+01   0.08 |
  |    Zr          3     1624.98    -122.18      0.17  -3.614E+01   0.01 |
  |    Zr          4     1610.33    -117.68      0.13  -3.522E+01   0.08 |
[...]
  |    La          2     4652.22     660.53      0.08  -8.297E+01   0.11 |
  |    La          3     4602.55     514.62      0.09  -7.970E+01   0.11 |
  |    La          4     4704.62     760.88      0.03  -8.680E+01   0.08 |
  |    La          5     4652.22     660.53      0.08  -8.297E+01   0.11 |
  |    La          6     4597.24     522.39      0.09  -7.837E+01   0.06 |
  |    La          7     4614.50     510.84      0.06  -7.981E+01   0.09 |
  |    La          8     4550.34     387.53      0.07  -7.368E+01   0.10 |
  |    La          9     4550.22     387.00      0.07  -7.372E+01   0.10 |
  |    La         10     4597.24     522.38      0.09  -7.837E+01   0.06 |
  |    La         11     4550.22     387.00      0.07  -7.372E+01   0.10 |
  |    La         12     4602.55     514.62      0.09  -7.970E+01   0.11 |
  |    La         13     4550.34     387.53      0.07  -7.368E+01   0.10 |
  |    La         14     4614.50     510.84      0.06  -7.981E+01   0.09 |
  |    La         15     4704.62     760.88      0.03  -8.680E+01   0.08 |
  |    La         16     4652.12     659.83      0.08  -8.289E+01   0.11 |

 *********************** Forces ***********************
 *            Cartesian components (eV/A)             *
 *                   x            y            z      *
 * O         1     -0.01508      0.00237      0.01138 *
 * O         2     -0.00567      0.00551     -0.00129 *
 * O         3     -0.00567      0.00551     -0.00129 *
 * O         4     -0.01508      0.00237      0.01138 *
 * O         5      0.00337     -0.01466     -0.01139 *
 * O         6      0.00643     -0.00516     -0.00054 *
 * O         7      0.00643     -0.00516     -0.00054 *
 * O         8      0.00337     -0.01466     -0.01139 *
 * O         9      0.00645     -0.00685      0.00201 *
 * O        10     -0.00651     -0.00587      0.00082 *
 * O        11     -0.00651     -0.00587      0.00082 *
 * O        12      0.00645     -0.00685      0.00201 *
 * O        13     -0.03540     -0.00731     -0.00902 *
 * O        14     -0.01155     -0.00683      0.01535 *
 * O        15     -0.00903     -0.00745      0.00619 *
 * O        16      0.02417      0.00153      0.01480 *
 * O        17      0.02083      0.02395     -0.00356 *
 * O        18     -0.01413      0.02481     -0.00387 *
 * O        19     -0.00086      0.00387     -0.00085 *
 * O        20     -0.01915     -0.02012      0.00131 *
 * O        21     -0.00365      0.00418     -0.00174 *
 * O        22     -0.00606     -0.00746     -0.00050 *
 * O        23     -0.00606     -0.00747     -0.00050 *
 * O        24     -0.00365      0.00418     -0.00174 *
 * O        25     -0.00919     -0.03000      0.00723 *
 * O        26     -0.00441     -0.01536     -0.01492 *
 * O        27     -0.00772     -0.00909     -0.00561 *
 * O        28      0.00225      0.02415     -0.01462 *
 * O        29      0.02531      0.02185      0.00396 *
 * O        30      0.01724     -0.00709      0.00712 *
 * O        31      0.00384     -0.00124     -0.00010 *
 * O        32     -0.02107     -0.02080     -0.00050 *
 * O        33     -0.00919     -0.03000      0.00723 *
 * O        34     -0.00772     -0.00909     -0.00561 *
 * O        35      0.01645      0.01015     -0.01754 *
 * O        36      0.00155     -0.00246     -0.00521 *
 * O        37      0.00384     -0.00124     -0.00010 *
 * O        38      0.02531      0.02185      0.00396 *
 * O        39     -0.00903     -0.00745      0.00619 *
 * O        40     -0.03540     -0.00731     -0.00902 *
 * O        41      0.00958      0.01627      0.01737 *
 * O        42     -0.00537      0.00663      0.00448 *
 * O        43     -0.01915     -0.02012      0.00131 *
 * O        44     -0.01413      0.02481     -0.00387 *
 * O        45      0.00958      0.01627      0.01737 *
 * O        46     -0.00537      0.00663      0.00448 *
 * O        47     -0.00086      0.00387     -0.00085 *
 * O        48      0.02083      0.02395     -0.00356 *
 * O        49      0.01645      0.01015     -0.01754 *
 * O        50      0.00155     -0.00246     -0.00521 *
 * O        51      0.00225      0.02415     -0.01462 *
 * O        52     -0.00441     -0.01536     -0.01492 *
 * O        53      0.01724     -0.00709      0.00712 *
 * O        54     -0.02107     -0.02080     -0.00050 *
 * O        55     -0.01155     -0.00683      0.01535 *
 * O        56      0.02417      0.00153      0.01480 *
 * Zr        1     -0.01696     -0.02824      0.02795 *
 * Zr        2     -0.01122     -0.01187     -0.02868 *
 * Zr        3     -0.00101     -0.02094     -0.00363 *
 * Zr        4     -0.01122     -0.01187     -0.02868 *
[...]
 * La        2     -0.00798      0.01136      0.01761 *
 * La        3     -0.00288     -0.00296      0.00066 *
 * La        4      0.02357      0.02018      0.00120 *
 * La        5     -0.00798      0.01135      0.01761 *
 * La        6      0.00851      0.01026      0.00065 *
 * La        7     -0.00343     -0.00350      0.00036 *
 * La        8     -0.00366      0.00366      0.00773 *
 * La        9      0.00721     -0.00074     -0.00334 *
 * La       10      0.00851      0.01026      0.00065 *
 * La       11      0.00721     -0.00074     -0.00334 *
 * La       12     -0.00288     -0.00296      0.00066 *
 * La       13     -0.00366      0.00366      0.00773 *
 * La       14     -0.00343     -0.00350      0.00037 *
 * La       15      0.02357      0.02018      0.00120 *
 * La       16      0.00813     -0.01129     -0.01303 *

 ***************** Stress Tensor *****************
 *          Cartesian components (GPa)           *
 *             x             y             z     *
 *  x     -0.003694     -0.045004     -0.042600  *
 *  y     -0.045004      0.011474      0.042867  *
 *  z     -0.042600      0.042867     -0.000655  *
 *  Pressure:   -0.0024                          *

[...]

 Pseudo atomic calculation performed for Sn 4d10 5s2 5p2

[...]

 Pseudo atomic calculation performed for La 5s2 5p6 5d1 6s2

 Converged in 34 iterations to a total energy of -968.0372 eV

Charge spilling parameter for spin component 1 = 0.25%

     Atomic Populations (Mulliken)
Species   Ion     s      p      d      f     Total  Charge (e)
  O        1     1.87   5.00   0.00   0.00   6.87    -0.87
  O        2     1.87   5.00   0.00   0.00   6.87    -0.87
  O        3     1.87   5.00   0.00   0.00   6.87    -0.87
  O        4     1.87   5.00   0.00   0.00   6.87    -0.87
  O        5     1.87   5.00   0.00   0.00   6.87    -0.87
  O        6     1.87   5.00   0.00   0.00   6.87    -0.87
  O        7     1.87   5.00   0.00   0.00   6.87    -0.87
  O        8     1.87   5.00   0.00   0.00   6.87    -0.87
  O        9     1.88   5.03   0.00   0.00   6.91    -0.91
  O       10     1.88   5.03   0.00   0.00   6.91    -0.91
  O       11     1.88   5.03   0.00   0.00   6.91    -0.91
  O       12     1.88   5.03   0.00   0.00   6.91    -0.91
  O       13     1.87   4.99   0.00   0.00   6.86    -0.86
  O       14     1.87   4.99   0.00   0.00   6.86    -0.86
  O       15     1.88   5.03   0.00   0.00   6.91    -0.91
  O       16     1.87   4.99   0.00   0.00   6.86    -0.86
  O       17     1.87   4.99   0.00   0.00   6.86    -0.86
  O       18     1.87   4.99   0.00   0.00   6.86    -0.86
  O       19     1.88   5.03   0.00   0.00   6.91    -0.91
  O       20     1.87   4.99   0.00   0.00   6.86    -0.86
  O       21     1.88   5.02   0.00   0.00   6.91    -0.91
  O       22     1.88   5.03   0.00   0.00   6.91    -0.91
  O       23     1.88   5.03   0.00   0.00   6.91    -0.91
  O       24     1.88   5.02   0.00   0.00   6.91    -0.91
  O       25     1.87   4.99   0.00   0.00   6.86    -0.86
  O       26     1.87   4.99   0.00   0.00   6.86    -0.86
  O       27     1.88   5.03   0.00   0.00   6.91    -0.91
  O       28     1.87   4.99   0.00   0.00   6.86    -0.86
  O       29     1.87   4.99   0.00   0.00   6.86    -0.86
  O       30     1.87   4.99   0.00   0.00   6.86    -0.86
  O       31     1.88   5.03   0.00   0.00   6.91    -0.91
  O       32     1.87   4.99   0.00   0.00   6.86    -0.86
  O       33     1.87   4.99   0.00   0.00   6.86    -0.86
  O       34     1.88   5.03   0.00   0.00   6.91    -0.91
  O       35     1.87   4.99   0.00   0.00   6.86    -0.86
  O       36     1.86   4.95   0.00   0.00   6.80    -0.80
  O       37     1.88   5.03   0.00   0.00   6.91    -0.91
  O       38     1.87   4.99   0.00   0.00   6.86    -0.86
  O       39     1.88   5.03   0.00   0.00   6.91    -0.91
  O       40     1.87   4.99   0.00   0.00   6.86    -0.86
  O       41     1.87   4.99   0.00   0.00   6.86    -0.86
  O       42     1.86   4.95   0.00   0.00   6.80    -0.80
  O       43     1.87   4.99   0.00   0.00   6.86    -0.86
  O       44     1.87   4.99   0.00   0.00   6.86    -0.86
  O       45     1.87   4.99   0.00   0.00   6.86    -0.86
  O       46     1.86   4.95   0.00   0.00   6.80    -0.80
  O       47     1.88   5.03   0.00   0.00   6.91    -0.91
  O       48     1.87   4.99   0.00   0.00   6.86    -0.86
  O       49     1.87   4.99   0.00   0.00   6.86    -0.86
  O       50     1.86   4.95   0.00   0.00   6.80    -0.80
  O       51     1.87   4.99   0.00   0.00   6.86    -0.86
  O       52     1.87   4.99   0.00   0.00   6.86    -0.86
  O       53     1.87   4.99   0.00   0.00   6.86    -0.86
  O       54     1.87   4.99   0.00   0.00   6.86    -0.86
  O       55     1.87   4.99   0.00   0.00   6.86    -0.86
  O       56     1.87   4.99   0.00   0.00   6.86    -0.86
  Zr       1     2.37   6.49   1.92   0.00  10.78     1.22
  Zr       2     2.37   6.49   1.92   0.00  10.78     1.22
  Zr       3     2.37   6.48   1.92   0.00  10.77     1.23
  Zr       4     2.37   6.49   1.92   0.00  10.78     1.22
[...]
  La       2     2.06   6.17   1.20   0.00   9.43     1.57
  La       3     2.08   6.18   1.19   0.00   9.46     1.54
  La       4     2.01   6.16   1.20   0.00   9.37     1.63
  La       5     2.06   6.17   1.20   0.00   9.43     1.57
  La       6     2.06   6.18   1.19   0.00   9.44     1.56
  La       7     2.05   6.19   1.19   0.00   9.44     1.56
  La       8     2.09   6.19   1.19   0.00   9.48     1.52
  La       9     2.09   6.19   1.19   0.00   9.48     1.52
  La      10     2.06   6.18   1.19   0.00   9.44     1.56
  La      11     2.09   6.19   1.19   0.00   9.48     1.52
  La      12     2.08   6.18   1.19   0.00   9.46     1.54
  La      13     2.09   6.19   1.19   0.00   9.48     1.52
  La      14     2.05   6.19   1.19   0.00   9.44     1.56
  La      15     2.01   6.16   1.20   0.00   9.37     1.63
  La      16     2.06   6.17   1.20   0.00   9.43     1.57

            Bond              Population      Length (A)
         O 53 -- Sn 3              0.35        2.10079
         O 30 -- Sn 9              0.35        2.10079
         O 18 -- Sn 3              0.35        2.10086
         O 44 -- Sn 9              0.35        2.10086
         O 48 -- Sn 7              0.35        2.10183
         O 17 -- Sn 5              0.35        2.10183
         O 29 -- Sn 8              0.35        2.10187
         O 38 -- Sn 4              0.35        2.10187
         O 49 -- Sn 1              0.34        2.10552
         O 35 -- Sn 10             0.34        2.10552
         O 41 -- Sn 1              0.34        2.10556
         O 45 -- Sn 10             0.34        2.10556
         O 56 -- Sn 6              0.34        2.10570
         O 16 -- Sn 2              0.34        2.10570
         O 28 -- Sn 6              0.34        2.10579
         O 51 -- Sn 2              0.34        2.10579
         O 13 -- Sn 8              0.34        2.10733
         O 40 -- Sn 4              0.34        2.10733
         O 33 -- Sn 7              0.34        2.10741
         O 25 -- Sn 5              0.34        2.10741
         O 55 -- Sn 3              0.34        2.10822
         O 14 -- Sn 9              0.34        2.10822
         O 26 -- Sn 3              0.34        2.10827
         O 52 -- Sn 9              0.34        2.10827
         O 27 -- Sn 10             0.34        2.10993
         O 34 -- Sn 1              0.34        2.10993
         O 15 -- Sn 10             0.34        2.10993
         O 39 -- Sn 1              0.34        2.10993
         O 54 -- Sn 5              0.35        2.10994
         O 32 -- Sn 7              0.35        2.10994
         O 43 -- Sn 8              0.35        2.10995
         O 20 -- Sn 4              0.35        2.10995
         O 23 -- Sn 4              0.34        2.11123
         O 22 -- Sn 8              0.34        2.11123
         O 10 -- Sn 5              0.34        2.11135
         O 11 -- Sn 7              0.34        2.11135
         O 23 -- Sn 2              0.34        2.11224
         O 22 -- Sn 6              0.34        2.11224
         O 10 -- Sn 2              0.34        2.11239
         O 11 -- Sn 6              0.34        2.11239
         O 15 -- Sn 7              0.33        2.11257
         O 39 -- Sn 5              0.33        2.11257
         O 34 -- Sn 8              0.33        2.11261
         O 27 -- Sn 4              0.33        2.11261
         O 12 -- Sn 3              0.33        2.11441
         O 9  -- Sn 9              0.33        2.11441
         O 24 -- Sn 9              0.33        2.11443
         O 21 -- Sn 3              0.33        2.11443
         O 31 -- Sn 2              0.33        2.11486
         O 37 -- Sn 6              0.33        2.11486
         O 19 -- Sn 6              0.33        2.11486
         O 47 -- Sn 2              0.33        2.11486
         O 44 -- Zr 3              0.45        2.11638
         O 18 -- Zr 5              0.45        2.11638
         O 47 -- Sn 1              0.33        2.11641
         O 19 -- Sn 10             0.33        2.11641
         O 31 -- Sn 10             0.33        2.11641
         O 37 -- Sn 1              0.33        2.11641
         O 38 -- Zr 2              0.44        2.11648
         O 29 -- Zr 4              0.44        2.11648
[...]
         O 29 -- O 46             -0.03        2.82537
         O 16 -- O 26             -0.03        2.82540
         O 52 -- O 56             -0.03        2.82540
         O 14 -- O 28             -0.03        2.82543
         O 51 -- O 55             -0.03        2.82543
         O 20 -- O 49             -0.03        2.83215
         O 35 -- O 43             -0.03        2.83215
         O 45 -- O 54             -0.03        2.83249
         O 32 -- O 41             -0.03        2.83249
         O 16 -- O 32             -0.03        2.83495
         O 54 -- O 56             -0.03        2.83495
         O 43 -- O 51             -0.03        2.83524
         O 20 -- O 28             -0.03        2.83524
         O 33 -- O 40             -0.03        2.84301
         O 13 -- O 25             -0.03        2.84301

Writing analysis data to 035.castep_bin

Writing model to 035.check

 A BibTeX formatted list of references used in this run has been written to
 035.bib

Initialisation time =     53.64 s
Calculation time    =  33936.39 s
Finalisation time   =     43.20 s
Total time          =  34033.23 s

Overall parallel efficiency rating: Good (77%)

Data was distributed by:-
G-vector (4-way); efficiency rating: Good (77%)
k-point (14-way); efficiency rating: Ideal (100%)