 Compiled for linux_x86_64_ifort16 on Sat, 23 Jul 2016 23:44:54 +0100
 from code version
 203e84763863+ Castep161_branch Fri, 04 Mar 2016 19:21:07 +0000
 Compiler: Intel Fortran 16.0.3.210; Optimisation: fast
 MATHLIBS: Intel MKL(11.3.3) (LAPACK version 3.6.0)
 FFT Lib : mkl
 Fundamental constants values: CODATA 2010

 Run started: Mon, 09 Apr 2018 01:02:53 +0100
 |           N   N    M   M    RRRR                |
 |           NN  N    MM MM    R   R               |
 |           N N N    M M M    RRRR                |
 |           N  NN    M   M    R  R                |
 |           N   N    M   M    R   R               |
 | Welcome to Materials Studio CASTEP-NMR          |
 | Authors:                                        |
 | J.R. Yates, C.J. Pickard, F. Mauri              |
 | Contributors:                                   |
 | T.F.G. Green, S.A. Joyce                        |
 | Copyright (c) 2004 - 2015                       |
 | Please cite the appropriate publications in all |
 | work arising from your use of CASTEP NMR.       |
 | For NMR Shielding Tensors cite:                 |
 |    "All-electron magnetic response with         |
 |    pseudopotentials: NMR chemical shifts",      |
 |    C. J. Pickard, F. Mauri;                     |
 |    Physical Review B63 245101 (2001), and       |
 |    "Calculation of NMR Chemical Shifts          |
 |    for extended systems using                   |
 |    Ultrasoft Pseudopotentials",                 |
 |    J. R. Yates, C. J. Pickard and F. Mauri      |
 |    Physical Review B76 024401 (2007)            |
 | For Electric Field Gradients cite:              |
 |   "Accurate First Principles Prediction of 17O  |
 |    NMR Parameters in SiO2: Assignment of the    |
 |    Zeolite Ferrierite Spectrum"                 |
 |    M. Profeta, F. Mauri and C. J. Pickard       |
 |    J. Amer. Chem. Soc. 125 541 (2003)           |
 | For Spin-Spin (J) Couplings cite:               |
 |   "A first principles theory of NMR J-coupling  |
 |   in solid-state systems"                       |
 |   S.A. Joyce, J.R. Yates, C.J. Pickard, F. Mauri|
 |   J. Chem. Phys. 127 204107 (2007)              |
 |   "Relativistic NMR J-coupling with ultrasoft   |
 |   pseudopotentials and the zeroth-order regular |
 |   approximation"                                |
 |   T.F.G. Green and J.R. Yates                   |
 |   J. Chem. Phys. 140 234106 (2014)              |

 Atomic calculation performed for O: 1s2 2s2 2p4

 Converged in 44 iterations to an ae energy of -2040.855 eV

 Atomic calculation performed for O: 1s2 2s2 2p4

 Exceeded max iterations: converged to 0.000000062 eV

   | Pseudopotential Report - Date of generation  9-04-2018   |
   | Element: O Ionic charge:  6.00 Level of theory: PBE      |
   | Atomic Solver: ZORA (scalar)                             |
   |               Reference Electronic Structure             |
   |         Orbital         Occupation         Energy        |
   |            2s              2.000           -0.881        |
   |            2p              4.000           -0.332        |
   |                 Pseudopotential Definition               |
   |        Beta     l      e      Rc     scheme   norm       |
   |          1      0   -0.881   1.100     qc      0         |
   |          2      0    0.250   1.100     qc      0         |
   |          3      1   -0.332   1.100     qc      0         |
   |          4      1    0.250   1.100     qc      0         |
   |         loc     2    0.000   1.100     pn      0         |
   | Augmentation charge Rinner = 0.769                       |
   | Partial core correction Rc = 0.769                       |
   | "2|1.1|15|18|20|20:21(qc=7)"                             |
   |      Author: Chris J. Pickard, Cambridge University      |

 Atomic calculation performed for Zr: 1s2 2s2 2p6 3s2 3p6 3d10 4s2 4p6 4d2 5s2

[...]

 Atomic calculation performed for Zr: 1s2 2s2 2p6 3s2 3p6 3d10 4s2 4p6 4d2 5s2

[...]

 Warning: ion_atom_descreen_psp: negative charge density encountered
   | Pseudopotential Report - Date of generation  9-04-2018   |
   | Element: Zr Ionic charge: 12.00 Level of theory: PBE     |
   | Atomic Solver: ZORA (scalar)                             |
   |               Reference Electronic Structure             |
   |         Orbital         Occupation         Energy        |
   |            4s              2.000           -2.003        |
   |            4p              6.000           -1.193        |
   |            5s              2.000           -0.163        |
   |            4d              2.000           -0.132        |
   |                 Pseudopotential Definition               |
   |        Beta     l      e      Rc     scheme   norm       |
   |          1      0   -2.003   2.105     qc      0         |
   |          2      0   -0.163   2.105     qc      0         |
   |          3      0    0.250   2.105     qc      0         |
   |          4      1   -1.193   2.105     qc      0         |
   |          5      1    0.250   2.105     qc      0         |
   |          6      2   -0.132   2.105     qc      0         |
   |          7      2    0.250   2.105     qc      0         |
   |         loc     3    0.000   2.105     pn      0         |
   | Augmentation charge Rinner = 1.471                       |
   | Partial core correction Rc = 1.471                       |
   | "3|2.1|7|8|9|40U:50:41:42"                               |
   |      Author: Chris J. Pickard, Cambridge University      |

 Atomic calculation performed for Sn:

[...]

 Atomic calculation performed for Sn:

[...]

   | Pseudopotential Report - Date of generation  9-04-2018   |
   | Element: Sn Ionic charge: 14.00 Level of theory: PBE     |
   | Atomic Solver: ZORA (scalar)                             |
   |               Reference Electronic Structure             |
   |         Orbital         Occupation         Energy        |
   |            4d             10.000           -0.950        |
   |            5s              2.000           -0.388        |
   |            5p              2.000           -0.136        |
   |                 Pseudopotential Definition               |
   |        Beta     l      e      Rc     scheme   norm       |
   |          1      0   -0.388   2.199     qc      0         |
   |          2      0    0.250   2.199     qc      0         |
   |          3      1   -0.136   2.199     qc      0         |
   |          4      1    0.250   2.199     qc      0         |
   |          5      2   -0.950   2.199     qc      0         |
   |          6      2    0.250   2.199     qc      0         |
   |         loc     3    0.000   2.199     pn      0         |
   | Augmentation charge Rinner = 1.537                       |
   | Partial core correction Rc = 1.537                       |
   | "3|2.2|7|8|9|50:51:42"                                   |
   |      Author: Chris J. Pickard, Cambridge University      |

 Atomic calculation performed for La:

 Converged in 56 iterations to an ae energy of -230121.495 eV

 Atomic calculation performed for La:

 Exceeded max iterations: converged to 0.000000907 eV

 Warning: ion_atom_descreen_psp: negative charge density encountered
   | Pseudopotential Report - Date of generation  9-04-2018   |
   | Element: La Ionic charge: 11.00 Level of theory: PBE     |
   | Atomic Solver: ZORA (scalar)                             |
   |               Reference Electronic Structure             |
   |         Orbital         Occupation         Energy        |
   |            5s              2.000           -1.430        |
   |            5p              6.000           -0.823        |
   |            6s              2.000           -0.135        |
   |            5d              1.000           -0.114        |
   |                 Pseudopotential Definition               |
   |        Beta     l      e      Rc     scheme   norm       |
   |          1      0   -1.430   2.298     qc      0         |
   |          2      0   -0.135   2.298     qc      0         |
   |          3      0    0.250   2.298     qc      0         |
   |          4      1   -0.823   2.298     qc      0         |
   |          5      1    0.250   2.298     qc      0         |
   |          6      2   -0.114   2.298     qc      0         |
   |          7      2    0.250   2.298     qc      0         |
   |         loc     2    0.000   2.298     pn      0         |
   | Augmentation charge Rinner = 1.606                       |
   | Partial core correction Rc = 1.606                       |
   | "2|2.3|5|6|7|50U:60:51:52(qc=4.5)"                       |
   |      Author: Chris J. Pickard, Cambridge University      |

 Pseudo atomic calculation performed for O 2s2 2p4

 Converged in 39 iterations to a total energy of -432.6554 eV

 Pseudo atomic calculation performed for Zr 4s2 4p6 4d2 5s2

[...]

 Calculation parallelised over 56 processes.
 Data is distributed by G-vector(4-way) and k-point(14-way)

 ************************************ Title ************************************
 nmr testing

 ***************************** General Parameters ******************************

 output verbosity                               : normal  (1)
 write checkpoint data to                       : 037.check
 type of calculation                            : Magnetic Resonance
 stress calculation                             : on
 density difference calculation                 : off
 electron localisation func (ELF) calculation   : off
 Hirshfeld analysis                             : off
 unlimited duration calculation
 timing information                             : on
 write final potential to formatted file        : off
 write final density to formatted file          : off
 write structure in CIF formatted file          : on
 write structure in CELL formatted file         : on
 write BibTeX reference list                    : on
 write OTFG pseudopotential files               : on
 checkpoint writing                             : both castep_bin and check files

 output         length unit                     : A
 output           mass unit                     : amu
 output           time unit                     : ps
 output         charge unit                     : e
 output           spin unit                     : hbar/2
 output         energy unit                     : eV
 output          force unit                     : eV/A
 output       velocity unit                     : A/ps
 output       pressure unit                     : GPa
 output     inv_length unit                     : 1/A
 output      frequency unit                     : cm-1
 output force constant unit                     : eV/A**2
 output         volume unit                     : A**3
 output   IR intensity unit                     : (D/A)**2/amu
 output         dipole unit                     : D
 output         efield unit                     : eV/A/e
 output        entropy unit                     : J/mol/K

 wavefunctions paging                           : none
 random number generator seed                   : randomised (10255091)
 data distribution                              : optimal for this architecture
[...]
  |    O          42      -89.65      83.72      0.30  -3.213E+00   0.09 |
  |    O          43      -88.20      89.27      0.14  -3.244E+00   0.06 |
  |    O          44      -87.18      87.68      0.07  -3.196E+00   0.08 |
  |    O          45     -161.23     149.48      0.84   1.048E+00   0.68 |
  |    O          46     -161.30     149.38      0.85   1.050E+00   0.67 |
  |    O          47       -8.39      60.64      0.62   3.885E+00   0.89 |
  |    O          48      -87.23      84.83      0.22  -3.194E+00   0.06 |
  |    O          49      -89.66      83.32      0.30  -3.212E+00   0.09 |
  |    O          50      -89.71      83.89      0.30  -3.212E+00   0.09 |
  |    O          51      -89.11      87.60      0.22  -3.148E+00   0.08 |
  |    O          52      -89.46      92.91      0.32  -3.149E+00   0.09 |
  |    O          53      -86.53      82.97      0.07  -3.209E+00   0.09 |
  |    O          54      -88.13      87.56      0.14  -3.247E+00   0.06 |
  |    O          55      -89.98      94.32      0.31  -3.144E+00   0.08 |
  |    O          56      -88.87      87.35      0.22  -3.146E+00   0.08 |
  |    Zr          1     1611.27    -115.81      0.05  -3.496E+01   0.12 |
  |    Zr          2     1610.63    -115.71      0.04  -3.492E+01   0.12 |
  |    Zr          3     1624.73    -119.49      0.08  -3.585E+01   0.08 |
  |    Zr          4     1610.87    -115.75      0.04  -3.496E+01   0.12 |
[...]
  |    La          2     4651.47     663.27      0.07  -8.336E+01   0.11 |
  |    La          3     4654.72     617.55      0.01  -8.310E+01   0.01 |
  |    La          4     4653.37     649.00      0.03  -8.336E+01   0.03 |
  |    La          5     4651.60     662.93      0.07  -8.332E+01   0.11 |
  |    La          6     4605.79     516.21      0.07  -7.896E+01   0.08 |
  |    La          7     4606.37     515.10      0.06  -7.875E+01   0.07 |
  |    La          8     4498.31     222.43      0.00  -6.924E+01   0.01 |
  |    La          9     4601.61     528.79      0.02  -7.775E+01   0.03 |
  |    La         10     4606.09     515.75      0.06  -7.890E+01   0.07 |
  |    La         11     4498.36     222.83      0.01  -6.931E+01   0.01 |
  |    La         12     4653.41     649.00      0.03  -8.340E+01   0.04 |
  |    La         13     4601.92     530.65      0.03  -7.780E+01   0.05 |
  |    La         14     4605.93     516.35      0.07  -7.889E+01   0.07 |
  |    La         15     4654.55     617.02      0.01  -8.301E+01   0.01 |
  |    La         16     4651.14     662.60      0.07  -8.334E+01   0.11 |

 *********************** Forces ***********************
 *            Cartesian components (eV/A)             *
 *                   x            y            z      *
 * O         1     -0.00601     -0.00076      0.01032 *
 * O         2      0.00250     -0.00256      0.00635 *
 * O         3      0.00618      0.00321      0.00883 *
 * O         4     -0.00082     -0.00097      0.00897 *
 * O         5     -0.00470     -0.00810     -0.01004 *
 * O         6     -0.00007     -0.00065     -0.00940 *
 * O         7      0.00606      0.00605     -0.00765 *
 * O         8      0.00510     -0.00349     -0.00734 *
 * O         9      0.01290     -0.00037      0.00713 *
 * O        10     -0.00628     -0.00840      0.00028 *
 * O        11     -0.00676      0.00078      0.00388 *
 * O        12      0.00738      0.00146     -0.00295 *
 * O        13      0.00722      0.00469      0.00309 *
 * O        14     -0.01380      0.00861      0.01925 *
 * O        15      0.00656     -0.00488     -0.01574 *
 * O        16      0.00716      0.00397      0.01280 *
 * O        17      0.02367      0.02148     -0.00446 *
 * O        18      0.00715      0.00043     -0.00097 *
 * O        19      0.00821     -0.02427     -0.00307 *
 * O        20     -0.00855     -0.02947     -0.00043 *
 * O        21     -0.00138      0.00498     -0.00496 *
 * O        22     -0.00086     -0.00665      0.00329 *
 * O        23     -0.00013     -0.01192     -0.00821 *
 * O        24      0.00701      0.00532     -0.00007 *
 * O        25      0.00600      0.00718     -0.00933 *
 * O        26      0.00604     -0.01252     -0.01043 *
 * O        27     -0.00209      0.01228      0.01769 *
 * O        28      0.00566      0.01181     -0.01787 *
 * O        29      0.02972      0.03598      0.01038 *
 * O        30     -0.00069      0.00641     -0.00048 *
 * O        31     -0.03273      0.02062      0.00063 *
 * O        32     -0.02737     -0.00619      0.00254 *
 * O        33      0.00285     -0.00712      0.01688 *
 * O        34     -0.00666     -0.00398     -0.00443 *
 * O        35     -0.01333      0.00174      0.00620 *
 * O        36      0.00618      0.00215      0.00905 *
 * O        37     -0.00461     -0.00232     -0.00125 *
 * O        38      0.02696      0.00307      0.00046 *
 * O        39     -0.00604     -0.00631      0.00242 *
 * O        40     -0.01312      0.00281     -0.01741 *
 * O        41      0.00327      0.01034      0.02177 *
 * O        42     -0.00452     -0.01806      0.02403 *
 * O        43     -0.03077     -0.02732     -0.00629 *
 * O        44     -0.01969      0.03435      0.00112 *
 * O        45     -0.00129     -0.00279     -0.00398 *
 * O        46     -0.00115      0.01280     -0.00152 *
 * O        47     -0.00452      0.00023     -0.00203 *
 * O        48      0.01261      0.02975     -0.00566 *
 * O        49      0.01778      0.00624     -0.02532 *
 * O        50     -0.01727     -0.00356     -0.02942 *
 * O        51     -0.00423      0.01215     -0.01381 *
 * O        52     -0.00329     -0.01190     -0.01639 *
 * O        53      0.02331     -0.00942      0.00535 *
 * O        54     -0.02651     -0.03126      0.00516 *
 * O        55     -0.00749     -0.00763      0.01513 *
 * O        56      0.01742     -0.00891      0.01685 *
 * Zr        1      0.00692      0.00102      0.01450 *
 * Zr        2      0.00728      0.00737     -0.00192 *
 * Zr        3      0.00101     -0.01367     -0.01236 *
 * Zr        4     -0.00187     -0.01456     -0.00318 *
[...]
 * La        2     -0.00589      0.01982      0.00680 *
 * La        3     -0.01290     -0.01774     -0.00620 *
 * La        4      0.00600      0.01474      0.00150 *
 * La        5     -0.01847      0.00020     -0.00294 *
 * La        6      0.01058      0.00185      0.01183 *
 * La        7     -0.00952     -0.00522      0.00665 *
 * La        8     -0.00521      0.01052      0.00331 *
 * La        9      0.00644      0.00159     -0.00310 *
 * La       10      0.00532      0.01086     -0.00681 *
 * La       11      0.00855     -0.01205     -0.00131 *
 * La       12     -0.00965     -0.00736      0.00533 *
 * La       13     -0.00211     -0.00045      0.00010 *
 * La       14     -0.00223     -0.01172     -0.01093 *
 * La       15      0.01950      0.00849      0.00051 *
 * La       16      0.00299     -0.01583     -0.01081 *

 ***************** Stress Tensor *****************
 *          Cartesian components (GPa)           *
 *             x             y             z     *
 *  x     -0.004462     -0.064931     -0.008224  *
 *  y     -0.064931     -0.006233      0.001279  *
 *  z     -0.008224      0.001279      0.017295  *
 *  Pressure:   -0.0022                          *

[...]

 Pseudo atomic calculation performed for Sn 4d10 5s2 5p2

[...]

 Pseudo atomic calculation performed for La 5s2 5p6 5d1 6s2

 Converged in 34 iterations to a total energy of -968.0372 eV

Charge spilling parameter for spin component 1 = 0.25%

     Atomic Populations (Mulliken)
Species   Ion     s      p      d      f     Total  Charge (e)
  O        1     1.87   5.00   0.00   0.00   6.87    -0.87
  O        2     1.87   5.00   0.00   0.00   6.87    -0.87
  O        3     1.87   5.00   0.00   0.00   6.87    -0.87
  O        4     1.87   5.00   0.00   0.00   6.87    -0.87
  O        5     1.87   5.00   0.00   0.00   6.87    -0.87
  O        6     1.87   5.00   0.00   0.00   6.87    -0.87
  O        7     1.87   5.00   0.00   0.00   6.87    -0.87
  O        8     1.87   5.00   0.00   0.00   6.87    -0.87
  O        9     1.88   5.02   0.00   0.00   6.91    -0.91
  O       10     1.88   5.03   0.00   0.00   6.91    -0.91
  O       11     1.88   5.03   0.00   0.00   6.91    -0.91
  O       12     1.88   5.03   0.00   0.00   6.91    -0.91
  O       13     1.88   5.03   0.00   0.00   6.91    -0.91
  O       14     1.87   4.99   0.00   0.00   6.86    -0.86
  O       15     1.87   4.99   0.00   0.00   6.86    -0.86
  O       16     1.87   4.99   0.00   0.00   6.86    -0.86
  O       17     1.87   4.99   0.00   0.00   6.86    -0.86
  O       18     1.88   5.03   0.00   0.00   6.91    -0.91
  O       19     1.87   4.99   0.00   0.00   6.86    -0.86
  O       20     1.87   4.99   0.00   0.00   6.86    -0.86
  O       21     1.88   5.03   0.00   0.00   6.91    -0.91
  O       22     1.88   5.03   0.00   0.00   6.91    -0.91
  O       23     1.88   5.02   0.00   0.00   6.91    -0.91
  O       24     1.88   5.03   0.00   0.00   6.91    -0.91
  O       25     1.88   5.03   0.00   0.00   6.91    -0.91
  O       26     1.87   4.99   0.00   0.00   6.86    -0.86
  O       27     1.87   4.99   0.00   0.00   6.86    -0.86
  O       28     1.87   4.99   0.00   0.00   6.86    -0.86
  O       29     1.87   4.99   0.00   0.00   6.86    -0.86
  O       30     1.88   5.03   0.00   0.00   6.91    -0.91
  O       31     1.87   4.99   0.00   0.00   6.86    -0.86
  O       32     1.87   4.99   0.00   0.00   6.86    -0.86
  O       33     1.87   4.99   0.00   0.00   6.86    -0.86
  O       34     1.88   5.03   0.00   0.00   6.91    -0.91
  O       35     1.86   4.95   0.00   0.00   6.80    -0.80
  O       36     1.86   4.95   0.00   0.00   6.80    -0.80
  O       37     1.88   5.03   0.00   0.00   6.91    -0.91
  O       38     1.87   4.99   0.00   0.00   6.86    -0.86
  O       39     1.88   5.03   0.00   0.00   6.91    -0.91
  O       40     1.87   4.99   0.00   0.00   6.86    -0.86
  O       41     1.87   4.99   0.00   0.00   6.86    -0.86
  O       42     1.87   4.99   0.00   0.00   6.86    -0.86
  O       43     1.87   4.99   0.00   0.00   6.86    -0.86
  O       44     1.87   4.99   0.00   0.00   6.86    -0.86
  O       45     1.86   4.95   0.00   0.00   6.80    -0.80
  O       46     1.86   4.95   0.00   0.00   6.80    -0.80
  O       47     1.88   5.03   0.00   0.00   6.91    -0.91
  O       48     1.87   4.99   0.00   0.00   6.86    -0.86
  O       49     1.87   4.99   0.00   0.00   6.86    -0.86
  O       50     1.87   4.99   0.00   0.00   6.86    -0.86
  O       51     1.87   4.99   0.00   0.00   6.86    -0.86
  O       52     1.87   4.99   0.00   0.00   6.86    -0.86
  O       53     1.87   4.99   0.00   0.00   6.86    -0.86
  O       54     1.87   4.99   0.00   0.00   6.86    -0.86
  O       55     1.87   4.99   0.00   0.00   6.86    -0.86
  O       56     1.87   4.99   0.00   0.00   6.86    -0.86
  Zr       1     2.37   6.49   1.92   0.00  10.78     1.22
  Zr       2     2.37   6.49   1.92   0.00  10.78     1.22
  Zr       3     2.37   6.48   1.92   0.00  10.77     1.23
  Zr       4     2.37   6.49   1.92   0.00  10.78     1.22
[...]
  La       2     2.06   6.17   1.20   0.00   9.43     1.57
  La       3     2.05   6.18   1.19   0.00   9.43     1.57
  La       4     2.03   6.17   1.19   0.00   9.40     1.60
  La       5     2.06   6.17   1.20   0.00   9.43     1.57
  La       6     2.06   6.19   1.19   0.00   9.44     1.56
  La       7     2.06   6.19   1.19   0.00   9.44     1.56
  La       8     2.12   6.21   1.19   0.00   9.52     1.48
  La       9     2.07   6.18   1.19   0.00   9.44     1.56
  La      10     2.06   6.19   1.19   0.00   9.44     1.56
  La      11     2.12   6.21   1.19   0.00   9.52     1.48
  La      12     2.03   6.17   1.19   0.00   9.40     1.60
  La      13     2.07   6.18   1.19   0.00   9.44     1.56
  La      14     2.06   6.19   1.19   0.00   9.44     1.56
  La      15     2.05   6.18   1.19   0.00   9.43     1.57
  La      16     2.06   6.17   1.20   0.00   9.43     1.57

            Bond              Population      Length (A)
         O 16 -- Sn 2              0.34        2.10252
         O 52 -- Sn 10             0.34        2.10278
         O 28 -- Sn 6              0.34        2.10311
         O 55 -- Sn 3              0.34        2.10317
         O 17 -- Sn 5              0.35        2.10525
         O 27 -- Sn 4              0.34        2.10531
         O 40 -- Sn 4              0.34        2.10542
         O 29 -- Sn 9              0.35        2.10552
         O 43 -- Sn 9              0.35        2.10560
         O 33 -- Sn 7              0.34        2.10567
         O 54 -- Sn 5              0.35        2.10580
         O 15 -- Sn 7              0.34        2.10583
         O 32 -- Sn 7              0.35        2.10638
         O 38 -- Sn 4              0.35        2.10657
         O 41 -- Sn 1              0.34        2.10659
         O 48 -- Sn 7              0.35        2.10666
         O 42 -- Sn 8              0.34        2.10689
         O 50 -- Sn 8              0.34        2.10699
         O 20 -- Sn 4              0.35        2.10700
         O 49 -- Sn 1              0.34        2.10711
         O 19 -- Sn 6              0.34        2.10729
         O 53 -- Sn 3              0.34        2.10734
         O 31 -- Sn 2              0.34        2.10744
         O 44 -- Sn 10             0.34        2.10748
         O 14 -- Sn 10             0.34        2.10999
         O 30 -- Sn 10             0.34        2.11014
         O 26 -- Sn 3              0.34        2.11015
         O 56 -- Sn 6              0.34        2.11015
         O 51 -- Sn 2              0.34        2.11025
         O 22 -- Sn 6              0.34        2.11027
         O 47 -- Sn 2              0.34        2.11031
         O 18 -- Sn 3              0.34        2.11033
         O 12 -- Sn 3              0.34        2.11038
         O 37 -- Sn 1              0.33        2.11048
         O 24 -- Sn 10             0.34        2.11051
         O 10 -- Sn 2              0.34        2.11068
         O 18 -- Sn 8              0.33        2.11070
         O 37 -- Sn 6              0.34        2.11087
         O 47 -- Sn 1              0.33        2.11098
         O 30 -- Sn 8              0.33        2.11108
         O 12 -- Sn 9              0.33        2.11210
         O 22 -- Sn 9              0.33        2.11218
         O 10 -- Sn 5              0.33        2.11227
         O 24 -- Sn 5              0.33        2.11247
         O 23 -- Sn 4              0.33        2.11405
         O 21 -- Sn 7              0.33        2.11417
         O 11 -- Sn 7              0.33        2.11428
         O 9  -- Sn 4              0.33        2.11440
         O 27 -- Zr 5              0.44        2.11472
         O 40 -- Zr 3              0.44        2.11488
         O 21 -- Sn 3              0.34        2.11495
         O 39 -- Sn 1              0.34        2.11497
         O 13 -- Sn 8              0.34        2.11498
         O 23 -- Sn 2              0.34        2.11500
         O 25 -- Sn 5              0.33        2.11501
         O 11 -- Sn 6              0.34        2.11504
         O 13 -- Sn 9              0.33        2.11508
         O 9  -- Sn 10             0.34        2.11513
         O 28 -- Zr 4              0.44        2.11533
         O 25 -- Sn 8              0.34        2.11543
[...]
         O 19 -- O 35             -0.03        2.82676
         O 29 -- O 46             -0.03        2.82774
         O 45 -- O 54             -0.03        2.82781
         O 35 -- O 43             -0.03        2.82834
         O 17 -- O 36             -0.03        2.82851
         O 15 -- O 27             -0.03        2.83077
         O 33 -- O 40             -0.03        2.83081
         O 48 -- O 50             -0.03        2.83256
         O 20 -- O 49             -0.03        2.83257
         O 38 -- O 42             -0.03        2.83281
         O 32 -- O 41             -0.03        2.83321
         O 54 -- O 56             -0.03        2.83396
         O 43 -- O 51             -0.03        2.83414
         O 14 -- O 29             -0.03        2.83419
         O 17 -- O 26             -0.03        2.83434

Writing analysis data to 037.castep_bin

Writing model to 037.check

 A BibTeX formatted list of references used in this run has been written to
 037.bib

Initialisation time =     53.80 s
Calculation time    =  34178.03 s
Finalisation time   =    106.21 s
Total time          =  34338.03 s

Overall parallel efficiency rating: Good (79%)

Data was distributed by:-
G-vector (4-way); efficiency rating: Very good (80%)
k-point (14-way); efficiency rating: Excellent (99%)