 Compiled for linux_x86_64_ifort16 on Sat, 23 Jul 2016 23:44:54 +0100
 from code version
 203e84763863+ Castep161_branch Fri, 04 Mar 2016 19:21:07 +0000
 Compiler: Intel Fortran 16.0.3.210; Optimisation: fast
 MATHLIBS: Intel MKL(11.3.3) (LAPACK version 3.6.0)
 FFT Lib : mkl
 Fundamental constants values: CODATA 2010

 Run started: Mon, 09 Apr 2018 20:03:34 +0100
 |           N   N    M   M    RRRR                |
 |           NN  N    MM MM    R   R               |
 |           N N N    M M M    RRRR                |
 |           N  NN    M   M    R  R                |
 |           N   N    M   M    R   R               |
 | Welcome to Materials Studio CASTEP-NMR          |
 | Authors:                                        |
 | J.R. Yates, C.J. Pickard, F. Mauri              |
 | Contributors:                                   |
 | T.F.G. Green, S.A. Joyce                        |
 | Copyright (c) 2004 - 2015                       |
 | Please cite the appropriate publications in all |
 | work arising from your use of CASTEP NMR.       |
 | For NMR Shielding Tensors cite:                 |
 |    "All-electron magnetic response with         |
 |    pseudopotentials: NMR chemical shifts",      |
 |    C. J. Pickard, F. Mauri;                     |
 |    Physical Review B63 245101 (2001), and       |
 |    "Calculation of NMR Chemical Shifts          |
 |    for extended systems using                   |
 |    Ultrasoft Pseudopotentials",                 |
 |    J. R. Yates, C. J. Pickard and F. Mauri      |
 |    Physical Review B76 024401 (2007)            |
 | For Electric Field Gradients cite:              |
 |   "Accurate First Principles Prediction of 17O  |
 |    NMR Parameters in SiO2: Assignment of the    |
 |    Zeolite Ferrierite Spectrum"                 |
 |    M. Profeta, F. Mauri and C. J. Pickard       |
 |    J. Amer. Chem. Soc. 125 541 (2003)           |
 | For Spin-Spin (J) Couplings cite:               |
 |   "A first principles theory of NMR J-coupling  |
 |   in solid-state systems"                       |
 |   S.A. Joyce, J.R. Yates, C.J. Pickard, F. Mauri|
 |   J. Chem. Phys. 127 204107 (2007)              |
 |   "Relativistic NMR J-coupling with ultrasoft   |
 |   pseudopotentials and the zeroth-order regular |
 |   approximation"                                |
 |   T.F.G. Green and J.R. Yates                   |
 |   J. Chem. Phys. 140 234106 (2014)              |

 Atomic calculation performed for O: 1s2 2s2 2p4

 Converged in 44 iterations to an ae energy of -2040.855 eV

 Atomic calculation performed for O: 1s2 2s2 2p4

 Exceeded max iterations: converged to 0.000000062 eV

   | Pseudopotential Report - Date of generation  9-04-2018   |
   | Element: O Ionic charge:  6.00 Level of theory: PBE      |
   | Atomic Solver: ZORA (scalar)                             |
   |               Reference Electronic Structure             |
   |         Orbital         Occupation         Energy        |
   |            2s              2.000           -0.881        |
   |            2p              4.000           -0.332        |
   |                 Pseudopotential Definition               |
   |        Beta     l      e      Rc     scheme   norm       |
   |          1      0   -0.881   1.100     qc      0         |
   |          2      0    0.250   1.100     qc      0         |
   |          3      1   -0.332   1.100     qc      0         |
   |          4      1    0.250   1.100     qc      0         |
   |         loc     2    0.000   1.100     pn      0         |
   | Augmentation charge Rinner = 0.769                       |
   | Partial core correction Rc = 0.769                       |
   | "2|1.1|15|18|20|20:21(qc=7)"                             |
   |      Author: Chris J. Pickard, Cambridge University      |

 Atomic calculation performed for Zr: 1s2 2s2 2p6 3s2 3p6 3d10 4s2 4p6 4d2 5s2

[...]

 Atomic calculation performed for Zr: 1s2 2s2 2p6 3s2 3p6 3d10 4s2 4p6 4d2 5s2

[...]

 Warning: ion_atom_descreen_psp: negative charge density encountered
   | Pseudopotential Report - Date of generation  9-04-2018   |
   | Element: Zr Ionic charge: 12.00 Level of theory: PBE     |
   | Atomic Solver: ZORA (scalar)                             |
   |               Reference Electronic Structure             |
   |         Orbital         Occupation         Energy        |
   |            4s              2.000           -2.003        |
   |            4p              6.000           -1.193        |
   |            5s              2.000           -0.163        |
   |            4d              2.000           -0.132        |
   |                 Pseudopotential Definition               |
   |        Beta     l      e      Rc     scheme   norm       |
   |          1      0   -2.003   2.105     qc      0         |
   |          2      0   -0.163   2.105     qc      0         |
   |          3      0    0.250   2.105     qc      0         |
   |          4      1   -1.193   2.105     qc      0         |
   |          5      1    0.250   2.105     qc      0         |
   |          6      2   -0.132   2.105     qc      0         |
   |          7      2    0.250   2.105     qc      0         |
   |         loc     3    0.000   2.105     pn      0         |
   | Augmentation charge Rinner = 1.471                       |
   | Partial core correction Rc = 1.471                       |
   | "3|2.1|7|8|9|40U:50:41:42"                               |
   |      Author: Chris J. Pickard, Cambridge University      |

 Atomic calculation performed for Sn:

[...]

 Atomic calculation performed for Sn:

[...]

   | Pseudopotential Report - Date of generation  9-04-2018   |
   | Element: Sn Ionic charge: 14.00 Level of theory: PBE     |
   | Atomic Solver: ZORA (scalar)                             |
   |               Reference Electronic Structure             |
   |         Orbital         Occupation         Energy        |
   |            4d             10.000           -0.950        |
   |            5s              2.000           -0.388        |
   |            5p              2.000           -0.136        |
   |                 Pseudopotential Definition               |
   |        Beta     l      e      Rc     scheme   norm       |
   |          1      0   -0.388   2.199     qc      0         |
   |          2      0    0.250   2.199     qc      0         |
   |          3      1   -0.136   2.199     qc      0         |
   |          4      1    0.250   2.199     qc      0         |
   |          5      2   -0.950   2.199     qc      0         |
   |          6      2    0.250   2.199     qc      0         |
   |         loc     3    0.000   2.199     pn      0         |
   | Augmentation charge Rinner = 1.537                       |
   | Partial core correction Rc = 1.537                       |
   | "3|2.2|7|8|9|50:51:42"                                   |
   |      Author: Chris J. Pickard, Cambridge University      |

 Atomic calculation performed for La:

 Converged in 56 iterations to an ae energy of -230121.495 eV

 Atomic calculation performed for La:

 Exceeded max iterations: converged to 0.000000907 eV

 Warning: ion_atom_descreen_psp: negative charge density encountered
   | Pseudopotential Report - Date of generation  9-04-2018   |
   | Element: La Ionic charge: 11.00 Level of theory: PBE     |
   | Atomic Solver: ZORA (scalar)                             |
   |               Reference Electronic Structure             |
   |         Orbital         Occupation         Energy        |
   |            5s              2.000           -1.430        |
   |            5p              6.000           -0.823        |
   |            6s              2.000           -0.135        |
   |            5d              1.000           -0.114        |
   |                 Pseudopotential Definition               |
   |        Beta     l      e      Rc     scheme   norm       |
   |          1      0   -1.430   2.298     qc      0         |
   |          2      0   -0.135   2.298     qc      0         |
   |          3      0    0.250   2.298     qc      0         |
   |          4      1   -0.823   2.298     qc      0         |
   |          5      1    0.250   2.298     qc      0         |
   |          6      2   -0.114   2.298     qc      0         |
   |          7      2    0.250   2.298     qc      0         |
   |         loc     2    0.000   2.298     pn      0         |
   | Augmentation charge Rinner = 1.606                       |
   | Partial core correction Rc = 1.606                       |
   | "2|2.3|5|6|7|50U:60:51:52(qc=4.5)"                       |
   |      Author: Chris J. Pickard, Cambridge University      |

 Pseudo atomic calculation performed for O 2s2 2p4

 Converged in 39 iterations to a total energy of -432.6554 eV

 Pseudo atomic calculation performed for Zr 4s2 4p6 4d2 5s2

[...]

 Calculation parallelised over 56 processes.
 Data is distributed by G-vector(4-way) and k-point(14-way)

 ************************************ Title ************************************
 nmr testing

 ***************************** General Parameters ******************************

 output verbosity                               : normal  (1)
 write checkpoint data to                       : 039.check
 type of calculation                            : Magnetic Resonance
 stress calculation                             : on
 density difference calculation                 : off
 electron localisation func (ELF) calculation   : off
 Hirshfeld analysis                             : off
 unlimited duration calculation
 timing information                             : on
 write final potential to formatted file        : off
 write final density to formatted file          : off
 write structure in CIF formatted file          : on
 write structure in CELL formatted file         : on
 write BibTeX reference list                    : on
 write OTFG pseudopotential files               : on
 checkpoint writing                             : both castep_bin and check files

 output         length unit                     : A
 output           mass unit                     : amu
 output           time unit                     : ps
 output         charge unit                     : e
 output           spin unit                     : hbar/2
 output         energy unit                     : eV
 output          force unit                     : eV/A
 output       velocity unit                     : A/ps
 output       pressure unit                     : GPa
 output     inv_length unit                     : 1/A
 output      frequency unit                     : cm-1
 output force constant unit                     : eV/A**2
 output         volume unit                     : A**3
 output   IR intensity unit                     : (D/A)**2/amu
 output         dipole unit                     : D
 output         efield unit                     : eV/A/e
 output        entropy unit                     : J/mol/K

 wavefunctions paging                           : none
 random number generator seed                   : randomised (200336029)
 data distribution                              : optimal for this architecture
[...]
  |    O          42      -90.92      95.00      0.18  -3.193E+00   0.10 |
  |    O          43      -83.45      83.67      0.16  -3.162E+00   0.06 |
  |    O          44     -159.52     147.86      0.80   1.072E+00   0.68 |
  |    O          45      -86.85      84.30      0.19  -3.183E+00   0.07 |
  |    O          46      -83.46      86.25      0.14  -3.169E+00   0.07 |
  |    O          47      -21.61      38.48      0.89   3.865E+00   0.88 |
  |    O          48      -92.62      94.25      0.23  -3.190E+00   0.10 |
  |    O          49      -18.58      37.16      0.92   3.882E+00   0.88 |
  |    O          50      -91.31      94.91      0.29  -3.138E+00   0.08 |
  |    O          51      -85.64      85.51      0.05  -3.217E+00   0.06 |
  |    O          52     -161.56     148.79      0.86   1.053E+00   0.69 |
  |    O          53     -161.33     154.74      0.85   1.063E+00   0.74 |
  |    O          54      -86.78      85.74      0.13  -3.164E+00   0.04 |
  |    O          55     -162.19     154.15      0.85   1.023E+00   0.77 |
  |    O          56      -88.97      84.48      0.10  -3.213E+00   0.06 |
  |    Zr          1     1610.78    -116.30      0.12  -3.505E+01   0.07 |
  |    Zr          2     1625.59    -123.65      0.14  -3.612E+01   0.06 |
  |    Zr          3     1630.47    -123.97      0.07  -3.707E+01   0.14 |
  |    Zr          4     1625.09    -122.09      0.06  -3.590E+01   0.15 |
[...]
  |    La          2     4658.50     627.44      0.01  -8.350E+01   0.03 |
  |    La          3     4613.36     520.69      0.05  -8.116E+01   0.11 |
  |    La          4     4695.81     770.70      0.03  -8.425E+01   0.05 |
  |    La          5     4606.83     523.36      0.06  -7.963E+01   0.08 |
  |    La          6     4654.20     662.49      0.08  -8.336E+01   0.14 |
  |    La          7     4605.38     547.07      0.06  -8.017E+01   0.21 |
  |    La          8     4558.96     386.05      0.05  -7.486E+01   0.09 |
  |    La          9     4652.57     625.09      0.00  -8.170E+01   0.03 |
  |    La         10     4699.32     756.33      0.04  -8.511E+01   0.10 |
  |    La         11     4607.28     511.67      0.08  -7.860E+01   0.06 |
  |    La         12     4558.99     386.06      0.06  -7.575E+01   0.11 |
  |    La         13     4598.95     512.86      0.08  -7.665E+01   0.07 |
  |    La         14     4555.64     378.83      0.05  -7.516E+01   0.13 |
  |    La         15     4548.48     389.63      0.06  -7.444E+01   0.12 |
  |    La         16     4600.52     531.34      0.08  -7.825E+01   0.11 |

 *********************** Forces ***********************
 *            Cartesian components (eV/A)             *
 *                   x            y            z      *
 * O         1     -0.00030     -0.00854     -0.00091 *
 * O         2     -0.00522     -0.00156     -0.00826 *
 * O         3     -0.00560     -0.00180     -0.00283 *
 * O         4     -0.00835      0.00505      0.00153 *
 * O         5     -0.00213     -0.00061      0.00037 *
 * O         6      0.00455     -0.00039      0.00783 *
 * O         7      0.00284      0.00034      0.00295 *
 * O         8      0.00603     -0.00069     -0.00918 *
 * O         9      0.00490     -0.00480      0.00785 *
 * O        10     -0.00566     -0.00675     -0.00241 *
 * O        11     -0.01032     -0.00229      0.00538 *
 * O        12     -0.00255     -0.02052     -0.00658 *
 * O        13     -0.00276      0.00396     -0.00061 *
 * O        14      0.01281      0.00456     -0.02034 *
 * O        15      0.00005     -0.00548     -0.00572 *
 * O        16      0.00573      0.00836      0.00156 *
 * O        17      0.00898      0.00078     -0.00074 *
 * O        18      0.01888     -0.01135     -0.00577 *
 * O        19      0.00857     -0.00466      0.00015 *
 * O        20      0.01688      0.02043     -0.00121 *
 * O        21     -0.02023      0.00111      0.00706 *
 * O        22     -0.01627     -0.00432     -0.00507 *
 * O        23     -0.01465     -0.00463     -0.02033 *
 * O        24     -0.02564      0.00249      0.01168 *
 * O        25      0.00806     -0.00829      0.00121 *
 * O        26      0.00149      0.01338      0.01475 *
 * O        27     -0.00045     -0.01639     -0.01120 *
 * O        28      0.00473      0.00762     -0.00271 *
 * O        29     -0.00266      0.00120     -0.00254 *
 * O        30     -0.01284      0.02230      0.00414 *
 * O        31     -0.00324      0.00614      0.00465 *
 * O        32      0.00027      0.00134     -0.01349 *
 * O        33      0.00606     -0.01568      0.00591 *
 * O        34     -0.00877     -0.01120     -0.00195 *
 * O        35      0.00922      0.00466     -0.00819 *
 * O        36      0.01517     -0.00087      0.01780 *
 * O        37     -0.00345     -0.00200      0.00540 *
 * O        38     -0.00165     -0.00676     -0.01357 *
 * O        39     -0.00322     -0.01016      0.00107 *
 * O        40      0.00073      0.01078      0.01285 *
 * O        41      0.00720      0.00691      0.00286 *
 * O        42     -0.00746     -0.00303      0.00915 *
 * O        43     -0.00767     -0.01235      0.00156 *
 * O        44      0.00402     -0.00351     -0.01305 *
 * O        45      0.00878      0.01145      0.01407 *
 * O        46      0.00426      0.01212     -0.01196 *
 * O        47     -0.00665      0.00149     -0.00134 *
 * O        48      0.00349      0.01714      0.01100 *
 * O        49      0.01047      0.00203     -0.00140 *
 * O        50     -0.00380     -0.00620     -0.01646 *
 * O        51     -0.00069      0.01247     -0.01158 *
 * O        52     -0.01032      0.00547      0.00271 *
 * O        53     -0.00074      0.00033      0.01398 *
 * O        54     -0.01634     -0.01680     -0.00028 *
 * O        55      0.00854     -0.01165     -0.00058 *
 * O        56      0.01360      0.00176      0.01726 *
 * Zr        1     -0.01753     -0.00931      0.02393 *
 * Zr        2     -0.00163     -0.01123     -0.03248 *
 * Zr        3      0.00238      0.01592      0.00501 *
 * Zr        4      0.00181     -0.00681      0.00395 *
[...]
 * La        2      0.01286     -0.00082      0.01562 *
 * La        3     -0.00153      0.00566     -0.00199 *
 * La        4      0.00449     -0.01221      0.01794 *
 * La        5     -0.00390     -0.00113      0.00628 *
 * La        6      0.01959      0.00018     -0.01050 *
 * La        7      0.00086     -0.00714      0.00188 *
 * La        8      0.00215      0.00287     -0.00537 *
 * La        9     -0.00365     -0.01220     -0.02409 *
 * La       10     -0.01164      0.01922      0.02652 *
 * La       11     -0.00861      0.00463      0.00000 *
 * La       12     -0.01039     -0.00661      0.00449 *
 * La       13     -0.00436     -0.00690      0.01382 *
 * La       14      0.00181     -0.00229      0.00154 *
 * La       15      0.00130      0.00686     -0.00460 *
 * La       16      0.00161     -0.00699     -0.00138 *

 ***************** Stress Tensor *****************
 *          Cartesian components (GPa)           *
 *             x             y             z     *
 *  x      0.015576      0.003294      0.003176  *
 *  y      0.003294      0.028268      0.033677  *
 *  z      0.003176      0.033677      0.051076  *
 *  Pressure:   -0.0316                          *

[...]

 Pseudo atomic calculation performed for Sn 4d10 5s2 5p2

[...]

 Pseudo atomic calculation performed for La 5s2 5p6 5d1 6s2

 Converged in 34 iterations to a total energy of -968.0372 eV

Charge spilling parameter for spin component 1 = 0.25%

     Atomic Populations (Mulliken)
Species   Ion     s      p      d      f     Total  Charge (e)
  O        1     1.87   5.00   0.00   0.00   6.87    -0.87
  O        2     1.87   5.00   0.00   0.00   6.87    -0.87
  O        3     1.87   5.00   0.00   0.00   6.87    -0.87
  O        4     1.87   5.00   0.00   0.00   6.87    -0.87
  O        5     1.87   5.00   0.00   0.00   6.87    -0.87
  O        6     1.87   5.00   0.00   0.00   6.87    -0.87
  O        7     1.87   5.00   0.00   0.00   6.87    -0.87
  O        8     1.87   5.00   0.00   0.00   6.87    -0.87
  O        9     1.86   4.95   0.00   0.00   6.80    -0.80
  O       10     1.88   5.03   0.00   0.00   6.91    -0.91
  O       11     1.88   5.03   0.00   0.00   6.91    -0.91
  O       12     1.87   4.99   0.00   0.00   6.86    -0.86
  O       13     1.88   5.02   0.00   0.00   6.91    -0.91
  O       14     1.87   4.99   0.00   0.00   6.86    -0.86
  O       15     1.88   5.03   0.00   0.00   6.91    -0.91
  O       16     1.88   5.03   0.00   0.00   6.91    -0.91
  O       17     1.88   5.03   0.00   0.00   6.91    -0.91
  O       18     1.87   4.99   0.00   0.00   6.86    -0.86
  O       19     1.88   5.03   0.00   0.00   6.91    -0.91
  O       20     1.87   4.99   0.00   0.00   6.86    -0.86
  O       21     1.87   4.99   0.00   0.00   6.86    -0.86
  O       22     1.88   5.03   0.00   0.00   6.91    -0.91
  O       23     1.87   4.99   0.00   0.00   6.86    -0.86
  O       24     1.87   4.99   0.00   0.00   6.86    -0.86
  O       25     1.88   5.02   0.00   0.00   6.91    -0.91
  O       26     1.87   4.99   0.00   0.00   6.86    -0.86
  O       27     1.87   4.99   0.00   0.00   6.86    -0.86
  O       28     1.88   5.03   0.00   0.00   6.91    -0.91
  O       29     1.88   5.03   0.00   0.00   6.91    -0.91
  O       30     1.87   4.99   0.00   0.00   6.86    -0.86
  O       31     1.88   5.02   0.00   0.00   6.91    -0.91
  O       32     1.88   5.02   0.00   0.00   6.91    -0.91
  O       33     1.87   4.99   0.00   0.00   6.86    -0.86
  O       34     1.88   5.03   0.00   0.00   6.91    -0.91
  O       35     1.87   4.99   0.00   0.00   6.86    -0.86
  O       36     1.87   4.99   0.00   0.00   6.86    -0.86
  O       37     1.89   5.03   0.00   0.00   6.91    -0.91
  O       38     1.86   4.95   0.00   0.00   6.80    -0.80
  O       39     1.88   5.03   0.00   0.00   6.91    -0.91
  O       40     1.86   4.95   0.00   0.00   6.80    -0.80
  O       41     1.88   5.03   0.00   0.00   6.91    -0.91
  O       42     1.87   4.99   0.00   0.00   6.86    -0.86
  O       43     1.87   4.99   0.00   0.00   6.86    -0.86
  O       44     1.86   4.95   0.00   0.00   6.80    -0.80
  O       45     1.87   4.99   0.00   0.00   6.86    -0.86
  O       46     1.87   4.99   0.00   0.00   6.86    -0.86
  O       47     1.88   5.03   0.00   0.00   6.91    -0.91
  O       48     1.87   4.99   0.00   0.00   6.86    -0.86
  O       49     1.88   5.03   0.00   0.00   6.91    -0.91
  O       50     1.87   4.99   0.00   0.00   6.86    -0.86
  O       51     1.87   4.99   0.00   0.00   6.86    -0.86
  O       52     1.86   4.95   0.00   0.00   6.80    -0.80
  O       53     1.86   4.95   0.00   0.00   6.80    -0.80
  O       54     1.87   4.99   0.00   0.00   6.86    -0.86
  O       55     1.86   4.95   0.00   0.00   6.80    -0.80
  O       56     1.87   4.99   0.00   0.00   6.86    -0.86
  Zr       1     2.37   6.49   1.92   0.00  10.78     1.22
  Zr       2     2.37   6.48   1.92   0.00  10.77     1.23
  Zr       3     2.37   6.47   1.92   0.00  10.76     1.24
  Zr       4     2.37   6.48   1.92   0.00  10.77     1.23
[...]
  La       2     2.06   6.17   1.19   0.00   9.43     1.57
  La       3     2.07   6.18   1.19   0.00   9.45     1.55
  La       4     2.02   6.16   1.20   0.00   9.38     1.62
  La       5     2.06   6.19   1.19   0.00   9.44     1.56
  La       6     2.05   6.17   1.20   0.00   9.41     1.59
  La       7     2.09   6.18   1.19   0.00   9.46     1.54
  La       8     2.10   6.19   1.19   0.00   9.49     1.51
  La       9     2.05   6.17   1.19   0.00   9.41     1.59
  La      10     2.03   6.16   1.20   0.00   9.38     1.62
  La      11     2.07   6.18   1.19   0.00   9.45     1.55
  La      12     2.09   6.20   1.19   0.00   9.48     1.52
  La      13     2.08   6.18   1.19   0.00   9.45     1.55
  La      14     2.11   6.20   1.19   0.00   9.50     1.50
  La      15     2.10   6.19   1.19   0.00   9.49     1.51
  La      16     2.07   6.18   1.19   0.00   9.44     1.56

            Bond              Population      Length (A)
         O 30 -- Sn 7              0.35        2.09984
         O 18 -- Sn 7              0.35        2.10114
         O 29 -- Sn 8              0.34        2.10131
         O 45 -- Sn 9              0.35        2.10191
         O 10 -- Sn 3              0.34        2.10270
         O 33 -- Sn 6              0.34        2.10292
         O 29 -- Sn 2              0.34        2.10337
         O 27 -- Sn 9              0.35        2.10378
         O 28 -- Sn 2              0.34        2.10390
         O 17 -- Sn 4              0.34        2.10428
         O 16 -- Sn 10             0.34        2.10484
         O 36 -- Sn 10             0.34        2.10577
         O 42 -- Sn 7              0.34        2.10582
         O 48 -- Sn 6              0.34        2.10594
         O 35 -- Sn 9              0.34        2.10610
         O 28 -- Sn 5              0.33        2.10616
         O 21 -- Sn 6              0.34        2.10645
         O 43 -- Sn 8              0.34        2.10684
         O 51 -- Sn 3              0.34        2.10702
         O 24 -- Sn 4              0.34        2.10716
         O 16 -- Sn 3              0.34        2.10735
         O 23 -- Sn 3              0.34        2.10759
         O 10 -- Sn 4              0.33        2.10770
         O 17 -- Sn 10             0.33        2.10770
         O 15 -- Sn 9              0.34        2.10815
         O 22 -- Sn 5              0.34        2.10817
         O 56 -- Sn 5              0.34        2.10842
         O 49 -- Sn 2              0.34        2.10846
         O 15 -- Sn 6              0.34        2.10869
         O 49 -- Sn 1              0.34        2.10874
         O 50 -- Sn 7              0.34        2.10927
         O 47 -- Sn 1              0.34        2.11055
         O 22 -- Sn 8              0.33        2.11058
         O 38 -- Zr 2              0.42        2.11067
         O 46 -- Sn 2              0.34        2.11072
         O 26 -- Sn 10             0.34        2.11095
         O 53 -- Zr 4              0.41        2.11189
         O 39 -- Sn 1              0.34        2.11196
         O 12 -- Sn 8              0.34        2.11207
         O 41 -- Sn 10             0.34        2.11207
         O 54 -- Sn 4              0.34        2.11208
         O 39 -- Sn 4              0.34        2.11210
         O 20 -- Sn 2              0.34        2.11215
         O 53 -- Zr 3              0.41        2.11264
         O 11 -- Sn 6              0.34        2.11283
         O 34 -- Sn 8              0.34        2.11287
         O 14 -- Sn 2              0.34        2.11334
         O 37 -- Sn 1              0.34        2.11446
         O 47 -- Sn 3              0.33        2.11466
         O 52 -- Zr 1              0.41        2.11467
         O 11 -- Sn 5              0.33        2.11492
         O 34 -- Sn 1              0.33        2.11496
         O 38 -- Zr 5              0.41        2.11515
         O 19 -- Sn 5              0.34        2.11535
         O 55 -- Zr 4              0.42        2.11536
         O 41 -- Sn 1              0.33        2.11558
         O 30 -- Zr 6              0.44        2.11561
         O 52 -- Zr 6              0.41        2.11569
         O 48 -- Zr 1              0.44        2.11580
         O 44 -- Zr 6              0.42        2.11629
[...]
         O 27 -- O 40             -0.03        2.82756
         O 46 -- O 53             -0.03        2.82773
         O 52 -- O 56             -0.03        2.82783
         O 9  -- O 24             -0.03        2.82795
         O 14 -- O 30             -0.03        2.83183
         O 54 -- O 56             -0.03        2.83228
         O 36 -- O 44             -0.03        2.83293
         O 36 -- O 46             -0.03        2.83449
         O 18 -- O 26             -0.03        2.83505
         O 43 -- O 51             -0.03        2.83537
         O 45 -- O 54             -0.03        2.83608
         O 20 -- O 27             -0.03        2.83612
         O 20 -- O 23             -0.03        2.83655
         O 12 -- O 21             -0.03        2.83743
         O 35 -- O 43             -0.03        2.83977

Writing analysis data to 039.castep_bin

Writing model to 039.check

 A BibTeX formatted list of references used in this run has been written to
 039.bib

Initialisation time =     54.49 s
Calculation time    =  34254.00 s
Finalisation time   =     46.34 s
Total time          =  34354.83 s

Overall parallel efficiency rating: Very good (80%)

Data was distributed by:-
G-vector (4-way); efficiency rating: Very good (80%)
k-point (14-way); efficiency rating: Ideal (100%)