 Compiled for linux_x86_64_ifort16 on Sat, 23 Jul 2016 23:44:54 +0100
 from code version
 203e84763863+ Castep161_branch Fri, 04 Mar 2016 19:21:07 +0000
 Compiler: Intel Fortran 16.0.3.210; Optimisation: fast
 MATHLIBS: Intel MKL(11.3.3) (LAPACK version 3.6.0)
 FFT Lib : mkl
 Fundamental constants values: CODATA 2010

 Run started: Wed, 11 Apr 2018 23:13:41 +0100
 |           N   N    M   M    RRRR                |
 |           NN  N    MM MM    R   R               |
 |           N N N    M M M    RRRR                |
 |           N  NN    M   M    R  R                |
 |           N   N    M   M    R   R               |
 | Welcome to Materials Studio CASTEP-NMR          |
 | Authors:                                        |
 | J.R. Yates, C.J. Pickard, F. Mauri              |
 | Contributors:                                   |
 | T.F.G. Green, S.A. Joyce                        |
 | Copyright (c) 2004 - 2015                       |
 | Please cite the appropriate publications in all |
 | work arising from your use of CASTEP NMR.       |
 | For NMR Shielding Tensors cite:                 |
 |    "All-electron magnetic response with         |
 |    pseudopotentials: NMR chemical shifts",      |
 |    C. J. Pickard, F. Mauri;                     |
 |    Physical Review B63 245101 (2001), and       |
 |    "Calculation of NMR Chemical Shifts          |
 |    for extended systems using                   |
 |    Ultrasoft Pseudopotentials",                 |
 |    J. R. Yates, C. J. Pickard and F. Mauri      |
 |    Physical Review B76 024401 (2007)            |
 | For Electric Field Gradients cite:              |
 |   "Accurate First Principles Prediction of 17O  |
 |    NMR Parameters in SiO2: Assignment of the    |
 |    Zeolite Ferrierite Spectrum"                 |
 |    M. Profeta, F. Mauri and C. J. Pickard       |
 |    J. Amer. Chem. Soc. 125 541 (2003)           |
 | For Spin-Spin (J) Couplings cite:               |
 |   "A first principles theory of NMR J-coupling  |
 |   in solid-state systems"                       |
 |   S.A. Joyce, J.R. Yates, C.J. Pickard, F. Mauri|
 |   J. Chem. Phys. 127 204107 (2007)              |
 |   "Relativistic NMR J-coupling with ultrasoft   |
 |   pseudopotentials and the zeroth-order regular |
 |   approximation"                                |
 |   T.F.G. Green and J.R. Yates                   |
 |   J. Chem. Phys. 140 234106 (2014)              |

 Atomic calculation performed for O: 1s2 2s2 2p4

 Converged in 44 iterations to an ae energy of -2040.855 eV

 Atomic calculation performed for O: 1s2 2s2 2p4

 Exceeded max iterations: converged to 0.000000062 eV

   | Pseudopotential Report - Date of generation 11-04-2018   |
   | Element: O Ionic charge:  6.00 Level of theory: PBE      |
   | Atomic Solver: ZORA (scalar)                             |
   |               Reference Electronic Structure             |
   |         Orbital         Occupation         Energy        |
   |            2s              2.000           -0.881        |
   |            2p              4.000           -0.332        |
   |                 Pseudopotential Definition               |
   |        Beta     l      e      Rc     scheme   norm       |
   |          1      0   -0.881   1.100     qc      0         |
   |          2      0    0.250   1.100     qc      0         |
   |          3      1   -0.332   1.100     qc      0         |
   |          4      1    0.250   1.100     qc      0         |
   |         loc     2    0.000   1.100     pn      0         |
   | Augmentation charge Rinner = 0.769                       |
   | Partial core correction Rc = 0.769                       |
   | "2|1.1|15|18|20|20:21(qc=7)"                             |
   |      Author: Chris J. Pickard, Cambridge University      |

 Atomic calculation performed for Zr: 1s2 2s2 2p6 3s2 3p6 3d10 4s2 4p6 4d2 5s2

[...]

 Atomic calculation performed for Zr: 1s2 2s2 2p6 3s2 3p6 3d10 4s2 4p6 4d2 5s2

[...]

 Warning: ion_atom_descreen_psp: negative charge density encountered
   | Pseudopotential Report - Date of generation 11-04-2018   |
   | Element: Zr Ionic charge: 12.00 Level of theory: PBE     |
   | Atomic Solver: ZORA (scalar)                             |
   |               Reference Electronic Structure             |
   |         Orbital         Occupation         Energy        |
   |            4s              2.000           -2.003        |
   |            4p              6.000           -1.193        |
   |            5s              2.000           -0.163        |
   |            4d              2.000           -0.132        |
   |                 Pseudopotential Definition               |
   |        Beta     l      e      Rc     scheme   norm       |
   |          1      0   -2.003   2.105     qc      0         |
   |          2      0   -0.163   2.105     qc      0         |
   |          3      0    0.250   2.105     qc      0         |
   |          4      1   -1.193   2.105     qc      0         |
   |          5      1    0.250   2.105     qc      0         |
   |          6      2   -0.132   2.105     qc      0         |
   |          7      2    0.250   2.105     qc      0         |
   |         loc     3    0.000   2.105     pn      0         |
   | Augmentation charge Rinner = 1.471                       |
   | Partial core correction Rc = 1.471                       |
   | "3|2.1|7|8|9|40U:50:41:42"                               |
   |      Author: Chris J. Pickard, Cambridge University      |

 Atomic calculation performed for Sn:

[...]

 Atomic calculation performed for Sn:

[...]

   | Pseudopotential Report - Date of generation 11-04-2018   |
   | Element: Sn Ionic charge: 14.00 Level of theory: PBE     |
   | Atomic Solver: ZORA (scalar)                             |
   |               Reference Electronic Structure             |
   |         Orbital         Occupation         Energy        |
   |            4d             10.000           -0.950        |
   |            5s              2.000           -0.388        |
   |            5p              2.000           -0.136        |
   |                 Pseudopotential Definition               |
   |        Beta     l      e      Rc     scheme   norm       |
   |          1      0   -0.388   2.199     qc      0         |
   |          2      0    0.250   2.199     qc      0         |
   |          3      1   -0.136   2.199     qc      0         |
   |          4      1    0.250   2.199     qc      0         |
   |          5      2   -0.950   2.199     qc      0         |
   |          6      2    0.250   2.199     qc      0         |
   |         loc     3    0.000   2.199     pn      0         |
   | Augmentation charge Rinner = 1.537                       |
   | Partial core correction Rc = 1.537                       |
   | "3|2.2|7|8|9|50:51:42"                                   |
   |      Author: Chris J. Pickard, Cambridge University      |

 Atomic calculation performed for La:

 Converged in 56 iterations to an ae energy of -230121.495 eV

 Atomic calculation performed for La:

 Exceeded max iterations: converged to 0.000000907 eV

 Warning: ion_atom_descreen_psp: negative charge density encountered
   | Pseudopotential Report - Date of generation 11-04-2018   |
   | Element: La Ionic charge: 11.00 Level of theory: PBE     |
   | Atomic Solver: ZORA (scalar)                             |
   |               Reference Electronic Structure             |
   |         Orbital         Occupation         Energy        |
   |            5s              2.000           -1.430        |
   |            5p              6.000           -0.823        |
   |            6s              2.000           -0.135        |
   |            5d              1.000           -0.114        |
   |                 Pseudopotential Definition               |
   |        Beta     l      e      Rc     scheme   norm       |
   |          1      0   -1.430   2.298     qc      0         |
   |          2      0   -0.135   2.298     qc      0         |
   |          3      0    0.250   2.298     qc      0         |
   |          4      1   -0.823   2.298     qc      0         |
   |          5      1    0.250   2.298     qc      0         |
   |          6      2   -0.114   2.298     qc      0         |
   |          7      2    0.250   2.298     qc      0         |
   |         loc     2    0.000   2.298     pn      0         |
   | Augmentation charge Rinner = 1.606                       |
   | Partial core correction Rc = 1.606                       |
   | "2|2.3|5|6|7|50U:60:51:52(qc=4.5)"                       |
   |      Author: Chris J. Pickard, Cambridge University      |

 Pseudo atomic calculation performed for O 2s2 2p4

 Converged in 39 iterations to a total energy of -432.6554 eV

 Pseudo atomic calculation performed for Zr 4s2 4p6 4d2 5s2

[...]

 Calculation parallelised over 56 processes.
 Data is distributed by G-vector(4-way) and k-point(14-way)

 ************************************ Title ************************************
 nmr testing

 ***************************** General Parameters ******************************

 output verbosity                               : normal  (1)
 write checkpoint data to                       : 042.check
 type of calculation                            : Magnetic Resonance
 stress calculation                             : on
 density difference calculation                 : off
 electron localisation func (ELF) calculation   : off
 Hirshfeld analysis                             : off
 unlimited duration calculation
 timing information                             : on
 write final potential to formatted file        : off
 write final density to formatted file          : off
 write structure in CIF formatted file          : on
 write structure in CELL formatted file         : on
 write BibTeX reference list                    : on
 write OTFG pseudopotential files               : on
 checkpoint writing                             : both castep_bin and check files

 output         length unit                     : A
 output           mass unit                     : amu
 output           time unit                     : ps
 output         charge unit                     : e
 output           spin unit                     : hbar/2
 output         energy unit                     : eV
 output          force unit                     : eV/A
 output       velocity unit                     : A/ps
 output       pressure unit                     : GPa
 output     inv_length unit                     : 1/A
 output      frequency unit                     : cm-1
 output force constant unit                     : eV/A**2
 output         volume unit                     : A**3
 output   IR intensity unit                     : (D/A)**2/amu
 output         dipole unit                     : D
 output         efield unit                     : eV/A/e
 output        entropy unit                     : J/mol/K

 wavefunctions paging                           : none
 random number generator seed                   : randomised (231343945)
 data distribution                              : optimal for this architecture
[...]
  |    O          42      -90.46      95.10      0.26  -3.188E+00   0.10 |
  |    O          43      -85.31      85.75      0.14  -3.215E+00   0.07 |
  |    O          44     -160.74     147.31      0.86   1.067E+00   0.68 |
  |    O          45     -160.71     147.21      0.86   1.068E+00   0.68 |
  |    O          46      -85.32      85.85      0.14  -3.216E+00   0.07 |
  |    O          47      -18.11     -42.15      0.66   3.838E+00   0.91 |
  |    O          48      -90.35      94.87      0.27  -3.188E+00   0.10 |
  |    O          49      -18.11     -42.12      0.67   3.838E+00   0.91 |
  |    O          50      -90.35      94.89      0.27  -3.188E+00   0.10 |
  |    O          51      -85.32      85.84      0.14  -3.216E+00   0.07 |
  |    O          52     -160.71     147.22      0.86   1.068E+00   0.68 |
  |    O          53     -160.76     146.85      0.87   1.064E+00   0.68 |
  |    O          54      -85.32      85.92      0.14  -3.214E+00   0.07 |
  |    O          55     -160.75     146.86      0.86   1.064E+00   0.68 |
  |    O          56      -85.32      85.93      0.14  -3.214E+00   0.07 |
  |    Zr          1     1626.38    -125.00      0.17  -3.607E+01   0.14 |
  |    Zr          2     1626.07    -124.91      0.17  -3.608E+01   0.13 |
  |    Zr          3     1626.07    -124.92      0.17  -3.608E+01   0.13 |
  |    Zr          4     1624.30    -119.97      0.08  -3.616E+01   0.10 |
[...]
  |    La          2     4658.21     626.83      0.02  -8.309E+01   0.04 |
  |    La          3     4658.22     626.83      0.02  -8.309E+01   0.04 |
  |    La          4     4641.90     660.21      0.00  -8.148E+01   0.00 |
  |    La          5     4654.91     659.11      0.09  -8.253E+01   0.14 |
  |    La          6     4654.92     659.11      0.09  -8.253E+01   0.14 |
  |    La          7     4545.17     386.43      0.06  -7.509E+01   0.12 |
  |    La          8     4559.51     382.92      0.06  -7.481E+01   0.10 |
  |    La          9     4654.89     658.69      0.09  -8.250E+01   0.14 |
  |    La         10     4654.89     658.66      0.09  -8.250E+01   0.14 |
  |    La         11     4559.52     383.06      0.06  -7.488E+01   0.10 |
  |    La         12     4559.51     383.06      0.06  -7.488E+01   0.10 |
  |    La         13     4654.89     658.83      0.09  -8.247E+01   0.14 |
  |    La         14     4545.14     386.36      0.05  -7.509E+01   0.12 |
  |    La         15     4545.16     386.34      0.06  -7.509E+01   0.12 |
  |    La         16     4654.90     658.81      0.09  -8.247E+01   0.14 |

 *********************** Forces ***********************
 *            Cartesian components (eV/A)             *
 *                   x            y            z      *
 * O         1      0.00692     -0.01498     -0.00807 *
 * O         2      0.00782     -0.00773     -0.01553 *
 * O         3      0.01478     -0.00816     -0.00819 *
 * O         4      0.00270     -0.00355     -0.00326 *
 * O         5     -0.01482      0.00822      0.00837 *
 * O         6     -0.00700      0.00814      0.01472 *
 * O         7     -0.00793      0.01542      0.00755 *
 * O         8     -0.00267      0.00328      0.00371 *
 * O         9     -0.00208     -0.03136     -0.01525 *
 * O        10     -0.00673     -0.00675      0.00137 *
 * O        11     -0.01060     -0.00719      0.00856 *
 * O        12     -0.00618     -0.03717     -0.02042 *
 * O        13     -0.00929      0.01105     -0.00752 *
 * O        14      0.02168      0.00622     -0.03667 *
 * O        15      0.01357      0.00298     -0.03020 *
 * O        16     -0.00041      0.00623     -0.00633 *
 * O        17      0.00584      0.00046      0.00656 *
 * O        18      0.03116     -0.01488      0.00382 *
 * O        19      0.03495     -0.01952      0.00524 *
 * O        20      0.00712      0.00893      0.01129 *
 * O        21     -0.03135     -0.00364      0.01516 *
 * O        22     -0.00595     -0.00642     -0.00065 *
 * O        23     -0.00714     -0.01139     -0.00903 *
 * O        24     -0.03487     -0.00537      0.01961 *
 * O        25      0.01059     -0.00871      0.00746 *
 * O        26      0.00618      0.02043      0.03728 *
 * O        27      0.00217      0.01522      0.03118 *
 * O        28      0.00679     -0.00128      0.00656 *
 * O        29      0.00039      0.00636     -0.00632 *
 * O        30     -0.01343      0.03006     -0.00283 *
 * O        31     -0.02161      0.03665     -0.00630 *
 * O        32      0.00912      0.00744     -0.01098 *
 * O        33      0.00656     -0.01859      0.00693 *
 * O        34     -0.00476     -0.00782     -0.01316 *
 * O        35      0.00157      0.00332      0.00453 *
 * O        36      0.01789     -0.00134      0.02278 *
 * O        37      0.00775     -0.01326      0.00422 *
 * O        38      0.01983      0.00728     -0.00707 *
 * O        39     -0.00773     -0.00422      0.01322 *
 * O        40     -0.01974      0.00708     -0.00720 *
 * O        41      0.00465      0.01297      0.00771 *
 * O        42     -0.00660     -0.00669      0.01854 *
 * O        43     -0.01795     -0.02265      0.00120 *
 * O        44     -0.00141     -0.00477     -0.00316 *
 * O        45      0.00248      0.00180     -0.00502 *
 * O        46     -0.00237      0.01932     -0.02274 *
 * O        47     -0.01288      0.00804     -0.00476 *
 * O        48      0.00696      0.01822      0.00718 *
 * O        49      0.01291      0.00465     -0.00821 *
 * O        50     -0.00678     -0.00703     -0.01792 *
 * O        51      0.00226      0.02284     -0.01951 *
 * O        52     -0.00241      0.00501     -0.00167 *
 * O        53     -0.00621     -0.00131      0.00469 *
 * O        54     -0.02293     -0.01844     -0.00115 *
 * O        55      0.00613     -0.00466      0.00137 *
 * O        56      0.02292      0.00116      0.01843 *
 * Zr        1     -0.00004     -0.02056      0.02054 *
 * Zr        2     -0.00638      0.00085     -0.01743 *
 * Zr        3      0.00662      0.01776     -0.00120 *
 * Zr        4      0.00003      0.00211     -0.00228 *
[...]
 * La        2      0.01151     -0.00029      0.01201 *
 * La        3     -0.01138     -0.01216      0.00051 *
 * La        4      0.00006     -0.00117      0.00060 *
 * La        5     -0.02206     -0.00209     -0.00269 *
 * La        6      0.02199      0.00270      0.00184 *
 * La        7     -0.00000     -0.00222      0.00240 *
 * La        8     -0.00003      0.01138     -0.01160 *
 * La        9     -0.00106      0.00143     -0.02219 *
 * La       10      0.00083      0.02247     -0.00169 *
 * La       11      0.01219      0.00047      0.01249 *
 * La       12     -0.01205     -0.01234     -0.00013 *
 * La       13      0.00164     -0.00049      0.02203 *
 * La       14     -0.00223     -0.00013     -0.00143 *
 * La       15      0.00232      0.00152     -0.00011 *
 * La       16     -0.00164     -0.02187      0.00075 *

 ***************** Stress Tensor *****************
 *          Cartesian components (GPa)           *
 *             x             y             z     *
 *  x      0.012095      0.044359      0.044437  *
 *  y      0.044359     -0.003089     -0.045008  *
 *  z      0.044437     -0.045008     -0.002822  *
 *  Pressure:   -0.0021                          *

[...]

 Pseudo atomic calculation performed for Sn 4d10 5s2 5p2

[...]

 Pseudo atomic calculation performed for La 5s2 5p6 5d1 6s2

 Converged in 34 iterations to a total energy of -968.0372 eV

Charge spilling parameter for spin component 1 = 0.25%

     Atomic Populations (Mulliken)
Species   Ion     s      p      d      f     Total  Charge (e)
  O        1     1.87   5.00   0.00   0.00   6.87    -0.87
  O        2     1.87   5.00   0.00   0.00   6.87    -0.87
  O        3     1.87   5.00   0.00   0.00   6.87    -0.87
  O        4     1.87   5.00   0.00   0.00   6.87    -0.87
  O        5     1.87   5.00   0.00   0.00   6.87    -0.87
  O        6     1.87   5.00   0.00   0.00   6.87    -0.87
  O        7     1.87   5.00   0.00   0.00   6.87    -0.87
  O        8     1.87   5.00   0.00   0.00   6.87    -0.87
  O        9     1.87   4.99   0.00   0.00   6.86    -0.86
  O       10     1.88   5.03   0.00   0.00   6.91    -0.91
  O       11     1.88   5.02   0.00   0.00   6.91    -0.91
  O       12     1.87   4.99   0.00   0.00   6.86    -0.86
  O       13     1.88   5.02   0.00   0.00   6.91    -0.91
  O       14     1.87   4.99   0.00   0.00   6.86    -0.86
  O       15     1.87   4.99   0.00   0.00   6.86    -0.86
  O       16     1.88   5.03   0.00   0.00   6.91    -0.91
  O       17     1.88   5.03   0.00   0.00   6.91    -0.91
  O       18     1.87   4.99   0.00   0.00   6.86    -0.86
  O       19     1.87   4.99   0.00   0.00   6.86    -0.86
  O       20     1.88   5.02   0.00   0.00   6.91    -0.91
  O       21     1.87   4.99   0.00   0.00   6.86    -0.86
  O       22     1.88   5.03   0.00   0.00   6.91    -0.91
  O       23     1.88   5.02   0.00   0.00   6.91    -0.91
  O       24     1.87   4.99   0.00   0.00   6.86    -0.86
  O       25     1.88   5.02   0.00   0.00   6.91    -0.91
  O       26     1.87   4.99   0.00   0.00   6.86    -0.86
  O       27     1.87   4.99   0.00   0.00   6.86    -0.86
  O       28     1.88   5.03   0.00   0.00   6.91    -0.91
  O       29     1.88   5.03   0.00   0.00   6.91    -0.91
  O       30     1.87   4.99   0.00   0.00   6.86    -0.86
  O       31     1.87   4.99   0.00   0.00   6.86    -0.86
  O       32     1.88   5.02   0.00   0.00   6.91    -0.91
  O       33     1.87   4.99   0.00   0.00   6.86    -0.86
  O       34     1.88   5.03   0.00   0.00   6.91    -0.91
  O       35     1.86   4.95   0.00   0.00   6.80    -0.80
  O       36     1.87   4.99   0.00   0.00   6.86    -0.86
  O       37     1.88   5.03   0.00   0.00   6.91    -0.91
  O       38     1.87   4.99   0.00   0.00   6.86    -0.86
  O       39     1.88   5.03   0.00   0.00   6.91    -0.91
  O       40     1.87   4.99   0.00   0.00   6.86    -0.86
  O       41     1.88   5.03   0.00   0.00   6.91    -0.91
  O       42     1.87   4.99   0.00   0.00   6.86    -0.86
  O       43     1.87   4.99   0.00   0.00   6.86    -0.86
  O       44     1.86   4.95   0.00   0.00   6.80    -0.80
  O       45     1.86   4.95   0.00   0.00   6.80    -0.80
  O       46     1.87   4.99   0.00   0.00   6.86    -0.86
  O       47     1.88   5.03   0.00   0.00   6.91    -0.91
  O       48     1.87   4.99   0.00   0.00   6.86    -0.86
  O       49     1.88   5.03   0.00   0.00   6.91    -0.91
  O       50     1.87   4.99   0.00   0.00   6.86    -0.86
  O       51     1.87   4.99   0.00   0.00   6.86    -0.86
  O       52     1.86   4.95   0.00   0.00   6.80    -0.80
  O       53     1.86   4.95   0.00   0.00   6.80    -0.80
  O       54     1.87   4.99   0.00   0.00   6.86    -0.86
  O       55     1.86   4.95   0.00   0.00   6.80    -0.80
  O       56     1.87   4.99   0.00   0.00   6.86    -0.86
  Zr       1     2.37   6.48   1.92   0.00  10.77     1.23
  Zr       2     2.37   6.48   1.92   0.00  10.77     1.23
  Zr       3     2.37   6.48   1.92   0.00  10.77     1.23
  Zr       4     2.36   6.48   1.92   0.00  10.77     1.23
[...]
  La       2     2.06   6.17   1.19   0.00   9.43     1.57
  La       3     2.06   6.17   1.19   0.00   9.43     1.57
  La       4     2.05   6.16   1.20   0.00   9.41     1.59
  La       5     2.04   6.17   1.20   0.00   9.41     1.59
  La       6     2.04   6.17   1.20   0.00   9.41     1.59
  La       7     2.12   6.19   1.19   0.00   9.50     1.50
  La       8     2.09   6.20   1.19   0.00   9.48     1.52
  La       9     2.04   6.17   1.19   0.00   9.41     1.59
  La      10     2.04   6.17   1.20   0.00   9.41     1.59
  La      11     2.09   6.20   1.19   0.00   9.48     1.52
  La      12     2.09   6.20   1.19   0.00   9.48     1.52
  La      13     2.04   6.17   1.19   0.00   9.41     1.59
  La      14     2.12   6.19   1.19   0.00   9.50     1.50
  La      15     2.12   6.19   1.19   0.00   9.50     1.50
  La      16     2.04   6.17   1.20   0.00   9.41     1.59

            Bond              Population      Length (A)
         O 27 -- Sn 4              0.35        2.10201
         O 9  -- Sn 4              0.35        2.10202
         O 18 -- Sn 8              0.35        2.10208
         O 15 -- Sn 7              0.35        2.10209
         O 30 -- Sn 8              0.35        2.10210
         O 21 -- Sn 7              0.35        2.10211
         O 17 -- Sn 5              0.34        2.10292
         O 22 -- Sn 6              0.34        2.10293
         O 28 -- Sn 2              0.34        2.10296
         O 10 -- Sn 3              0.34        2.10297
         O 16 -- Sn 10             0.34        2.10299
         O 29 -- Sn 9              0.34        2.10300
         O 33 -- Sn 7              0.34        2.10641
         O 42 -- Sn 8              0.34        2.10641
         O 50 -- Sn 8              0.34        2.10642
         O 48 -- Sn 7              0.34        2.10644
         O 40 -- Sn 4              0.34        2.10645
         O 38 -- Sn 4              0.34        2.10645
         O 16 -- Sn 3              0.33        2.10751
         O 29 -- Sn 2              0.33        2.10751
         O 10 -- Sn 5              0.33        2.10755
         O 22 -- Sn 9              0.33        2.10756
         O 28 -- Sn 6              0.33        2.10757
         O 17 -- Sn 10             0.33        2.10758
         O 51 -- Sn 3              0.34        2.10814
         O 46 -- Sn 2              0.34        2.10814
         O 54 -- Sn 5              0.34        2.10820
         O 56 -- Sn 6              0.34        2.10820
         O 43 -- Sn 9              0.34        2.10822
         O 36 -- Sn 10             0.34        2.10823
         O 34 -- Sn 9              0.34        2.11143
         O 41 -- Sn 10             0.34        2.11143
         O 49 -- Sn 2              0.34        2.11150
         O 47 -- Sn 3              0.34        2.11151
         O 37 -- Sn 6              0.34        2.11151
         O 39 -- Sn 5              0.34        2.11151
         O 12 -- Sn 9              0.34        2.11216
         O 26 -- Sn 10             0.34        2.11216
         O 31 -- Sn 3              0.34        2.11224
         O 14 -- Sn 2              0.34        2.11226
         O 24 -- Sn 5              0.34        2.11226
         O 19 -- Sn 6              0.34        2.11226
         O 41 -- Sn 1              0.34        2.11300
         O 34 -- Sn 1              0.34        2.11302
         O 39 -- Sn 1              0.34        2.11317
         O 37 -- Sn 1              0.34        2.11317
         O 49 -- Sn 1              0.34        2.11317
         O 47 -- Sn 1              0.34        2.11317
         O 44 -- Zr 5              0.41        2.11449
         O 35 -- Zr 6              0.41        2.11452
         O 52 -- Zr 5              0.41        2.11452
         O 45 -- Zr 6              0.41        2.11454
         O 53 -- Zr 4              0.41        2.11495
         O 55 -- Zr 4              0.41        2.11495
         O 35 -- Zr 2              0.41        2.11519
         O 44 -- Zr 3              0.41        2.11521
         O 52 -- Zr 1              0.41        2.11534
         O 45 -- Zr 1              0.41        2.11534
         O 53 -- Zr 3              0.41        2.11571
         O 55 -- Zr 2              0.41        2.11571
[...]
         O 52 -- O 56             -0.03        2.83008
         O 45 -- O 54             -0.03        2.83008
         O 51 -- O 55             -0.03        2.83008
         O 46 -- O 53             -0.03        2.83008
         O 35 -- O 43             -0.03        2.83035
         O 36 -- O 44             -0.03        2.83036
         O 43 -- O 51             -0.03        2.83225
         O 36 -- O 46             -0.03        2.83225
         O 54 -- O 56             -0.03        2.83260
         O 19 -- O 27             -0.03        2.83291
         O 9  -- O 24             -0.03        2.83292
         O 12 -- O 21             -0.03        2.83292
         O 18 -- O 26             -0.03        2.83293
         O 14 -- O 30             -0.03        2.83327
         O 15 -- O 31             -0.03        2.83327

Writing analysis data to 042.castep_bin

Writing model to 042.check

 A BibTeX formatted list of references used in this run has been written to
 042.bib

Initialisation time =     56.59 s
Calculation time    =  34038.39 s
Finalisation time   =     44.81 s
Total time          =  34139.79 s

Overall parallel efficiency rating: Good (76%)

Data was distributed by:-
G-vector (4-way); efficiency rating: Good (78%)
k-point (14-way); efficiency rating: Excellent (97%)