 Compiled for linux_x86_64_ifort16 on Sat, 23 Jul 2016 23:44:54 +0100
 from code version
 203e84763863+ Castep161_branch Fri, 04 Mar 2016 19:21:07 +0000
 Compiler: Intel Fortran 16.0.3.210; Optimisation: fast
 MATHLIBS: Intel MKL(11.3.3) (LAPACK version 3.6.0)
 FFT Lib : mkl
 Fundamental constants values: CODATA 2010

 Run started: Tue, 17 Apr 2018 14:58:05 +0100
 |           N   N    M   M    RRRR                |
 |           NN  N    MM MM    R   R               |
 |           N N N    M M M    RRRR                |
 |           N  NN    M   M    R  R                |
 |           N   N    M   M    R   R               |
 | Welcome to Materials Studio CASTEP-NMR          |
 | Authors:                                        |
 | J.R. Yates, C.J. Pickard, F. Mauri              |
 | Contributors:                                   |
 | T.F.G. Green, S.A. Joyce                        |
 | Copyright (c) 2004 - 2015                       |
 | Please cite the appropriate publications in all |
 | work arising from your use of CASTEP NMR.       |
 | For NMR Shielding Tensors cite:                 |
 |    "All-electron magnetic response with         |
 |    pseudopotentials: NMR chemical shifts",      |
 |    C. J. Pickard, F. Mauri;                     |
 |    Physical Review B63 245101 (2001), and       |
 |    "Calculation of NMR Chemical Shifts          |
 |    for extended systems using                   |
 |    Ultrasoft Pseudopotentials",                 |
 |    J. R. Yates, C. J. Pickard and F. Mauri      |
 |    Physical Review B76 024401 (2007)            |
 | For Electric Field Gradients cite:              |
 |   "Accurate First Principles Prediction of 17O  |
 |    NMR Parameters in SiO2: Assignment of the    |
 |    Zeolite Ferrierite Spectrum"                 |
 |    M. Profeta, F. Mauri and C. J. Pickard       |
 |    J. Amer. Chem. Soc. 125 541 (2003)           |
 | For Spin-Spin (J) Couplings cite:               |
 |   "A first principles theory of NMR J-coupling  |
 |   in solid-state systems"                       |
 |   S.A. Joyce, J.R. Yates, C.J. Pickard, F. Mauri|
 |   J. Chem. Phys. 127 204107 (2007)              |
 |   "Relativistic NMR J-coupling with ultrasoft   |
 |   pseudopotentials and the zeroth-order regular |
 |   approximation"                                |
 |   T.F.G. Green and J.R. Yates                   |
 |   J. Chem. Phys. 140 234106 (2014)              |

 Atomic calculation performed for O: 1s2 2s2 2p4

 Converged in 44 iterations to an ae energy of -2040.855 eV

 Atomic calculation performed for O: 1s2 2s2 2p4

 Exceeded max iterations: converged to 0.000000062 eV

   | Pseudopotential Report - Date of generation 17-04-2018   |
   | Element: O Ionic charge:  6.00 Level of theory: PBE      |
   | Atomic Solver: ZORA (scalar)                             |
   |               Reference Electronic Structure             |
   |         Orbital         Occupation         Energy        |
   |            2s              2.000           -0.881        |
   |            2p              4.000           -0.332        |
   |                 Pseudopotential Definition               |
   |        Beta     l      e      Rc     scheme   norm       |
   |          1      0   -0.881   1.100     qc      0         |
   |          2      0    0.250   1.100     qc      0         |
   |          3      1   -0.332   1.100     qc      0         |
   |          4      1    0.250   1.100     qc      0         |
   |         loc     2    0.000   1.100     pn      0         |
   | Augmentation charge Rinner = 0.769                       |
   | Partial core correction Rc = 0.769                       |
   | "2|1.1|15|18|20|20:21(qc=7)"                             |
   |      Author: Chris J. Pickard, Cambridge University      |

 Atomic calculation performed for Zr: 1s2 2s2 2p6 3s2 3p6 3d10 4s2 4p6 4d2 5s2

[...]

 Atomic calculation performed for Zr: 1s2 2s2 2p6 3s2 3p6 3d10 4s2 4p6 4d2 5s2

[...]

 Warning: ion_atom_descreen_psp: negative charge density encountered
   | Pseudopotential Report - Date of generation 17-04-2018   |
   | Element: Zr Ionic charge: 12.00 Level of theory: PBE     |
   | Atomic Solver: ZORA (scalar)                             |
   |               Reference Electronic Structure             |
   |         Orbital         Occupation         Energy        |
   |            4s              2.000           -2.003        |
   |            4p              6.000           -1.193        |
   |            5s              2.000           -0.163        |
   |            4d              2.000           -0.132        |
   |                 Pseudopotential Definition               |
   |        Beta     l      e      Rc     scheme   norm       |
   |          1      0   -2.003   2.105     qc      0         |
   |          2      0   -0.163   2.105     qc      0         |
   |          3      0    0.250   2.105     qc      0         |
   |          4      1   -1.193   2.105     qc      0         |
   |          5      1    0.250   2.105     qc      0         |
   |          6      2   -0.132   2.105     qc      0         |
   |          7      2    0.250   2.105     qc      0         |
   |         loc     3    0.000   2.105     pn      0         |
   | Augmentation charge Rinner = 1.471                       |
   | Partial core correction Rc = 1.471                       |
   | "3|2.1|7|8|9|40U:50:41:42"                               |
   |      Author: Chris J. Pickard, Cambridge University      |

 Atomic calculation performed for Sn:

[...]

 Atomic calculation performed for Sn:

[...]

   | Pseudopotential Report - Date of generation 17-04-2018   |
   | Element: Sn Ionic charge: 14.00 Level of theory: PBE     |
   | Atomic Solver: ZORA (scalar)                             |
   |               Reference Electronic Structure             |
   |         Orbital         Occupation         Energy        |
   |            4d             10.000           -0.950        |
   |            5s              2.000           -0.388        |
   |            5p              2.000           -0.136        |
   |                 Pseudopotential Definition               |
   |        Beta     l      e      Rc     scheme   norm       |
   |          1      0   -0.388   2.199     qc      0         |
   |          2      0    0.250   2.199     qc      0         |
   |          3      1   -0.136   2.199     qc      0         |
   |          4      1    0.250   2.199     qc      0         |
   |          5      2   -0.950   2.199     qc      0         |
   |          6      2    0.250   2.199     qc      0         |
   |         loc     3    0.000   2.199     pn      0         |
   | Augmentation charge Rinner = 1.537                       |
   | Partial core correction Rc = 1.537                       |
   | "3|2.2|7|8|9|50:51:42"                                   |
   |      Author: Chris J. Pickard, Cambridge University      |

 Atomic calculation performed for La:

 Converged in 56 iterations to an ae energy of -230121.495 eV

 Atomic calculation performed for La:

 Exceeded max iterations: converged to 0.000000907 eV

 Warning: ion_atom_descreen_psp: negative charge density encountered
   | Pseudopotential Report - Date of generation 17-04-2018   |
   | Element: La Ionic charge: 11.00 Level of theory: PBE     |
   | Atomic Solver: ZORA (scalar)                             |
   |               Reference Electronic Structure             |
   |         Orbital         Occupation         Energy        |
   |            5s              2.000           -1.430        |
   |            5p              6.000           -0.823        |
   |            6s              2.000           -0.135        |
   |            5d              1.000           -0.114        |
   |                 Pseudopotential Definition               |
   |        Beta     l      e      Rc     scheme   norm       |
   |          1      0   -1.430   2.298     qc      0         |
   |          2      0   -0.135   2.298     qc      0         |
   |          3      0    0.250   2.298     qc      0         |
   |          4      1   -0.823   2.298     qc      0         |
   |          5      1    0.250   2.298     qc      0         |
   |          6      2   -0.114   2.298     qc      0         |
   |          7      2    0.250   2.298     qc      0         |
   |         loc     2    0.000   2.298     pn      0         |
   | Augmentation charge Rinner = 1.606                       |
   | Partial core correction Rc = 1.606                       |
   | "2|2.3|5|6|7|50U:60:51:52(qc=4.5)"                       |
   |      Author: Chris J. Pickard, Cambridge University      |

 Pseudo atomic calculation performed for O 2s2 2p4

 Converged in 39 iterations to a total energy of -432.6554 eV

 Pseudo atomic calculation performed for Zr 4s2 4p6 4d2 5s2

[...]

 Calculation parallelised over 56 processes.
 Data is distributed by G-vector(4-way) and k-point(14-way)

 ************************************ Title ************************************
 nmr testing

 ***************************** General Parameters ******************************

 output verbosity                               : normal  (1)
 write checkpoint data to                       : 048.check
 type of calculation                            : Magnetic Resonance
 stress calculation                             : on
 density difference calculation                 : off
 electron localisation func (ELF) calculation   : off
 Hirshfeld analysis                             : off
 unlimited duration calculation
 timing information                             : on
 write final potential to formatted file        : off
 write final density to formatted file          : off
 write structure in CIF formatted file          : on
 write structure in CELL formatted file         : on
 write BibTeX reference list                    : on
 write OTFG pseudopotential files               : on
 checkpoint writing                             : both castep_bin and check files

 output         length unit                     : A
 output           mass unit                     : amu
 output           time unit                     : ps
 output         charge unit                     : e
 output           spin unit                     : hbar/2
 output         energy unit                     : eV
 output          force unit                     : eV/A
 output       velocity unit                     : A/ps
 output       pressure unit                     : GPa
 output     inv_length unit                     : 1/A
 output      frequency unit                     : cm-1
 output force constant unit                     : eV/A**2
 output         volume unit                     : A**3
 output   IR intensity unit                     : (D/A)**2/amu
 output         dipole unit                     : D
 output         efield unit                     : eV/A/e
 output        entropy unit                     : J/mol/K

 wavefunctions paging                           : none
 random number generator seed                   : randomised (145806408)
 data distribution                              : optimal for this architecture
[...]
  |    O          42      -87.84      79.15      0.14  -3.273E+00   0.10 |
  |    O          43      -89.19      92.92      0.03  -3.200E+00   0.07 |
  |    O          44       -5.40      69.38      0.62   3.830E+00   0.90 |
  |    O          45     -161.37     156.45      0.85   1.067E+00   0.74 |
  |    O          46      -87.50      86.46      0.15  -3.137E+00   0.04 |
  |    O          47       -8.30      58.26      0.47   3.944E+00   0.85 |
  |    O          48      -87.62      85.96      0.15  -3.136E+00   0.06 |
  |    O          49      -88.26      85.93      0.10  -3.225E+00   0.06 |
  |    O          50      -86.42      86.83      0.22  -3.185E+00   0.08 |
  |    O          51      -82.83      87.69      0.21  -3.130E+00   0.03 |
  |    O          52      -82.52      87.18      0.20  -3.176E+00   0.07 |
  |    O          53      -20.83      37.50      0.67   3.935E+00   0.85 |
  |    O          54     -163.65     148.37      0.86   1.008E+00   0.74 |
  |    O          55      -89.91      89.04      0.12  -3.160E+00   0.07 |
  |    O          56      -86.26      86.12      0.12  -3.197E+00   0.08 |
  |    Zr          1     1624.72    -122.85      0.15  -3.602E+01   0.10 |
  |    Zr          2     1616.54    -116.08      0.07  -3.604E+01   0.03 |
  |    Zr          3     1610.51    -116.07      0.15  -3.508E+01   0.07 |
  |    Zr          4     1630.11    -122.56      0.16  -3.711E+01   0.08 |
[...]
  |    La          2     4549.27     388.74      0.07  -7.356E+01   0.09 |
  |    La          3     4703.62     748.85      0.03  -8.641E+01   0.07 |
  |    La          4     4653.83     655.58      0.09  -8.264E+01   0.16 |
  |    La          5     4599.31     521.26      0.08  -7.725E+01   0.05 |
  |    La          6     4615.78     518.74      0.06  -8.075E+01   0.09 |
  |    La          7     4700.68     785.64      0.10  -8.640E+01   0.11 |
  |    La          8     4555.86     378.22      0.06  -7.515E+01   0.08 |
  |    La          9     4598.81     515.54      0.09  -7.669E+01   0.07 |
  |    La         10     4661.13     653.49      0.08  -8.411E+01   0.12 |
  |    La         11     4541.91     394.67      0.08  -7.245E+01   0.10 |
  |    La         12     4659.82     621.47      0.01  -8.292E+01   0.03 |
  |    La         13     4598.79     526.92      0.08  -7.851E+01   0.10 |
  |    La         14     4558.50     382.75      0.06  -7.548E+01   0.09 |
  |    La         15     4613.08     539.51      0.04  -8.100E+01   0.18 |
  |    La         16     4646.94     657.45      0.10  -8.104E+01   0.12 |

 *********************** Forces ***********************
 *            Cartesian components (eV/A)             *
 *                   x            y            z      *
 * O         1      0.00141      0.00124     -0.00167 *
 * O         2     -0.00108      0.00444      0.00350 *
 * O         3      0.00985      0.00073     -0.00103 *
 * O         4     -0.00093      0.00199     -0.00568 *
 * O         5      0.00083     -0.00051      0.00427 *
 * O         6     -0.00544     -0.00008      0.00196 *
 * O         7      0.00416      0.00428     -0.00417 *
 * O         8     -0.00094     -0.00142      0.00139 *
 * O         9      0.00880      0.01166      0.01402 *
 * O        10     -0.01607     -0.01012      0.01512 *
 * O        11     -0.01140     -0.00241      0.00418 *
 * O        12      0.01060      0.00781      0.00228 *
 * O        13      0.00694      0.01144     -0.00157 *
 * O        14     -0.01184     -0.00028      0.01124 *
 * O        15      0.01106      0.00136     -0.01601 *
 * O        16      0.00059      0.00508     -0.00487 *
 * O        17     -0.01523     -0.01854      0.00341 *
 * O        18     -0.00024      0.00811     -0.00446 *
 * O        19      0.00886     -0.01415     -0.01412 *
 * O        20     -0.00245      0.00907      0.00742 *
 * O        21      0.01227      0.01029     -0.00881 *
 * O        22     -0.00370     -0.00706     -0.00028 *
 * O        23     -0.00868      0.00085     -0.01844 *
 * O        24      0.00516      0.00647     -0.01193 *
 * O        25      0.00357      0.01402     -0.01583 *
 * O        26     -0.00398     -0.00553      0.00198 *
 * O        27     -0.01339     -0.00517     -0.00576 *
 * O        28      0.01359      0.01735     -0.01455 *
 * O        29      0.01849      0.01900     -0.00291 *
 * O        30     -0.00228      0.00814      0.00428 *
 * O        31     -0.00608      0.01612      0.00188 *
 * O        32      0.00702      0.01055     -0.00496 *
 * O        33      0.00439      0.01154     -0.00877 *
 * O        34     -0.00157      0.00060     -0.00333 *
 * O        35     -0.00312      0.00581     -0.00557 *
 * O        36     -0.00441     -0.00749      0.00333 *
 * O        37     -0.00251      0.00143      0.01164 *
 * O        38     -0.00522     -0.00600     -0.00742 *
 * O        39     -0.01707     -0.00206      0.02185 *
 * O        40      0.01680      0.00662      0.02093 *
 * O        41      0.00869     -0.00134      0.00178 *
 * O        42     -0.01669     -0.02059      0.01897 *
 * O        43     -0.02187     -0.02840     -0.00124 *
 * O        44      0.00554     -0.00807     -0.00502 *
 * O        45      0.01109     -0.00686     -0.00320 *
 * O        46     -0.00002     -0.01536      0.01817 *
 * O        47     -0.00148      0.00394     -0.00905 *
 * O        48      0.00823      0.01206      0.00181 *
 * O        49      0.02052      0.00652     -0.01505 *
 * O        50     -0.00497     -0.00769     -0.01667 *
 * O        51     -0.00443      0.01458     -0.01252 *
 * O        52     -0.00921     -0.01011     -0.01438 *
 * O        53      0.00016     -0.00543      0.00630 *
 * O        54      0.00040     -0.00237     -0.00456 *
 * O        55     -0.02707     -0.00629      0.01937 *
 * O        56      0.00758      0.00438      0.01730 *
 * Zr        1      0.02719      0.00016     -0.03132 *
 * Zr        2      0.00820      0.00954     -0.00582 *
 * Zr        3     -0.00226     -0.00626      0.02478 *
 * Zr        4     -0.01897     -0.00899      0.00702 *
[...]
 * La        2      0.00004     -0.00098     -0.00740 *
 * La        3     -0.02719     -0.00707      0.01730 *
 * La        4      0.00798      0.00004      0.00973 *
 * La        5     -0.01693      0.01050     -0.00714 *
 * La        6      0.00085     -0.00038      0.00776 *
 * La        7     -0.00015     -0.00816      0.00825 *
 * La        8     -0.00346      0.00604     -0.00142 *
 * La        9      0.00785     -0.00195      0.00146 *
 * La       10      0.00538      0.00698      0.00104 *
 * La       11      0.00725     -0.00038      0.00441 *
 * La       12      0.01276     -0.00613     -0.01343 *
 * La       13      0.00861     -0.00204     -0.00504 *
 * La       14     -0.00150      0.00380     -0.00463 *
 * La       15     -0.00442      0.00459     -0.00215 *
 * La       16     -0.00209     -0.00720      0.01042 *

 ***************** Stress Tensor *****************
 *          Cartesian components (GPa)           *
 *             x             y             z     *
 *  x      0.049691      0.014774     -0.009191  *
 *  y      0.014774      0.033163     -0.006049  *
 *  z     -0.009191     -0.006049      0.009870  *
 *  Pressure:   -0.0309                          *

[...]

 Pseudo atomic calculation performed for Sn 4d10 5s2 5p2

[...]

 Pseudo atomic calculation performed for La 5s2 5p6 5d1 6s2

 Converged in 34 iterations to a total energy of -968.0372 eV

Charge spilling parameter for spin component 1 = 0.25%

     Atomic Populations (Mulliken)
Species   Ion     s      p      d      f     Total  Charge (e)
  O        1     1.87   5.00   0.00   0.00   6.87    -0.87
  O        2     1.87   5.00   0.00   0.00   6.87    -0.87
  O        3     1.87   5.00   0.00   0.00   6.87    -0.87
  O        4     1.87   5.00   0.00   0.00   6.87    -0.87
  O        5     1.87   5.00   0.00   0.00   6.87    -0.87
  O        6     1.87   5.00   0.00   0.00   6.87    -0.87
  O        7     1.87   5.00   0.00   0.00   6.87    -0.87
  O        8     1.87   5.00   0.00   0.00   6.87    -0.87
  O        9     1.87   4.99   0.00   0.00   6.86    -0.86
  O       10     1.87   4.99   0.00   0.00   6.86    -0.86
  O       11     1.88   5.02   0.00   0.00   6.91    -0.91
  O       12     1.88   5.02   0.00   0.00   6.91    -0.91
  O       13     1.88   5.03   0.00   0.00   6.91    -0.91
  O       14     1.87   4.99   0.00   0.00   6.86    -0.86
  O       15     1.87   4.99   0.00   0.00   6.86    -0.86
  O       16     1.88   5.03   0.00   0.00   6.91    -0.91
  O       17     1.87   4.99   0.00   0.00   6.86    -0.86
  O       18     1.88   5.03   0.00   0.00   6.91    -0.91
  O       19     1.87   4.99   0.00   0.00   6.86    -0.86
  O       20     1.86   4.95   0.00   0.00   6.80    -0.80
  O       21     1.88   5.03   0.00   0.00   6.91    -0.91
  O       22     1.88   5.03   0.00   0.00   6.91    -0.91
  O       23     1.87   4.99   0.00   0.00   6.86    -0.86
  O       24     1.87   4.99   0.00   0.00   6.86    -0.86
  O       25     1.87   4.99   0.00   0.00   6.86    -0.86
  O       26     1.88   5.03   0.00   0.00   6.91    -0.91
  O       27     1.86   4.95   0.00   0.00   6.80    -0.80
  O       28     1.87   4.99   0.00   0.00   6.86    -0.86
  O       29     1.87   4.99   0.00   0.00   6.86    -0.86
  O       30     1.88   5.03   0.00   0.00   6.91    -0.91
  O       31     1.87   4.99   0.00   0.00   6.86    -0.86
  O       32     1.88   5.03   0.00   0.00   6.91    -0.91
  O       33     1.88   5.03   0.00   0.00   6.91    -0.91
  O       34     1.88   5.03   0.00   0.00   6.91    -0.91
  O       35     1.86   4.95   0.00   0.00   6.80    -0.80
  O       36     1.88   5.03   0.00   0.00   6.91    -0.91
  O       37     1.88   5.03   0.00   0.00   6.91    -0.91
  O       38     1.86   4.95   0.00   0.00   6.80    -0.80
  O       39     1.87   4.99   0.00   0.00   6.86    -0.86
  O       40     1.87   4.99   0.00   0.00   6.86    -0.86
  O       41     1.88   5.02   0.00   0.00   6.91    -0.91
  O       42     1.87   4.99   0.00   0.00   6.86    -0.86
  O       43     1.87   4.99   0.00   0.00   6.86    -0.86
  O       44     1.88   5.02   0.00   0.00   6.91    -0.91
  O       45     1.86   4.95   0.00   0.00   6.80    -0.80
  O       46     1.87   4.99   0.00   0.00   6.86    -0.86
  O       47     1.88   5.03   0.00   0.00   6.91    -0.91
  O       48     1.87   4.99   0.00   0.00   6.86    -0.86
  O       49     1.87   4.99   0.00   0.00   6.86    -0.86
  O       50     1.87   4.99   0.00   0.00   6.86    -0.86
  O       51     1.87   4.99   0.00   0.00   6.86    -0.86
  O       52     1.87   4.99   0.00   0.00   6.86    -0.86
  O       53     1.88   5.03   0.00   0.00   6.91    -0.91
  O       54     1.86   4.95   0.00   0.00   6.80    -0.80
  O       55     1.87   4.99   0.00   0.00   6.86    -0.86
  O       56     1.87   4.99   0.00   0.00   6.86    -0.86
  Zr       1     2.37   6.48   1.92   0.00  10.77     1.23
  Zr       2     2.36   6.49   1.92   0.00  10.77     1.23
  Zr       3     2.36   6.49   1.92   0.00  10.78     1.22
  Zr       4     2.36   6.47   1.92   0.00  10.76     1.24
[...]
  La       2     2.12   6.19   1.19   0.00   9.50     1.50
  La       3     2.02   6.17   1.20   0.00   9.38     1.62
  La       4     2.04   6.17   1.19   0.00   9.41     1.59
  La       5     2.10   6.18   1.19   0.00   9.47     1.53
  La       6     2.05   6.19   1.19   0.00   9.44     1.56
  La       7     2.02   6.16   1.20   0.00   9.38     1.62
  La       8     2.11   6.20   1.19   0.00   9.50     1.50
  La       9     2.10   6.18   1.19   0.00   9.47     1.53
  La      10     2.03   6.17   1.19   0.00   9.40     1.60
  La      11     2.10   6.19   1.19   0.00   9.49     1.51
  La      12     2.04   6.18   1.19   0.00   9.41     1.59
  La      13     2.07   6.18   1.19   0.00   9.44     1.56
  La      14     2.09   6.20   1.19   0.00   9.48     1.52
  La      15     2.08   6.18   1.19   0.00   9.45     1.55
  La      16     2.05   6.17   1.20   0.00   9.41     1.59

            Bond              Population      Length (A)
         O 42 -- Sn 7              0.35        2.09915
         O 9  -- Sn 9              0.35        2.09922
         O 10 -- Sn 3              0.34        2.10006
         O 19 -- Sn 5              0.34        2.10111
         O 52 -- Sn 9              0.35        2.10143
         O 43 -- Sn 8              0.35        2.10420
         O 53 -- Sn 4              0.34        2.10562
         O 40 -- Sn 1              0.34        2.10590
         O 49 -- Sn 2              0.35        2.10592
         O 29 -- Sn 8              0.35        2.10592
         O 39 -- Sn 2              0.35        2.10604
         O 33 -- Sn 1              0.34        2.10622
         O 56 -- Sn 5              0.34        2.10625
         O 47 -- Sn 3              0.34        2.10628
         O 47 -- Sn 2              0.33        2.10638
         O 28 -- Sn 5              0.34        2.10684
         O 14 -- Sn 9              0.34        2.10686
         O 24 -- Sn 9              0.34        2.10698
         O 33 -- Sn 6              0.33        2.10715
         O 36 -- Sn 10             0.34        2.10721
         O 15 -- Sn 6              0.34        2.10760
         O 50 -- Sn 7              0.34        2.10771
         O 31 -- Sn 3              0.34        2.10802
         O 55 -- Sn 4              0.34        2.10846
         O 36 -- Sn 1              0.34        2.10855
         O 25 -- Sn 7              0.35        2.10897
         O 21 -- Sn 6              0.34        2.10906
         O 37 -- Sn 5              0.34        2.10937
         O 16 -- Sn 10             0.34        2.10948
         O 23 -- Sn 3              0.34        2.10951
         O 53 -- Sn 1              0.33        2.10958
         O 32 -- Sn 6              0.34        2.10981
         O 45 -- Zr 6              0.41        2.10987
         O 37 -- Sn 2              0.33        2.10993
         O 16 -- Sn 3              0.33        2.11034
         O 17 -- Sn 10             0.34        2.11065
         O 22 -- Sn 5              0.34        2.11073
         O 18 -- Sn 4              0.34        2.11085
         O 48 -- Sn 6              0.34        2.11088
         O 13 -- Sn 8              0.33        2.11097
         O 13 -- Sn 7              0.34        2.11116
         O 22 -- Sn 8              0.33        2.11139
         O 51 -- Sn 3              0.34        2.11141
         O 45 -- Zr 1              0.41        2.11188
         O 26 -- Sn 10             0.33        2.11273
         O 21 -- Sn 4              0.34        2.11275
         O 32 -- Sn 10             0.34        2.11276
         O 26 -- Sn 4              0.33        2.11363
         O 46 -- Sn 1              0.34        2.11387
         O 10 -- Zr 5              0.44        2.11452
         O 28 -- Zr 3              0.44        2.11459
         O 30 -- Sn 7              0.33        2.11461
         O 27 -- Zr 4              0.42        2.11490
         O 18 -- Sn 7              0.33        2.11499
         O 43 -- Zr 2              0.44        2.11515
         O 20 -- Zr 3              0.41        2.11525
         O 34 -- Sn 8              0.33        2.11532
         O 30 -- Sn 9              0.33        2.11655
         O 34 -- Sn 2              0.33        2.11686
         O 42 -- Zr 2              0.44        2.11706
[...]
         O 20 -- O 23             -0.03        2.82888
         O 35 -- O 43             -0.03        2.82963
         O 9  -- O 38             -0.03        2.83006
         O 46 -- O 49             -0.03        2.83091
         O 25 -- O 39             -0.03        2.83142
         O 15 -- O 27             -0.03        2.83206
         O 43 -- O 51             -0.03        2.83252
         O 14 -- O 29             -0.03        2.83369
         O 51 -- O 55             -0.03        2.83396
         O 17 -- O 25             -0.03        2.83472
         O 29 -- O 46             -0.03        2.83474
         O 17 -- O 24             -0.03        2.83490
         O 48 -- O 50             -0.03        2.83602
         O 15 -- O 31             -0.03        2.83604
         O 48 -- O 52             -0.03        2.83745

Writing analysis data to 048.castep_bin

Writing model to 048.check

 A BibTeX formatted list of references used in this run has been written to
 048.bib

Initialisation time =     54.04 s
Calculation time    =  34387.82 s
Finalisation time   =     35.49 s
Total time          =  34477.35 s

Overall parallel efficiency rating: Good (78%)

Data was distributed by:-
G-vector (4-way); efficiency rating: Good (79%)
k-point (14-way); efficiency rating: Excellent (98%)