 Compiled for linux_x86_64_ifort16 on Sat, 23 Jul 2016 23:44:54 +0100
 from code version
 203e84763863+ Castep161_branch Fri, 04 Mar 2016 19:21:07 +0000
 Compiler: Intel Fortran 16.0.3.210; Optimisation: fast
 MATHLIBS: Intel MKL(11.3.3) (LAPACK version 3.6.0)
 FFT Lib : mkl
 Fundamental constants values: CODATA 2010

 Run started: Sat, 14 Apr 2018 06:30:27 +0100
 |           N   N    M   M    RRRR                |
 |           NN  N    MM MM    R   R               |
 |           N N N    M M M    RRRR                |
 |           N  NN    M   M    R  R                |
 |           N   N    M   M    R   R               |
 | Welcome to Materials Studio CASTEP-NMR          |
 | Authors:                                        |
 | J.R. Yates, C.J. Pickard, F. Mauri              |
 | Contributors:                                   |
 | T.F.G. Green, S.A. Joyce                        |
 | Copyright (c) 2004 - 2015                       |
 | Please cite the appropriate publications in all |
 | work arising from your use of CASTEP NMR.       |
 | For NMR Shielding Tensors cite:                 |
 |    "All-electron magnetic response with         |
 |    pseudopotentials: NMR chemical shifts",      |
 |    C. J. Pickard, F. Mauri;                     |
 |    Physical Review B63 245101 (2001), and       |
 |    "Calculation of NMR Chemical Shifts          |
 |    for extended systems using                   |
 |    Ultrasoft Pseudopotentials",                 |
 |    J. R. Yates, C. J. Pickard and F. Mauri      |
 |    Physical Review B76 024401 (2007)            |
 | For Electric Field Gradients cite:              |
 |   "Accurate First Principles Prediction of 17O  |
 |    NMR Parameters in SiO2: Assignment of the    |
 |    Zeolite Ferrierite Spectrum"                 |
 |    M. Profeta, F. Mauri and C. J. Pickard       |
 |    J. Amer. Chem. Soc. 125 541 (2003)           |
 | For Spin-Spin (J) Couplings cite:               |
 |   "A first principles theory of NMR J-coupling  |
 |   in solid-state systems"                       |
 |   S.A. Joyce, J.R. Yates, C.J. Pickard, F. Mauri|
 |   J. Chem. Phys. 127 204107 (2007)              |
 |   "Relativistic NMR J-coupling with ultrasoft   |
 |   pseudopotentials and the zeroth-order regular |
 |   approximation"                                |
 |   T.F.G. Green and J.R. Yates                   |
 |   J. Chem. Phys. 140 234106 (2014)              |

 Atomic calculation performed for O: 1s2 2s2 2p4

 Converged in 44 iterations to an ae energy of -2040.855 eV

 Atomic calculation performed for O: 1s2 2s2 2p4

 Exceeded max iterations: converged to 0.000000062 eV

   | Pseudopotential Report - Date of generation 14-04-2018   |
   | Element: O Ionic charge:  6.00 Level of theory: PBE      |
   | Atomic Solver: ZORA (scalar)                             |
   |               Reference Electronic Structure             |
   |         Orbital         Occupation         Energy        |
   |            2s              2.000           -0.881        |
   |            2p              4.000           -0.332        |
   |                 Pseudopotential Definition               |
   |        Beta     l      e      Rc     scheme   norm       |
   |          1      0   -0.881   1.100     qc      0         |
   |          2      0    0.250   1.100     qc      0         |
   |          3      1   -0.332   1.100     qc      0         |
   |          4      1    0.250   1.100     qc      0         |
   |         loc     2    0.000   1.100     pn      0         |
   | Augmentation charge Rinner = 0.769                       |
   | Partial core correction Rc = 0.769                       |
   | "2|1.1|15|18|20|20:21(qc=7)"                             |
   |      Author: Chris J. Pickard, Cambridge University      |

 Atomic calculation performed for Zr: 1s2 2s2 2p6 3s2 3p6 3d10 4s2 4p6 4d2 5s2

[...]

 Atomic calculation performed for Zr: 1s2 2s2 2p6 3s2 3p6 3d10 4s2 4p6 4d2 5s2

[...]

 Warning: ion_atom_descreen_psp: negative charge density encountered
   | Pseudopotential Report - Date of generation 14-04-2018   |
   | Element: Zr Ionic charge: 12.00 Level of theory: PBE     |
   | Atomic Solver: ZORA (scalar)                             |
   |               Reference Electronic Structure             |
   |         Orbital         Occupation         Energy        |
   |            4s              2.000           -2.003        |
   |            4p              6.000           -1.193        |
   |            5s              2.000           -0.163        |
   |            4d              2.000           -0.132        |
   |                 Pseudopotential Definition               |
   |        Beta     l      e      Rc     scheme   norm       |
   |          1      0   -2.003   2.105     qc      0         |
   |          2      0   -0.163   2.105     qc      0         |
   |          3      0    0.250   2.105     qc      0         |
   |          4      1   -1.193   2.105     qc      0         |
   |          5      1    0.250   2.105     qc      0         |
   |          6      2   -0.132   2.105     qc      0         |
   |          7      2    0.250   2.105     qc      0         |
   |         loc     3    0.000   2.105     pn      0         |
   | Augmentation charge Rinner = 1.471                       |
   | Partial core correction Rc = 1.471                       |
   | "3|2.1|7|8|9|40U:50:41:42"                               |
   |      Author: Chris J. Pickard, Cambridge University      |

 Atomic calculation performed for Sn:

[...]

 Atomic calculation performed for Sn:

[...]

   | Pseudopotential Report - Date of generation 14-04-2018   |
   | Element: Sn Ionic charge: 14.00 Level of theory: PBE     |
   | Atomic Solver: ZORA (scalar)                             |
   |               Reference Electronic Structure             |
   |         Orbital         Occupation         Energy        |
   |            4d             10.000           -0.950        |
   |            5s              2.000           -0.388        |
   |            5p              2.000           -0.136        |
   |                 Pseudopotential Definition               |
   |        Beta     l      e      Rc     scheme   norm       |
   |          1      0   -0.388   2.199     qc      0         |
   |          2      0    0.250   2.199     qc      0         |
   |          3      1   -0.136   2.199     qc      0         |
   |          4      1    0.250   2.199     qc      0         |
   |          5      2   -0.950   2.199     qc      0         |
   |          6      2    0.250   2.199     qc      0         |
   |         loc     3    0.000   2.199     pn      0         |
   | Augmentation charge Rinner = 1.537                       |
   | Partial core correction Rc = 1.537                       |
   | "3|2.2|7|8|9|50:51:42"                                   |
   |      Author: Chris J. Pickard, Cambridge University      |

 Atomic calculation performed for La:

 Converged in 56 iterations to an ae energy of -230121.495 eV

 Atomic calculation performed for La:

 Exceeded max iterations: converged to 0.000000907 eV

 Warning: ion_atom_descreen_psp: negative charge density encountered
   | Pseudopotential Report - Date of generation 14-04-2018   |
   | Element: La Ionic charge: 11.00 Level of theory: PBE     |
   | Atomic Solver: ZORA (scalar)                             |
   |               Reference Electronic Structure             |
   |         Orbital         Occupation         Energy        |
   |            5s              2.000           -1.430        |
   |            5p              6.000           -0.823        |
   |            6s              2.000           -0.135        |
   |            5d              1.000           -0.114        |
   |                 Pseudopotential Definition               |
   |        Beta     l      e      Rc     scheme   norm       |
   |          1      0   -1.430   2.298     qc      0         |
   |          2      0   -0.135   2.298     qc      0         |
   |          3      0    0.250   2.298     qc      0         |
   |          4      1   -0.823   2.298     qc      0         |
   |          5      1    0.250   2.298     qc      0         |
   |          6      2   -0.114   2.298     qc      0         |
   |          7      2    0.250   2.298     qc      0         |
   |         loc     2    0.000   2.298     pn      0         |
   | Augmentation charge Rinner = 1.606                       |
   | Partial core correction Rc = 1.606                       |
   | "2|2.3|5|6|7|50U:60:51:52(qc=4.5)"                       |
   |      Author: Chris J. Pickard, Cambridge University      |

 Pseudo atomic calculation performed for O 2s2 2p4

 Converged in 39 iterations to a total energy of -432.6554 eV

 Pseudo atomic calculation performed for Zr 4s2 4p6 4d2 5s2

[...]

 Calculation parallelised over 56 processes.
 Data is distributed by G-vector(4-way) and k-point(14-way)

 ************************************ Title ************************************
 nmr testing

 ***************************** General Parameters ******************************

 output verbosity                               : normal  (1)
 write checkpoint data to                       : 056.check
 type of calculation                            : Magnetic Resonance
 stress calculation                             : on
 density difference calculation                 : off
 electron localisation func (ELF) calculation   : off
 Hirshfeld analysis                             : off
 unlimited duration calculation
 timing information                             : on
 write final potential to formatted file        : off
 write final density to formatted file          : off
 write structure in CIF formatted file          : on
 write structure in CELL formatted file         : on
 write BibTeX reference list                    : on
 write OTFG pseudopotential files               : on
 checkpoint writing                             : both castep_bin and check files

 output         length unit                     : A
 output           mass unit                     : amu
 output           time unit                     : ps
 output         charge unit                     : e
 output           spin unit                     : hbar/2
 output         energy unit                     : eV
 output          force unit                     : eV/A
 output       velocity unit                     : A/ps
 output       pressure unit                     : GPa
 output     inv_length unit                     : 1/A
 output      frequency unit                     : cm-1
 output force constant unit                     : eV/A**2
 output         volume unit                     : A**3
 output   IR intensity unit                     : (D/A)**2/amu
 output         dipole unit                     : D
 output         efield unit                     : eV/A/e
 output        entropy unit                     : J/mol/K

 wavefunctions paging                           : none
 random number generator seed                   : randomised (63029454)
 data distribution                              : optimal for this architecture
[...]
  |    O          42      -89.26      87.48      0.22  -3.221E+00   0.09 |
  |    O          43      -89.04      86.68      0.22  -3.224E+00   0.09 |
  |    O          44      -13.65      57.93      0.58   3.856E+00   0.88 |
  |    O          45     -160.58     154.08      0.81   1.031E+00   0.79 |
  |    O          46      -88.22      84.80      0.13  -3.129E+00   0.05 |
  |    O          47       -4.09      55.52      0.83   3.914E+00   0.88 |
  |    O          48      -83.67      84.37      0.19  -3.104E+00   0.06 |
  |    O          49      -87.10      86.43      0.14  -3.166E+00   0.04 |
  |    O          50      -84.97      86.81      0.18  -3.202E+00   0.09 |
  |    O          51      -87.10      86.44      0.14  -3.166E+00   0.04 |
  |    O          52      -84.98      86.80      0.18  -3.202E+00   0.09 |
  |    O          53      -20.39     -37.35      0.87   3.879E+00   0.89 |
  |    O          54     -165.14     155.39      0.82   1.006E+00   0.82 |
  |    O          55      -88.22      84.79      0.13  -3.129E+00   0.05 |
  |    O          56     -160.58     154.09      0.81   1.031E+00   0.79 |
  |    Zr          1     1629.33    -126.81      0.26  -3.708E+01   0.09 |
  |    Zr          2     1611.39    -116.26      0.09  -3.514E+01   0.08 |
  |    Zr          3     1611.39    -116.25      0.09  -3.514E+01   0.08 |
  |    Zr          4     1611.61    -116.42      0.09  -3.517E+01   0.10 |
[...]
  |    La          2     4599.30     515.68      0.07  -7.665E+01   0.05 |
  |    La          3     4698.59     753.01      0.02  -8.484E+01   0.05 |
  |    La          4     4606.86     523.70      0.07  -7.987E+01   0.11 |
  |    La          5     4599.30     515.68      0.07  -7.665E+01   0.05 |
  |    La          6     4606.86     523.70      0.07  -7.987E+01   0.11 |
  |    La          7     4698.59     753.00      0.02  -8.484E+01   0.05 |
  |    La          8     4607.11     524.80      0.07  -7.989E+01   0.11 |
  |    La          9     4599.52     516.90      0.06  -7.671E+01   0.05 |
  |    La         10     4612.41     537.26      0.05  -8.095E+01   0.18 |
  |    La         11     4488.11     230.87      0.00  -6.776E+01   0.00 |
  |    La         12     4607.18     525.11      0.07  -7.994E+01   0.11 |
  |    La         13     4607.11     524.80      0.07  -7.989E+01   0.11 |
  |    La         14     4607.18     525.10      0.07  -7.994E+01   0.11 |
  |    La         15     4612.41     537.25      0.05  -8.095E+01   0.18 |
  |    La         16     4698.57     752.77      0.02  -8.477E+01   0.05 |

 *********************** Forces ***********************
 *            Cartesian components (eV/A)             *
 *                   x            y            z      *
 * O         1      0.00252      0.00252     -0.00317 *
 * O         2     -0.00029      0.01069     -0.00115 *
 * O         3      0.01069     -0.00029     -0.00115 *
 * O         4     -0.00040     -0.00040     -0.01263 *
 * O         5     -0.00276     -0.00231      0.00212 *
 * O         6     -0.00410     -0.00410      0.00207 *
 * O         7      0.00548      0.00548     -0.00530 *
 * O         8     -0.00231     -0.00276      0.00212 *
 * O         9      0.01295      0.00373     -0.00123 *
 * O        10     -0.00876     -0.01476      0.01587 *
 * O        11      0.00564      0.00948     -0.00978 *
 * O        12      0.00503      0.00476      0.00238 *
 * O        13      0.00373      0.01295     -0.00123 *
 * O        14     -0.01896     -0.00762      0.01527 *
 * O        15      0.00947      0.00564     -0.00978 *
 * O        16     -0.00520      0.00525     -0.00627 *
 * O        17     -0.01754     -0.01754      0.00314 *
 * O        18     -0.00440      0.00444     -0.00660 *
 * O        19     -0.00355     -0.00355     -0.01832 *
 * O        20     -0.01856     -0.01602      0.00783 *
 * O        21      0.01222      0.00604     -0.01341 *
 * O        22      0.01792     -0.00772      0.01036 *
 * O        23      0.00343     -0.00562     -0.00243 *
 * O        24      0.01342      0.00229     -0.01552 *
 * O        25      0.00229      0.01342     -0.01552 *
 * O        26     -0.00718     -0.00647      0.00553 *
 * O        27     -0.00772      0.01792      0.01036 *
 * O        28      0.01590      0.00083     -0.00029 *
 * O        29      0.01280      0.01363     -0.00432 *
 * O        30      0.00183      0.00183      0.00292 *
 * O        31     -0.00829      0.01586      0.00780 *
 * O        32      0.01121      0.01121     -0.00767 *
 * O        33      0.00604      0.01222     -0.01341 *
 * O        34     -0.00561      0.00343     -0.00243 *
 * O        35      0.00083      0.01590     -0.00029 *
 * O        36     -0.00647     -0.00718      0.00553 *
 * O        37      0.01586     -0.00829      0.00780 *
 * O        38      0.01363      0.01280     -0.00432 *
 * O        39     -0.01475     -0.00876      0.01587 *
 * O        40      0.00476      0.00503      0.00238 *
 * O        41      0.00525     -0.00520     -0.00627 *
 * O        42     -0.00762     -0.01896      0.01527 *
 * O        43     -0.01602     -0.01856      0.00783 *
 * O        44      0.00444     -0.00440     -0.00660 *
 * O        45      0.01580     -0.00167      0.00986 *
 * O        46     -0.00523     -0.01744      0.01766 *
 * O        47      0.00234      0.00234     -0.01258 *
 * O        48      0.00995      0.00995     -0.00336 *
 * O        49      0.01170      0.00378     -0.01290 *
 * O        50     -0.00724     -0.00959     -0.01161 *
 * O        51      0.00378      0.01170     -0.01290 *
 * O        52     -0.00959     -0.00724     -0.01161 *
 * O        53     -0.00695     -0.00695      0.00660 *
 * O        54      0.00012      0.00012     -0.01205 *
 * O        55     -0.01744     -0.00523      0.01766 *
 * O        56     -0.00167      0.01580      0.00986 *
 * Zr        1      0.01883      0.01883     -0.02010 *
 * Zr        2     -0.00373      0.00836      0.01084 *
 * Zr        3      0.00836     -0.00373      0.01084 *
 * Zr        4     -0.00338     -0.00338     -0.02428 *
[...]
 * La        2      0.00374     -0.01108     -0.00809 *
 * La        3     -0.02342     -0.01243      0.01253 *
 * La        4      0.00824     -0.00041      0.00939 *
 * La        5     -0.01108      0.00374     -0.00809 *
 * La        6     -0.00041      0.00824      0.00939 *
 * La        7     -0.01243     -0.02342      0.01253 *
 * La        8     -0.00466      0.00849     -0.00374 *
 * La        9      0.00688      0.00688      0.01169 *
 * La       10     -0.00106      0.00122     -0.00303 *
 * La       11      0.00010      0.00010     -0.00116 *
 * La       12      0.00586     -0.00305     -0.01027 *
 * La       13      0.00849     -0.00466     -0.00374 *
 * La       14     -0.00305      0.00586     -0.01027 *
 * La       15      0.00122     -0.00106     -0.00303 *
 * La       16     -0.01241     -0.01241      0.01752 *

 ***************** Stress Tensor *****************
 *          Cartesian components (GPa)           *
 *             x             y             z     *
 *  x      0.039202      0.014161     -0.014497  *
 *  y      0.014161      0.039201     -0.014497  *
 *  z     -0.014497     -0.014497      0.026857  *
 *  Pressure:   -0.0351                          *

[...]

 Pseudo atomic calculation performed for Sn 4d10 5s2 5p2

[...]

 Pseudo atomic calculation performed for La 5s2 5p6 5d1 6s2

 Converged in 34 iterations to a total energy of -968.0372 eV

Charge spilling parameter for spin component 1 = 0.25%

     Atomic Populations (Mulliken)
Species   Ion     s      p      d      f     Total  Charge (e)
  O        1     1.87   5.00   0.00   0.00   6.87    -0.87
  O        2     1.87   5.00   0.00   0.00   6.87    -0.87
  O        3     1.87   5.00   0.00   0.00   6.87    -0.87
  O        4     1.87   5.00   0.00   0.00   6.87    -0.87
  O        5     1.87   5.00   0.00   0.00   6.87    -0.87
  O        6     1.87   5.00   0.00   0.00   6.87    -0.87
  O        7     1.87   5.00   0.00   0.00   6.87    -0.87
  O        8     1.87   5.00   0.00   0.00   6.87    -0.87
  O        9     1.88   5.03   0.00   0.00   6.91    -0.91
  O       10     1.87   4.99   0.00   0.00   6.86    -0.86
  O       11     1.87   4.99   0.00   0.00   6.86    -0.86
  O       12     1.88   5.03   0.00   0.00   6.91    -0.91
  O       13     1.88   5.03   0.00   0.00   6.91    -0.91
  O       14     1.87   4.99   0.00   0.00   6.86    -0.86
  O       15     1.87   4.99   0.00   0.00   6.86    -0.86
  O       16     1.88   5.03   0.00   0.00   6.91    -0.91
  O       17     1.87   4.99   0.00   0.00   6.86    -0.86
  O       18     1.88   5.03   0.00   0.00   6.91    -0.91
  O       19     1.86   4.95   0.00   0.00   6.80    -0.80
  O       20     1.87   4.99   0.00   0.00   6.86    -0.86
  O       21     1.88   5.03   0.00   0.00   6.91    -0.91
  O       22     1.87   4.99   0.00   0.00   6.86    -0.86
  O       23     1.88   5.02   0.00   0.00   6.91    -0.91
  O       24     1.87   4.99   0.00   0.00   6.86    -0.86
  O       25     1.87   4.99   0.00   0.00   6.86    -0.86
  O       26     1.88   5.03   0.00   0.00   6.91    -0.91
  O       27     1.87   4.99   0.00   0.00   6.86    -0.86
  O       28     1.86   4.95   0.00   0.00   6.80    -0.80
  O       29     1.87   4.99   0.00   0.00   6.86    -0.86
  O       30     1.88   5.02   0.00   0.00   6.91    -0.91
  O       31     1.87   4.99   0.00   0.00   6.86    -0.86
  O       32     1.88   5.03   0.00   0.00   6.91    -0.91
  O       33     1.88   5.03   0.00   0.00   6.91    -0.91
  O       34     1.88   5.02   0.00   0.00   6.91    -0.91
  O       35     1.86   4.95   0.00   0.00   6.80    -0.80
  O       36     1.88   5.03   0.00   0.00   6.91    -0.91
  O       37     1.87   4.99   0.00   0.00   6.86    -0.86
  O       38     1.87   4.99   0.00   0.00   6.86    -0.86
  O       39     1.87   4.99   0.00   0.00   6.86    -0.86
  O       40     1.88   5.03   0.00   0.00   6.91    -0.91
  O       41     1.88   5.03   0.00   0.00   6.91    -0.91
  O       42     1.87   4.99   0.00   0.00   6.86    -0.86
  O       43     1.87   4.99   0.00   0.00   6.86    -0.86
  O       44     1.88   5.03   0.00   0.00   6.91    -0.91
  O       45     1.86   4.95   0.00   0.00   6.80    -0.80
  O       46     1.87   4.99   0.00   0.00   6.86    -0.86
  O       47     1.88   5.03   0.00   0.00   6.91    -0.91
  O       48     1.87   4.99   0.00   0.00   6.86    -0.86
  O       49     1.87   4.99   0.00   0.00   6.86    -0.86
  O       50     1.87   4.99   0.00   0.00   6.86    -0.86
  O       51     1.87   4.99   0.00   0.00   6.86    -0.86
  O       52     1.87   4.99   0.00   0.00   6.86    -0.86
  O       53     1.88   5.03   0.00   0.00   6.91    -0.91
  O       54     1.86   4.95   0.00   0.00   6.80    -0.80
  O       55     1.87   4.99   0.00   0.00   6.86    -0.86
  O       56     1.86   4.95   0.00   0.00   6.80    -0.80
  Zr       1     2.37   6.47   1.92   0.00  10.77     1.23
  Zr       2     2.36   6.49   1.92   0.00  10.78     1.22
  Zr       3     2.36   6.49   1.92   0.00  10.78     1.22
  Zr       4     2.36   6.49   1.92   0.00  10.78     1.22
[...]
  La       2     2.10   6.18   1.19   0.00   9.47     1.53
  La       3     2.02   6.16   1.20   0.00   9.38     1.62
  La       4     2.06   6.18   1.19   0.00   9.44     1.56
  La       5     2.10   6.18   1.19   0.00   9.47     1.53
  La       6     2.06   6.18   1.19   0.00   9.44     1.56
  La       7     2.02   6.16   1.20   0.00   9.38     1.62
  La       8     2.06   6.18   1.19   0.00   9.44     1.56
  La       9     2.10   6.18   1.19   0.00   9.47     1.53
  La      10     2.07   6.18   1.19   0.00   9.45     1.55
  La      11     2.13   6.20   1.19   0.00   9.52     1.48
  La      12     2.06   6.18   1.19   0.00   9.44     1.56
  La      13     2.06   6.18   1.19   0.00   9.44     1.56
  La      14     2.06   6.18   1.19   0.00   9.44     1.56
  La      15     2.07   6.18   1.19   0.00   9.45     1.55
  La      16     2.02   6.16   1.20   0.00   9.38     1.62

            Bond              Population      Length (A)
         O 52 -- Sn 9              0.34        2.10243
         O 50 -- Sn 7              0.34        2.10243
         O 27 -- Sn 5              0.34        2.10266
         O 22 -- Sn 8              0.34        2.10266
         O 37 -- Sn 2              0.34        2.10268
         O 31 -- Sn 3              0.34        2.10268
         O 43 -- Sn 8              0.35        2.10358
         O 20 -- Sn 5              0.35        2.10358
         O 10 -- Sn 3              0.35        2.10361
         O 39 -- Sn 2              0.35        2.10361
         O 14 -- Sn 9              0.35        2.10361
         O 42 -- Sn 7              0.35        2.10361
         O 33 -- Sn 6              0.34        2.10614
         O 21 -- Sn 6              0.34        2.10614
         O 32 -- Sn 6              0.34        2.10629
         O 13 -- Sn 8              0.34        2.10666
         O 9  -- Sn 5              0.34        2.10666
         O 47 -- Sn 2              0.34        2.10677
         O 47 -- Sn 3              0.34        2.10677
         O 9  -- Sn 9              0.34        2.10703
         O 13 -- Sn 7              0.34        2.10703
         O 33 -- Sn 1              0.34        2.10900
         O 21 -- Sn 4              0.34        2.10900
         O 32 -- Sn 10             0.34        2.10907
         O 17 -- Sn 10             0.34        2.10976
         O 46 -- Sn 1              0.34        2.10976
         O 55 -- Sn 4              0.34        2.10976
         O 29 -- Sn 8              0.35        2.10990
         O 38 -- Sn 5              0.35        2.10990
         O 51 -- Sn 3              0.35        2.10990
         O 49 -- Sn 2              0.35        2.10990
         O 25 -- Sn 7              0.35        2.11001
         O 24 -- Sn 9              0.35        2.11001
         O 36 -- Sn 1              0.33        2.11167
         O 26 -- Sn 4              0.33        2.11167
         O 36 -- Sn 10             0.33        2.11169
         O 26 -- Sn 10             0.33        2.11169
         O 53 -- Sn 4              0.33        2.11179
         O 53 -- Sn 1              0.33        2.11179
         O 28 -- Zr 3              0.42        2.11193
         O 35 -- Zr 2              0.42        2.11193
         O 54 -- Zr 4              0.42        2.11199
         O 48 -- Sn 6              0.34        2.11250
         O 11 -- Sn 6              0.34        2.11286
         O 15 -- Sn 6              0.34        2.11286
         O 40 -- Sn 1              0.34        2.11380
         O 12 -- Sn 4              0.34        2.11380
         O 44 -- Sn 1              0.34        2.11380
         O 18 -- Sn 4              0.34        2.11380
         O 16 -- Sn 10             0.34        2.11383
         O 41 -- Sn 10             0.34        2.11383
         O 56 -- Zr 1              0.42        2.11518
         O 45 -- Zr 1              0.42        2.11518
         O 16 -- Sn 3              0.33        2.11587
         O 41 -- Sn 2              0.33        2.11587
         O 40 -- Sn 5              0.33        2.11590
         O 12 -- Sn 8              0.33        2.11590
         O 18 -- Sn 7              0.33        2.11609
         O 44 -- Sn 9              0.33        2.11609
         O 22 -- Zr 5              0.44        2.11611
[...]
         O 14 -- O 29             -0.03        2.82918
         O 43 -- O 51             -0.03        2.82921
         O 20 -- O 49             -0.03        2.82921
         O 46 -- O 49             -0.03        2.83452
         O 51 -- O 55             -0.03        2.83452
         O 17 -- O 25             -0.03        2.83455
         O 17 -- O 24             -0.03        2.83455
         O 29 -- O 46             -0.03        2.83464
         O 38 -- O 55             -0.03        2.83464
         O 11 -- O 22             -0.03        2.83801
         O 15 -- O 27             -0.03        2.83801
         O 48 -- O 52             -0.03        2.83813
         O 48 -- O 50             -0.03        2.83813
         O 11 -- O 37             -0.03        2.83819
         O 15 -- O 31             -0.03        2.83819

Writing analysis data to 056.castep_bin

Writing model to 056.check

 A BibTeX formatted list of references used in this run has been written to
 056.bib

Initialisation time =     55.03 s
Calculation time    =  33895.58 s
Finalisation time   =     54.47 s
Total time          =  34005.07 s

Overall parallel efficiency rating: Good (78%)

Data was distributed by:-
G-vector (4-way); efficiency rating: Good (79%)
k-point (14-way); efficiency rating: Excellent (99%)