 Compiled for linux_x86_64_ifort16 on Sat, 23 Jul 2016 23:44:54 +0100
 from code version
 203e84763863+ Castep161_branch Fri, 04 Mar 2016 19:21:07 +0000
 Compiler: Intel Fortran 16.0.3.210; Optimisation: fast
 MATHLIBS: Intel MKL(11.3.3) (LAPACK version 3.6.0)
 FFT Lib : mkl
 Fundamental constants values: CODATA 2010

 Run started: Thu, 19 Apr 2018 04:59:15 +0100
 |           N   N    M   M    RRRR                |
 |           NN  N    MM MM    R   R               |
 |           N N N    M M M    RRRR                |
 |           N  NN    M   M    R  R                |
 |           N   N    M   M    R   R               |
 | Welcome to Materials Studio CASTEP-NMR          |
 | Authors:                                        |
 | J.R. Yates, C.J. Pickard, F. Mauri              |
 | Contributors:                                   |
 | T.F.G. Green, S.A. Joyce                        |
 | Copyright (c) 2004 - 2015                       |
 | Please cite the appropriate publications in all |
 | work arising from your use of CASTEP NMR.       |
 | For NMR Shielding Tensors cite:                 |
 |    "All-electron magnetic response with         |
 |    pseudopotentials: NMR chemical shifts",      |
 |    C. J. Pickard, F. Mauri;                     |
 |    Physical Review B63 245101 (2001), and       |
 |    "Calculation of NMR Chemical Shifts          |
 |    for extended systems using                   |
 |    Ultrasoft Pseudopotentials",                 |
 |    J. R. Yates, C. J. Pickard and F. Mauri      |
 |    Physical Review B76 024401 (2007)            |
 | For Electric Field Gradients cite:              |
 |   "Accurate First Principles Prediction of 17O  |
 |    NMR Parameters in SiO2: Assignment of the    |
 |    Zeolite Ferrierite Spectrum"                 |
 |    M. Profeta, F. Mauri and C. J. Pickard       |
 |    J. Amer. Chem. Soc. 125 541 (2003)           |
 | For Spin-Spin (J) Couplings cite:               |
 |   "A first principles theory of NMR J-coupling  |
 |   in solid-state systems"                       |
 |   S.A. Joyce, J.R. Yates, C.J. Pickard, F. Mauri|
 |   J. Chem. Phys. 127 204107 (2007)              |
 |   "Relativistic NMR J-coupling with ultrasoft   |
 |   pseudopotentials and the zeroth-order regular |
 |   approximation"                                |
 |   T.F.G. Green and J.R. Yates                   |
 |   J. Chem. Phys. 140 234106 (2014)              |

 Atomic calculation performed for O: 1s2 2s2 2p4

 Converged in 44 iterations to an ae energy of -2040.855 eV

 Atomic calculation performed for O: 1s2 2s2 2p4

 Exceeded max iterations: converged to 0.000000062 eV

   | Pseudopotential Report - Date of generation 19-04-2018   |
   | Element: O Ionic charge:  6.00 Level of theory: PBE      |
   | Atomic Solver: ZORA (scalar)                             |
   |               Reference Electronic Structure             |
   |         Orbital         Occupation         Energy        |
   |            2s              2.000           -0.881        |
   |            2p              4.000           -0.332        |
   |                 Pseudopotential Definition               |
   |        Beta     l      e      Rc     scheme   norm       |
   |          1      0   -0.881   1.100     qc      0         |
   |          2      0    0.250   1.100     qc      0         |
   |          3      1   -0.332   1.100     qc      0         |
   |          4      1    0.250   1.100     qc      0         |
   |         loc     2    0.000   1.100     pn      0         |
   | Augmentation charge Rinner = 0.769                       |
   | Partial core correction Rc = 0.769                       |
   | "2|1.1|15|18|20|20:21(qc=7)"                             |
   |      Author: Chris J. Pickard, Cambridge University      |

 Atomic calculation performed for Zr: 1s2 2s2 2p6 3s2 3p6 3d10 4s2 4p6 4d2 5s2

[...]

 Atomic calculation performed for Zr: 1s2 2s2 2p6 3s2 3p6 3d10 4s2 4p6 4d2 5s2

[...]

 Warning: ion_atom_descreen_psp: negative charge density encountered
   | Pseudopotential Report - Date of generation 19-04-2018   |
   | Element: Zr Ionic charge: 12.00 Level of theory: PBE     |
   | Atomic Solver: ZORA (scalar)                             |
   |               Reference Electronic Structure             |
   |         Orbital         Occupation         Energy        |
   |            4s              2.000           -2.003        |
   |            4p              6.000           -1.193        |
   |            5s              2.000           -0.163        |
   |            4d              2.000           -0.132        |
   |                 Pseudopotential Definition               |
   |        Beta     l      e      Rc     scheme   norm       |
   |          1      0   -2.003   2.105     qc      0         |
   |          2      0   -0.163   2.105     qc      0         |
   |          3      0    0.250   2.105     qc      0         |
   |          4      1   -1.193   2.105     qc      0         |
   |          5      1    0.250   2.105     qc      0         |
   |          6      2   -0.132   2.105     qc      0         |
   |          7      2    0.250   2.105     qc      0         |
   |         loc     3    0.000   2.105     pn      0         |
   | Augmentation charge Rinner = 1.471                       |
   | Partial core correction Rc = 1.471                       |
   | "3|2.1|7|8|9|40U:50:41:42"                               |
   |      Author: Chris J. Pickard, Cambridge University      |

 Atomic calculation performed for Sn:

[...]

 Atomic calculation performed for Sn:

[...]

   | Pseudopotential Report - Date of generation 19-04-2018   |
   | Element: Sn Ionic charge: 14.00 Level of theory: PBE     |
   | Atomic Solver: ZORA (scalar)                             |
   |               Reference Electronic Structure             |
   |         Orbital         Occupation         Energy        |
   |            4d             10.000           -0.950        |
   |            5s              2.000           -0.388        |
   |            5p              2.000           -0.136        |
   |                 Pseudopotential Definition               |
   |        Beta     l      e      Rc     scheme   norm       |
   |          1      0   -0.388   2.199     qc      0         |
   |          2      0    0.250   2.199     qc      0         |
   |          3      1   -0.136   2.199     qc      0         |
   |          4      1    0.250   2.199     qc      0         |
   |          5      2   -0.950   2.199     qc      0         |
   |          6      2    0.250   2.199     qc      0         |
   |         loc     3    0.000   2.199     pn      0         |
   | Augmentation charge Rinner = 1.537                       |
   | Partial core correction Rc = 1.537                       |
   | "3|2.2|7|8|9|50:51:42"                                   |
   |      Author: Chris J. Pickard, Cambridge University      |

 Atomic calculation performed for La:

 Converged in 56 iterations to an ae energy of -230121.495 eV

 Atomic calculation performed for La:

 Exceeded max iterations: converged to 0.000000907 eV

 Warning: ion_atom_descreen_psp: negative charge density encountered
   | Pseudopotential Report - Date of generation 19-04-2018   |
   | Element: La Ionic charge: 11.00 Level of theory: PBE     |
   | Atomic Solver: ZORA (scalar)                             |
   |               Reference Electronic Structure             |
   |         Orbital         Occupation         Energy        |
   |            5s              2.000           -1.430        |
   |            5p              6.000           -0.823        |
   |            6s              2.000           -0.135        |
   |            5d              1.000           -0.114        |
   |                 Pseudopotential Definition               |
   |        Beta     l      e      Rc     scheme   norm       |
   |          1      0   -1.430   2.298     qc      0         |
   |          2      0   -0.135   2.298     qc      0         |
   |          3      0    0.250   2.298     qc      0         |
   |          4      1   -0.823   2.298     qc      0         |
   |          5      1    0.250   2.298     qc      0         |
   |          6      2   -0.114   2.298     qc      0         |
   |          7      2    0.250   2.298     qc      0         |
   |         loc     2    0.000   2.298     pn      0         |
   | Augmentation charge Rinner = 1.606                       |
   | Partial core correction Rc = 1.606                       |
   | "2|2.3|5|6|7|50U:60:51:52(qc=4.5)"                       |
   |      Author: Chris J. Pickard, Cambridge University      |

 Pseudo atomic calculation performed for O 2s2 2p4

 Converged in 39 iterations to a total energy of -432.6554 eV

 Pseudo atomic calculation performed for Zr 4s2 4p6 4d2 5s2

[...]

 Calculation parallelised over 56 processes.
 Data is distributed by G-vector(4-way) and k-point(14-way)

 ************************************ Title ************************************
 nmr testing

 ***************************** General Parameters ******************************

 output verbosity                               : normal  (1)
 write checkpoint data to                       : 064.check
 type of calculation                            : Magnetic Resonance
 stress calculation                             : on
 density difference calculation                 : off
 electron localisation func (ELF) calculation   : off
 Hirshfeld analysis                             : off
 unlimited duration calculation
 timing information                             : on
 write final potential to formatted file        : off
 write final density to formatted file          : off
 write structure in CIF formatted file          : on
 write structure in CELL formatted file         : on
 write BibTeX reference list                    : on
 write OTFG pseudopotential files               : on
 checkpoint writing                             : both castep_bin and check files

 output         length unit                     : A
 output           mass unit                     : amu
 output           time unit                     : ps
 output         charge unit                     : e
 output           spin unit                     : hbar/2
 output         energy unit                     : eV
 output          force unit                     : eV/A
 output       velocity unit                     : A/ps
 output       pressure unit                     : GPa
 output     inv_length unit                     : 1/A
 output      frequency unit                     : cm-1
 output force constant unit                     : eV/A**2
 output         volume unit                     : A**3
 output   IR intensity unit                     : (D/A)**2/amu
 output         dipole unit                     : D
 output         efield unit                     : eV/A/e
 output        entropy unit                     : J/mol/K

 wavefunctions paging                           : none
 random number generator seed                   : randomised (45917128)
 data distribution                              : optimal for this architecture
[...]
  |    O          42      -87.30      88.45      0.23  -3.217E+00   0.08 |
  |    O          43      -92.60      80.81      0.08  -3.223E+00   0.09 |
  |    O          44      -21.19      38.87      0.68   3.916E+00   0.85 |
  |    O          45     -162.83     157.24      0.78   1.017E+00   0.86 |
  |    O          46      -19.45     -44.81      0.46   3.788E+00   0.95 |
  |    O          47      -83.05      87.22      0.16  -3.210E+00   0.08 |
  |    O          48     -159.81     140.30      0.82   1.059E+00   0.62 |
  |    O          49      -18.36     -42.75      0.66   3.828E+00   0.91 |
  |    O          50      -88.20      78.38      0.09  -3.242E+00   0.11 |
  |    O          51     -159.74     140.44      0.82   1.062E+00   0.62 |
  |    O          52      -83.21      87.91      0.16  -3.206E+00   0.07 |
  |    O          53      -11.48      57.76      0.85   3.822E+00   0.92 |
  |    O          54     -162.44     153.65      0.86   1.038E+00   0.78 |
  |    O          55      -87.46      88.64      0.10  -3.208E+00   0.06 |
  |    O          56      -83.59      86.13      0.12  -3.167E+00   0.07 |
  |    Zr          1     1631.07    -124.01      0.14  -3.713E+01   0.11 |
  |    Zr          2     1616.10    -116.52      0.11  -3.599E+01   0.10 |
  |    Zr          3     1630.82    -124.29      0.14  -3.717E+01   0.10 |
  |    Zr          4     1625.75    -121.87      0.12  -3.582E+01   0.11 |
[...]
  |    La          2     4547.78     390.46      0.07  -7.419E+01   0.13 |
  |    La          3     4699.55     754.27      0.04  -8.500E+01   0.08 |
  |    La          4     4653.87     658.53      0.09  -8.308E+01   0.14 |
  |    La          5     4642.14     634.68      0.00  -7.827E+01   0.02 |
  |    La          6     4613.22     505.24      0.07  -7.981E+01   0.07 |
  |    La          7     4653.86     637.06      0.00  -8.267E+01   0.07 |
  |    La          8     4607.37     546.35      0.07  -7.992E+01   0.19 |
  |    La          9     4550.43     400.03      0.07  -7.456E+01   0.14 |
  |    La         10     4607.03     545.04      0.07  -7.995E+01   0.19 |
  |    La         11     4547.64     389.39      0.07  -7.415E+01   0.13 |
  |    La         12     4607.34     514.39      0.07  -7.894E+01   0.07 |
  |    La         13     4699.40     753.77      0.04  -8.495E+01   0.08 |
  |    La         14     4654.46     662.43      0.09  -8.327E+01   0.14 |
  |    La         15     4567.24     378.96      0.04  -7.642E+01   0.09 |
  |    La         16     4607.13     513.76      0.08  -7.889E+01   0.07 |

 *********************** Forces ***********************
 *            Cartesian components (eV/A)             *
 *                   x            y            z      *
 * O         1     -0.00082      0.00230     -0.00176 *
 * O         2     -0.00461     -0.00345     -0.00130 *
 * O         3      0.01078      0.00543      0.00064 *
 * O         4      0.00120      0.00055      0.00211 *
 * O         5     -0.00354     -0.00196      0.00107 *
 * O         6      0.00149     -0.00114      0.00142 *
 * O         7     -0.00158      0.00435     -0.00245 *
 * O         8     -0.00095     -0.00361      0.01462 *
 * O         9      0.00904      0.00615      0.00467 *
 * O        10     -0.01146     -0.00937     -0.00599 *
 * O        11      0.00620     -0.01151      0.02024 *
 * O        12      0.01105     -0.00240     -0.00283 *
 * O        13     -0.00338      0.01357     -0.00654 *
 * O        14     -0.00197     -0.00792     -0.00327 *
 * O        15     -0.00631     -0.00715     -0.00430 *
 * O        16     -0.01360      0.00712     -0.01703 *
 * O        17     -0.01715     -0.01952      0.00454 *
 * O        18      0.00229      0.00834     -0.00114 *
 * O        19      0.01602     -0.01448     -0.00013 *
 * O        20      0.00088      0.00550      0.00311 *
 * O        21      0.02803      0.00967     -0.01896 *
 * O        22      0.00886     -0.00754      0.00483 *
 * O        23      0.01102     -0.00043      0.00711 *
 * O        24      0.01797     -0.00003     -0.01945 *
 * O        25      0.00176      0.01972     -0.01738 *
 * O        26     -0.00459     -0.00825      0.00545 *
 * O        27     -0.00112      0.01485      0.01893 *
 * O        28      0.00171     -0.00645      0.00195 *
 * O        29     -0.00024      0.00620     -0.01168 *
 * O        30      0.00309     -0.00197      0.01095 *
 * O        31     -0.00296     -0.00331      0.01697 *
 * O        32      0.03308      0.01742     -0.00569 *
 * O        33      0.00969      0.02769     -0.01680 *
 * O        34     -0.00504      0.01214      0.00184 *
 * O        35     -0.00861      0.00337     -0.00864 *
 * O        36     -0.00862     -0.01358     -0.00142 *
 * O        37      0.00185     -0.00510      0.01069 *
 * O        38      0.01543      0.00957      0.00275 *
 * O        39     -0.02057     -0.00063      0.01868 *
 * O        40      0.00411      0.00802      0.00873 *
 * O        41      0.00929     -0.00060      0.00283 *
 * O        42     -0.01138     -0.01456      0.02500 *
 * O        43     -0.02401     -0.02991      0.00462 *
 * O        44     -0.00026     -0.00994     -0.00307 *
 * O        45      0.01867      0.00321      0.00010 *
 * O        46     -0.01306     -0.00666      0.00260 *
 * O        47     -0.01490      0.01485     -0.00923 *
 * O        48     -0.00008      0.00797      0.01221 *
 * O        49     -0.00583      0.00856     -0.00076 *
 * O        50     -0.01219     -0.00851     -0.00821 *
 * O        51      0.00800     -0.00527     -0.01283 *
 * O        52     -0.00605     -0.01658     -0.01509 *
 * O        53     -0.00339      0.00142      0.01233 *
 * O        54     -0.00137      0.00956     -0.01221 *
 * O        55     -0.02090     -0.01026      0.02398 *
 * O        56      0.01322     -0.00114      0.01444 *
 * Zr        1      0.03003     -0.00460     -0.01056 *
 * Zr        2      0.00547      0.01697      0.01269 *
 * Zr        3     -0.00630      0.01280      0.01286 *
 * Zr        4      0.00046      0.01009     -0.02322 *
[...]
 * La        2     -0.00047      0.00525      0.00396 *
 * La        3     -0.01665     -0.01635      0.00510 *
 * La        4     -0.01021      0.00308     -0.01690 *
 * La        5     -0.02019     -0.00628     -0.02379 *
 * La        6      0.00176     -0.00198     -0.00067 *
 * La        7      0.01560      0.00007      0.01954 *
 * La        8     -0.00327     -0.00353     -0.00278 *
 * La        9     -0.00641      0.00109     -0.00434 *
 * La       10     -0.00224     -0.00113     -0.00852 *
 * La       11      0.00370     -0.00881     -0.00240 *
 * La       12      0.00037      0.00779      0.00820 *
 * La       13      0.01557      0.00877     -0.02019 *
 * La       14     -0.01542     -0.00453     -0.00417 *
 * La       15      0.00787      0.00013      0.00818 *
 * La       16      0.00233     -0.00811      0.00717 *

 ***************** Stress Tensor *****************
 *          Cartesian components (GPa)           *
 *             x             y             z     *
 *  x      0.051375      0.017111     -0.017477  *
 *  y      0.017111      0.041503     -0.017235  *
 *  z     -0.017477     -0.017235      0.040667  *
 *  Pressure:   -0.0445                          *

[...]

 Pseudo atomic calculation performed for Sn 4d10 5s2 5p2

[...]

 Pseudo atomic calculation performed for La 5s2 5p6 5d1 6s2

 Converged in 34 iterations to a total energy of -968.0372 eV

Charge spilling parameter for spin component 1 = 0.25%

     Atomic Populations (Mulliken)
Species   Ion     s      p      d      f     Total  Charge (e)
  O        1     1.87   5.00   0.00   0.00   6.87    -0.87
  O        2     1.87   5.00   0.00   0.00   6.87    -0.87
  O        3     1.87   5.00   0.00   0.00   6.87    -0.87
  O        4     1.87   5.00   0.00   0.00   6.87    -0.87
  O        5     1.87   5.00   0.00   0.00   6.87    -0.87
  O        6     1.87   5.00   0.00   0.00   6.87    -0.87
  O        7     1.87   5.00   0.00   0.00   6.87    -0.87
  O        8     1.87   5.00   0.00   0.00   6.87    -0.87
  O        9     1.88   5.03   0.00   0.00   6.91    -0.91
  O       10     1.86   4.95   0.00   0.00   6.80    -0.80
  O       11     1.87   4.99   0.00   0.00   6.86    -0.86
  O       12     1.88   5.02   0.00   0.00   6.91    -0.91
  O       13     1.88   5.03   0.00   0.00   6.91    -0.91
  O       14     1.88   5.03   0.00   0.00   6.91    -0.91
  O       15     1.86   4.95   0.00   0.00   6.80    -0.80
  O       16     1.87   4.99   0.00   0.00   6.86    -0.86
  O       17     1.87   4.99   0.00   0.00   6.86    -0.86
  O       18     1.88   5.03   0.00   0.00   6.91    -0.91
  O       19     1.87   4.99   0.00   0.00   6.86    -0.86
  O       20     1.88   5.03   0.00   0.00   6.91    -0.91
  O       21     1.87   4.99   0.00   0.00   6.86    -0.86
  O       22     1.88   5.03   0.00   0.00   6.91    -0.91
  O       23     1.87   4.99   0.00   0.00   6.86    -0.86
  O       24     1.87   4.99   0.00   0.00   6.86    -0.86
  O       25     1.87   4.99   0.00   0.00   6.86    -0.86
  O       26     1.88   5.03   0.00   0.00   6.91    -0.91
  O       27     1.87   4.99   0.00   0.00   6.86    -0.86
  O       28     1.88   5.03   0.00   0.00   6.91    -0.91
  O       29     1.89   5.02   0.00   0.00   6.91    -0.91
  O       30     1.88   5.02   0.00   0.00   6.91    -0.91
  O       31     1.86   4.95   0.00   0.00   6.80    -0.80
  O       32     1.87   4.99   0.00   0.00   6.86    -0.86
  O       33     1.87   4.99   0.00   0.00   6.86    -0.86
  O       34     1.88   5.03   0.00   0.00   6.91    -0.91
  O       35     1.86   4.95   0.00   0.00   6.80    -0.80
  O       36     1.88   5.03   0.00   0.00   6.91    -0.91
  O       37     1.88   5.03   0.00   0.00   6.91    -0.91
  O       38     1.87   4.99   0.00   0.00   6.86    -0.86
  O       39     1.87   4.99   0.00   0.00   6.86    -0.86
  O       40     1.88   5.03   0.00   0.00   6.91    -0.91
  O       41     1.88   5.02   0.00   0.00   6.91    -0.91
  O       42     1.87   4.99   0.00   0.00   6.86    -0.86
  O       43     1.87   4.99   0.00   0.00   6.86    -0.86
  O       44     1.88   5.03   0.00   0.00   6.91    -0.91
  O       45     1.86   4.95   0.00   0.00   6.80    -0.80
  O       46     1.89   5.02   0.00   0.00   6.91    -0.91
  O       47     1.87   4.99   0.00   0.00   6.86    -0.86
  O       48     1.86   4.95   0.00   0.00   6.80    -0.80
  O       49     1.88   5.03   0.00   0.00   6.91    -0.91
  O       50     1.87   4.99   0.00   0.00   6.86    -0.86
  O       51     1.86   4.95   0.00   0.00   6.80    -0.80
  O       52     1.87   4.99   0.00   0.00   6.86    -0.86
  O       53     1.88   5.02   0.00   0.00   6.91    -0.91
  O       54     1.86   4.95   0.00   0.00   6.80    -0.80
  O       55     1.87   4.99   0.00   0.00   6.86    -0.86
  O       56     1.87   4.99   0.00   0.00   6.86    -0.86
  Zr       1     2.37   6.47   1.92   0.00  10.76     1.24
  Zr       2     2.36   6.48   1.92   0.00  10.77     1.23
  Zr       3     2.37   6.47   1.92   0.00  10.76     1.24
  Zr       4     2.36   6.48   1.92   0.00  10.77     1.23
[...]
  La       2     2.12   6.19   1.19   0.00   9.50     1.50
  La       3     2.03   6.16   1.20   0.00   9.38     1.62
  La       4     2.04   6.17   1.20   0.00   9.41     1.59
  La       5     2.07   6.16   1.19   0.00   9.42     1.58
  La       6     2.08   6.19   1.19   0.00   9.46     1.54
  La       7     2.05   6.17   1.19   0.00   9.42     1.58
  La       8     2.07   6.18   1.19   0.00   9.44     1.56
  La       9     2.12   6.19   1.19   0.00   9.50     1.50
  La      10     2.07   6.18   1.19   0.00   9.45     1.55
  La      11     2.12   6.19   1.19   0.00   9.50     1.50
  La      12     2.07   6.18   1.19   0.00   9.45     1.55
  La      13     2.03   6.16   1.20   0.00   9.38     1.62
  La      14     2.04   6.17   1.20   0.00   9.41     1.59
  La      15     2.10   6.20   1.19   0.00   9.49     1.51
  La      16     2.07   6.18   1.19   0.00   9.45     1.55

            Bond              Population      Length (A)
         O 9  -- Sn 9              0.34        2.10050
         O 37 -- Sn 2              0.34        2.10076
         O 42 -- Sn 7              0.35        2.10085
         O 32 -- Sn 10             0.35        2.10096
         O 9  -- Sn 5              0.34        2.10170
         O 37 -- Sn 6              0.34        2.10178
         O 50 -- Sn 7              0.34        2.10351
         O 16 -- Sn 10             0.34        2.10365
         O 47 -- Sn 2              0.35        2.10367
         O 52 -- Sn 9              0.35        2.10373
         O 55 -- Sn 4              0.35        2.10373
         O 21 -- Sn 4              0.35        2.10399
         O 22 -- Sn 6              0.34        2.10438
         O 40 -- Sn 5              0.34        2.10448
         O 40 -- Sn 1              0.34        2.10579
         O 22 -- Sn 8              0.34        2.10598
         O 17 -- Sn 10             0.35        2.10658
         O 25 -- Sn 7              0.35        2.10701
         O 19 -- Sn 6              0.34        2.10758
         O 27 -- Sn 5              0.34        2.10764
         O 33 -- Sn 1              0.34        2.10780
         O 34 -- Sn 8              0.34        2.10795
         O 43 -- Sn 8              0.34        2.10799
         O 44 -- Sn 1              0.34        2.10803
         O 20 -- Sn 3              0.34        2.10947
         O 28 -- Sn 6              0.34        2.10953
         O 28 -- Sn 3              0.34        2.10959
         O 20 -- Sn 5              0.34        2.10984
         O 34 -- Sn 2              0.33        2.11015
         O 44 -- Sn 9              0.33        2.11025
         O 31 -- Zr 3              0.42        2.11068
         O 56 -- Sn 6              0.34        2.11088
         O 23 -- Sn 5              0.34        2.11106
         O 18 -- Sn 4              0.33        2.11116
         O 26 -- Sn 4              0.33        2.11116
         O 45 -- Zr 1              0.42        2.11216
         O 10 -- Zr 3              0.41        2.11236
         O 54 -- Zr 4              0.41        2.11280
         O 26 -- Sn 10             0.33        2.11292
         O 36 -- Sn 10             0.34        2.11298
         O 32 -- Zr 5              0.43        2.11298
         O 18 -- Sn 7              0.33        2.11315
         O 10 -- Zr 4              0.41        2.11316
         O 39 -- Sn 2              0.34        2.11322
         O 24 -- Sn 9              0.34        2.11322
         O 13 -- Sn 7              0.34        2.11329
         O 49 -- Sn 2              0.34        2.11351
         O 14 -- Sn 9              0.34        2.11362
         O 14 -- Sn 3              0.34        2.11375
         O 49 -- Sn 3              0.34        2.11376
         O 13 -- Sn 8              0.33        2.11474
         O 36 -- Sn 1              0.33        2.11492
         O 35 -- Zr 2              0.42        2.11545
         O 54 -- Zr 1              0.41        2.11554
         O 29 -- Sn 3              0.33        2.11611
         O 46 -- Sn 3              0.33        2.11615
         O 42 -- Zr 2              0.43        2.11646
         O 15 -- Zr 5              0.42        2.11689
         O 35 -- Zr 6              0.42        2.11702
         O 31 -- Zr 6              0.42        2.11738
[...]
         O 51 -- O 55             -0.03        2.82824
         O 15 -- O 27             -0.03        2.82902
         O 19 -- O 35             -0.03        2.82922
         O 47 -- O 51             -0.03        2.83075
         O 48 -- O 52             -0.03        2.83098
         O 38 -- O 55             -0.03        2.83215
         O 11 -- O 21             -0.03        2.83221
         O 25 -- O 39             -0.03        2.83265
         O 17 -- O 24             -0.03        2.83273
         O 38 -- O 42             -0.03        2.83330
         O 11 -- O 32             -0.03        2.83356
         O 23 -- O 47             -0.03        2.83380
         O 52 -- O 56             -0.03        2.83389
         O 19 -- O 27             -0.03        2.83554
         O 17 -- O 25             -0.03        2.83739

Writing analysis data to 064.castep_bin

Writing model to 064.check

 A BibTeX formatted list of references used in this run has been written to
 064.bib

Initialisation time =     54.20 s
Calculation time    =  33935.31 s
Finalisation time   =     31.21 s
Total time          =  34020.71 s

Overall parallel efficiency rating: Good (77%)

Data was distributed by:-
G-vector (4-way); efficiency rating: Good (78%)
k-point (14-way); efficiency rating: Excellent (98%)