 Compiled for linux_x86_64_ifort17 on Mon, 09 Apr 2018 23:35:31 +0100
 from code version
 203e84763863+ Castep161_branch Fri, 04 Mar 2016 19:21:07 +0000
 Compiler: Intel Fortran 17.0.1.132; Optimisation: fast
 MATHLIBS: Intel MKL(2017.0.1) (LAPACK version 3.6.0)
 FFT Lib : mkl
 Fundamental constants values: CODATA 2010

 Run started: Wed, 19 Aug 2020 15:38:04 +0100
 |           N   N    M   M    RRRR                |
 |           NN  N    MM MM    R   R               |
 |           N N N    M M M    RRRR                |
 |           N  NN    M   M    R  R                |
 |           N   N    M   M    R   R               |
 | Welcome to Materials Studio CASTEP-NMR          |
 | Authors:                                        |
 | J.R. Yates, C.J. Pickard, F. Mauri              |
 | Contributors:                                   |
 | T.F.G. Green, S.A. Joyce                        |
 | Copyright (c) 2004 - 2015                       |
 | Please cite the appropriate publications in all |
 | work arising from your use of CASTEP NMR.       |
 | For NMR Shielding Tensors cite:                 |
 |    "All-electron magnetic response with         |
 |    pseudopotentials: NMR chemical shifts",      |
 |    C. J. Pickard, F. Mauri;                     |
 |    Physical Review B63 245101 (2001), and       |
 |    "Calculation of NMR Chemical Shifts          |
 |    for extended systems using                   |
 |    Ultrasoft Pseudopotentials",                 |
 |    J. R. Yates, C. J. Pickard and F. Mauri      |
 |    Physical Review B76 024401 (2007)            |
 | For Electric Field Gradients cite:              |
 |   "Accurate First Principles Prediction of 17O  |
 |    NMR Parameters in SiO2: Assignment of the    |
 |    Zeolite Ferrierite Spectrum"                 |
 |    M. Profeta, F. Mauri and C. J. Pickard       |
 |    J. Amer. Chem. Soc. 125 541 (2003)           |
 | For Spin-Spin (J) Couplings cite:               |
 |   "A first principles theory of NMR J-coupling  |
 |   in solid-state systems"                       |
 |   S.A. Joyce, J.R. Yates, C.J. Pickard, F. Mauri|
 |   J. Chem. Phys. 127 204107 (2007)              |
 |   "Relativistic NMR J-coupling with ultrasoft   |
 |   pseudopotentials and the zeroth-order regular |
 |   approximation"                                |
 |   T.F.G. Green and J.R. Yates                   |
 |   J. Chem. Phys. 140 234106 (2014)              |

 Atomic calculation performed for O: 1s2 2s2 2p4

 Converged in 44 iterations to an ae energy of -2040.855 eV

 Atomic calculation performed for O: 1s2 2s2 2p4

 Exceeded max iterations: converged to 0.000000062 eV

   | Pseudopotential Report - Date of generation 19-08-2020   |
   | Element: O Ionic charge:  6.00 Level of theory: PBE      |
   | Atomic Solver: ZORA (scalar)                             |
   |               Reference Electronic Structure             |
   |         Orbital         Occupation         Energy        |
   |            2s              2.000           -0.881        |
   |            2p              4.000           -0.332        |
   |                 Pseudopotential Definition               |
   |        Beta     l      e      Rc     scheme   norm       |
   |          1      0   -0.881   1.100     qc      0         |
   |          2      0    0.250   1.100     qc      0         |
   |          3      1   -0.332   1.100     qc      0         |
   |          4      1    0.250   1.100     qc      0         |
   |         loc     2    0.000   1.100     pn      0         |
   | Augmentation charge Rinner = 0.769                       |
   | Partial core correction Rc = 0.769                       |
   | "2|1.1|15|18|20|20:21(qc=7)"                             |
   |      Author: Chris J. Pickard, Cambridge University      |

 Atomic calculation performed for Zr: 1s2 2s2 2p6 3s2 3p6 3d10 4s2 4p6 4d2 5s2

[...]

 Atomic calculation performed for Zr: 1s2 2s2 2p6 3s2 3p6 3d10 4s2 4p6 4d2 5s2

[...]

 Warning: ion_atom_descreen_psp: negative charge density encountered
   | Pseudopotential Report - Date of generation 19-08-2020   |
   | Element: Zr Ionic charge: 12.00 Level of theory: PBE     |
   | Atomic Solver: ZORA (scalar)                             |
   |               Reference Electronic Structure             |
   |         Orbital         Occupation         Energy        |
   |            4s              2.000           -2.003        |
   |            4p              6.000           -1.193        |
   |            5s              2.000           -0.163        |
   |            4d              2.000           -0.132        |
   |                 Pseudopotential Definition               |
   |        Beta     l      e      Rc     scheme   norm       |
   |          1      0   -2.003   2.105     qc      0         |
   |          2      0   -0.163   2.105     qc      0         |
   |          3      0    0.250   2.105     qc      0         |
   |          4      1   -1.193   2.105     qc      0         |
   |          5      1    0.250   2.105     qc      0         |
   |          6      2   -0.132   2.105     qc      0         |
   |          7      2    0.250   2.105     qc      0         |
   |         loc     3    0.000   2.105     pn      0         |
   | Augmentation charge Rinner = 1.471                       |
   | Partial core correction Rc = 1.471                       |
   | "3|2.1|7|8|9|40U:50:41:42"                               |
   |      Author: Chris J. Pickard, Cambridge University      |

 Atomic calculation performed for Sn:

[...]

 Atomic calculation performed for Sn:

[...]

   | Pseudopotential Report - Date of generation 19-08-2020   |
   | Element: Sn Ionic charge: 14.00 Level of theory: PBE     |
   | Atomic Solver: ZORA (scalar)                             |
   |               Reference Electronic Structure             |
   |         Orbital         Occupation         Energy        |
   |            4d             10.000           -0.950        |
   |            5s              2.000           -0.388        |
   |            5p              2.000           -0.136        |
   |                 Pseudopotential Definition               |
   |        Beta     l      e      Rc     scheme   norm       |
   |          1      0   -0.388   2.199     qc      0         |
   |          2      0    0.250   2.199     qc      0         |
   |          3      1   -0.136   2.199     qc      0         |
   |          4      1    0.250   2.199     qc      0         |
   |          5      2   -0.950   2.199     qc      0         |
   |          6      2    0.250   2.199     qc      0         |
   |         loc     3    0.000   2.199     pn      0         |
   | Augmentation charge Rinner = 1.537                       |
   | Partial core correction Rc = 1.537                       |
   | "3|2.2|7|8|9|50:51:42"                                   |
   |      Author: Chris J. Pickard, Cambridge University      |

 Atomic calculation performed for La:

 Converged in 56 iterations to an ae energy of -230121.495 eV

 Atomic calculation performed for La:

 Exceeded max iterations: converged to 0.000000907 eV

 Warning: ion_atom_descreen_psp: negative charge density encountered
   | Pseudopotential Report - Date of generation 19-08-2020   |
   | Element: La Ionic charge: 11.00 Level of theory: PBE     |
   | Atomic Solver: ZORA (scalar)                             |
   |               Reference Electronic Structure             |
   |         Orbital         Occupation         Energy        |
   |            5s              2.000           -1.430        |
   |            5p              6.000           -0.823        |
   |            6s              2.000           -0.135        |
   |            5d              1.000           -0.114        |
   |                 Pseudopotential Definition               |
   |        Beta     l      e      Rc     scheme   norm       |
   |          1      0   -1.430   2.298     qc      0         |
   |          2      0   -0.135   2.298     qc      0         |
   |          3      0    0.250   2.298     qc      0         |
   |          4      1   -0.823   2.298     qc      0         |
   |          5      1    0.250   2.298     qc      0         |
   |          6      2   -0.114   2.298     qc      0         |
   |          7      2    0.250   2.298     qc      0         |
   |         loc     2    0.000   2.298     pn      0         |
   | Augmentation charge Rinner = 1.606                       |
   | Partial core correction Rc = 1.606                       |
   | "2|2.3|5|6|7|50U:60:51:52(qc=4.5)"                       |
   |      Author: Chris J. Pickard, Cambridge University      |

 Pseudo atomic calculation performed for O 2s2 2p4

 Converged in 39 iterations to a total energy of -432.6554 eV

 Pseudo atomic calculation performed for Zr 4s2 4p6 4d2 5s2

[...]

 Calculation parallelised over 336 processes.
 Data is distributed by G-vector(24-way) and k-point(14-way)

 ************************************ Title ************************************
 nmr testing

 ***************************** General Parameters ******************************

 output verbosity                               : normal  (1)
 write checkpoint data to                       : Zr13_02_nmr.check
 type of calculation                            : Magnetic Resonance
 stress calculation                             : on
 density difference calculation                 : off
 electron localisation func (ELF) calculation   : off
 Hirshfeld analysis                             : off
 unlimited duration calculation
 timing information                             : on
 write final potential to formatted file        : off
 write final density to formatted file          : off
 write BibTeX reference list                    : on
 write OTFG pseudopotential files               : on
 checkpoint writing                             : both castep_bin and check files

 output         length unit                     : A
 output           mass unit                     : amu
 output           time unit                     : ps
 output         charge unit                     : e
 output           spin unit                     : hbar/2
 output         energy unit                     : eV
 output          force unit                     : eV/A
 output       velocity unit                     : A/ps
 output       pressure unit                     : GPa
 output     inv_length unit                     : 1/A
 output      frequency unit                     : cm-1
 output force constant unit                     : eV/A**2
 output         volume unit                     : A**3
 output   IR intensity unit                     : (D/A)**2/amu
 output         dipole unit                     : D
 output         efield unit                     : eV/A/e
 output        entropy unit                     : J/mol/K

 wavefunctions paging                           : none
 random number generator seed                   : randomised (153809208)
 data distribution                              : optimal for this architecture
 optimization strategy                          : maximize speed(+++)

[...]
  |    O          42      -85.87      91.66      0.27  -3.141E+00   0.12 |
  |    O          43     -164.01     156.16      0.82   1.088E+00   0.90 |
  |    O          44     -164.56     151.70      0.77   1.063E+00   0.90 |
  |    O          45      -86.39      91.94      0.26  -3.157E+00   0.12 |
  |    O          46     -165.02     153.66      0.79   1.081E+00   0.89 |
  |    O          47     -166.55     158.83      0.80   1.058E+00   0.99 |
  |    O          48     -164.52     156.14      0.81   1.065E+00   0.91 |
  |    O          49     -165.02     153.64      0.79   1.081E+00   0.89 |
  |    O          50      -86.38      91.95      0.26  -3.157E+00   0.12 |
  |    O          51     -164.65     155.85      0.81   1.064E+00   0.91 |
  |    O          52     -166.44     159.84      0.80   1.061E+00   0.98 |
  |    O          53     -166.55     158.83      0.80   1.058E+00   0.99 |
  |    O          54     -164.52     156.14      0.81   1.065E+00   0.91 |
  |    O          55     -164.65     155.84      0.81   1.064E+00   0.91 |
  |    O          56     -166.44     159.84      0.80   1.061E+00   0.98 |
  |    Zr          1     1632.81    -128.30      0.09  -3.951E+01   0.05 |
  |    Zr          2     1631.54    -128.09      0.10  -3.942E+01   0.09 |
  |    Zr          3     1628.42    -125.32      0.09  -4.040E+01   0.05 |
  |    Zr          4     1628.42    -125.32      0.09  -4.040E+01   0.05 |
[...]
  |    La          2     4753.44     877.99      0.05  -8.339E+01   0.06 |
  |    La          3     4757.47     867.15      0.04  -8.370E+01   0.04 |
  |    La          4     4757.47     867.14      0.04  -8.370E+01   0.04 |
  |    La          5     4658.78     665.07      0.00  -7.987E+01   0.00 |
  |    La          6     4802.01     960.29      0.02  -8.550E+01   0.02 |
  |    La          7     4802.01     960.28      0.02  -8.550E+01   0.02 |
  |    La          8     4757.50     866.54      0.04  -8.362E+01   0.04 |
  |    La          9     4752.60     874.71      0.05  -8.320E+01   0.06 |
  |    La         10     4757.32     866.50      0.04  -8.367E+01   0.04 |
  |    La         11     4752.60     874.71      0.05  -8.320E+01   0.06 |
  |    La         12     4708.67     777.33      0.05  -8.124E+01   0.07 |
  |    La         13     4757.50     866.54      0.04  -8.362E+01   0.04 |
  |    La         14     4757.32     866.48      0.04  -8.367E+01   0.04 |
  |    La         15     4708.67     777.32      0.05  -8.124E+01   0.07 |
  |    La         16     4708.62     777.07      0.05  -8.119E+01   0.07 |

 *********************** Forces ***********************
 *            Cartesian components (eV/A)             *
 *                   x            y            z      *
 * O         1     -0.00204     -0.00970     -0.00285 *
 * O         2     -0.00924     -0.00038      0.00411 *
 * O         3     -0.00798     -0.00807      0.00956 *
 * O         4     -0.00016     -0.00148      0.00668 *
 * O         5      0.00039      0.00925     -0.00410 *
 * O         6      0.00970      0.00205      0.00284 *
 * O         7      0.00148      0.00016     -0.00668 *
 * O         8      0.00807      0.00797     -0.00956 *
 * O         9      0.00541      0.00007     -0.00018 *
 * O        10     -0.00370      0.00592      0.00207 *
 * O        11     -0.00584      0.00275     -0.00752 *
 * O        12      0.00972      0.00169     -0.00074 *
 * O        13      0.00530     -0.00500      0.00305 *
 * O        14      0.00367      0.00010      0.00250 *
 * O        15     -0.00652      0.00916      0.00769 *
 * O        16     -0.00414     -0.00504     -0.00249 *
 * O        17     -0.00556     -0.00383     -0.00943 *
 * O        18      0.00817     -0.00700      0.00461 *
 * O        19     -0.01121      0.00986      0.00399 *
 * O        20     -0.00311      0.00201      0.00159 *
 * O        21     -0.00592      0.00371     -0.00207 *
 * O        22     -0.00007     -0.00542      0.00018 *
 * O        23     -0.00169     -0.00970      0.00075 *
 * O        24     -0.00275      0.00581      0.00752 *
 * O        25     -0.00917      0.00654     -0.00772 *
 * O        26      0.00501      0.00413      0.00245 *
 * O        27      0.00503     -0.00531     -0.00306 *
 * O        28     -0.00008     -0.00368     -0.00250 *
 * O        29     -0.00201      0.00312     -0.00156 *
 * O        30     -0.00988      0.01122     -0.00398 *
 * O        31      0.00700     -0.00815     -0.00458 *
 * O        32      0.00383      0.00558      0.00944 *
 * O        33      0.00550     -0.00638      0.00356 *
 * O        34     -0.00602     -0.00402     -0.00438 *
 * O        35      0.00444     -0.00967     -0.00399 *
 * O        36      0.01120      0.00547      0.01203 *
 * O        37     -0.00417     -0.00063      0.00306 *
 * O        38     -0.00635     -0.00193     -0.00386 *
 * O        39      0.00638     -0.00551     -0.00357 *
 * O        40      0.00401      0.00602      0.00437 *
 * O        41     -0.00545     -0.01118     -0.01202 *
 * O        42      0.00966     -0.00442      0.00400 *
 * O        43      0.00194      0.00635      0.00385 *
 * O        44      0.00063      0.00416     -0.00300 *
 * O        45     -0.00396      0.01055      0.01143 *
 * O        46      0.00053     -0.00155     -0.00211 *
 * O        47      0.00434     -0.00685     -0.01064 *
 * O        48      0.00761      0.00180      0.00252 *
 * O        49      0.00156     -0.00057      0.00210 *
 * O        50     -0.01051      0.00390     -0.01143 *
 * O        51      0.00222     -0.00254      0.01021 *
 * O        52     -0.00836      0.00641      0.00599 *
 * O        53      0.00686     -0.00435      0.01064 *
 * O        54     -0.00180     -0.00761     -0.00253 *
 * O        55      0.00255     -0.00224     -0.01020 *
 * O        56     -0.00642      0.00836     -0.00601 *
 * Zr        1     -0.01133      0.01136      0.00005 *
 * Zr        2      0.00640     -0.00641     -0.00001 *
 * Zr        3      0.00716      0.00922      0.01090 *
 * Zr        4     -0.00921     -0.00715     -0.01081 *
[...]
 * La        2      0.00991     -0.00992     -0.00003 *
 * La        3      0.00614      0.00364      0.00478 *
 * La        4     -0.00362     -0.00611     -0.00478 *
 * La        5     -0.00157      0.00158      0.00001 *
 * La        6      0.00547     -0.00220     -0.00120 *
 * La        7      0.00220     -0.00547      0.00120 *
 * La        8      0.00246     -0.00592     -0.00983 *
 * La        9     -0.01179      0.00018     -0.01056 *
 * La       10     -0.00653      0.00587      0.00675 *
 * La       11     -0.00017      0.01177      0.01056 *
 * La       12     -0.00648     -0.00640     -0.00721 *
 * La       13      0.00592     -0.00245      0.00979 *
 * La       14     -0.00585      0.00654     -0.00675 *
 * La       15      0.00640      0.00648      0.00722 *
 * La       16     -0.00451      0.00451     -0.00000 *

 ***************** Stress Tensor *****************
 *          Cartesian components (GPa)           *
 *             x             y             z     *
 *  x      0.010609     -0.030826      0.030639  *
 *  y     -0.030826      0.010586      0.030644  *
 *  z      0.030639      0.030644     -0.002614  *
 *  Pressure:   -0.0062                          *

[...]

 Pseudo atomic calculation performed for Sn 4d10 5s2 5p2

[...]

 Pseudo atomic calculation performed for La 5s2 5p6 5d1 6s2

 Converged in 34 iterations to a total energy of -968.0372 eV

Charge spilling parameter for spin component 1 = 0.22%

     Atomic Populations (Mulliken)
Species   Ion     s      p      d      f     Total  Charge (e)
  O        1     1.87   5.00   0.00   0.00   6.87    -0.87
  O        2     1.87   5.00   0.00   0.00   6.87    -0.87
  O        3     1.87   5.00   0.00   0.00   6.87    -0.87
  O        4     1.87   5.00   0.00   0.00   6.87    -0.87
  O        5     1.87   5.00   0.00   0.00   6.87    -0.87
  O        6     1.87   5.00   0.00   0.00   6.87    -0.87
  O        7     1.87   5.00   0.00   0.00   6.87    -0.87
  O        8     1.87   5.00   0.00   0.00   6.87    -0.87
  O        9     1.86   4.94   0.00   0.00   6.80    -0.80
  O       10     1.86   4.94   0.00   0.00   6.80    -0.80
  O       11     1.86   4.94   0.00   0.00   6.80    -0.80
  O       12     1.85   4.94   0.00   0.00   6.80    -0.80
  O       13     1.87   4.98   0.00   0.00   6.85    -0.85
  O       14     1.86   4.94   0.00   0.00   6.80    -0.80
  O       15     1.87   4.98   0.00   0.00   6.85    -0.85
  O       16     1.87   4.98   0.00   0.00   6.85    -0.85
  O       17     1.87   4.98   0.00   0.00   6.85    -0.85
  O       18     1.87   4.98   0.00   0.00   6.85    -0.85
  O       19     1.87   4.98   0.00   0.00   6.85    -0.85
  O       20     1.86   4.94   0.00   0.00   6.80    -0.80
  O       21     1.86   4.94   0.00   0.00   6.80    -0.80
  O       22     1.86   4.94   0.00   0.00   6.80    -0.80
  O       23     1.85   4.94   0.00   0.00   6.80    -0.80
  O       24     1.86   4.94   0.00   0.00   6.80    -0.80
  O       25     1.87   4.98   0.00   0.00   6.85    -0.85
  O       26     1.87   4.98   0.00   0.00   6.85    -0.85
  O       27     1.87   4.98   0.00   0.00   6.85    -0.85
  O       28     1.86   4.94   0.00   0.00   6.80    -0.80
  O       29     1.86   4.94   0.00   0.00   6.80    -0.80
  O       30     1.87   4.98   0.00   0.00   6.85    -0.85
  O       31     1.87   4.98   0.00   0.00   6.85    -0.85
  O       32     1.87   4.98   0.00   0.00   6.85    -0.85
  O       33     1.86   4.94   0.00   0.00   6.80    -0.80
  O       34     1.86   4.94   0.00   0.00   6.80    -0.80
  O       35     1.87   4.98   0.00   0.00   6.85    -0.85
  O       36     1.87   4.98   0.00   0.00   6.85    -0.85
  O       37     1.86   4.94   0.00   0.00   6.80    -0.80
  O       38     1.86   4.94   0.00   0.00   6.80    -0.80
  O       39     1.86   4.94   0.00   0.00   6.80    -0.80
  O       40     1.86   4.94   0.00   0.00   6.80    -0.80
  O       41     1.87   4.98   0.00   0.00   6.85    -0.85
  O       42     1.87   4.98   0.00   0.00   6.85    -0.85
  O       43     1.86   4.94   0.00   0.00   6.80    -0.80
  O       44     1.86   4.94   0.00   0.00   6.80    -0.80
  O       45     1.87   4.98   0.00   0.00   6.85    -0.85
  O       46     1.86   4.94   0.00   0.00   6.80    -0.80
  O       47     1.85   4.94   0.00   0.00   6.80    -0.80
  O       48     1.86   4.94   0.00   0.00   6.80    -0.80
  O       49     1.86   4.94   0.00   0.00   6.80    -0.80
  O       50     1.87   4.98   0.00   0.00   6.85    -0.85
  O       51     1.86   4.94   0.00   0.00   6.80    -0.80
  O       52     1.85   4.94   0.00   0.00   6.80    -0.80
  O       53     1.85   4.94   0.00   0.00   6.80    -0.80
  O       54     1.86   4.94   0.00   0.00   6.80    -0.80
  O       55     1.86   4.94   0.00   0.00   6.80    -0.80
  O       56     1.85   4.94   0.00   0.00   6.80    -0.80
  Zr       1     2.38   6.49   1.93   0.00  10.80     1.20
  Zr       2     2.38   6.49   1.93   0.00  10.79     1.21
  Zr       3     2.38   6.48   1.93   0.00  10.78     1.22
  Zr       4     2.38   6.48   1.93   0.00  10.78     1.22
[...]
  La       2     2.06   6.14   1.19   0.00   9.40     1.60
  La       3     2.06   6.15   1.19   0.00   9.41     1.59
  La       4     2.06   6.15   1.19   0.00   9.41     1.59
  La       5     2.09   6.18   1.19   0.00   9.47     1.53
  La       6     2.04   6.13   1.19   0.00   9.36     1.64
  La       7     2.04   6.13   1.19   0.00   9.36     1.64
  La       8     2.06   6.15   1.19   0.00   9.41     1.59
  La       9     2.06   6.14   1.19   0.00   9.40     1.60
  La      10     2.06   6.15   1.19   0.00   9.41     1.59
  La      11     2.06   6.14   1.19   0.00   9.40     1.60
  La      12     2.06   6.17   1.19   0.00   9.42     1.58
  La      13     2.06   6.15   1.19   0.00   9.41     1.59
  La      14     2.06   6.15   1.19   0.00   9.41     1.59
  La      15     2.06   6.17   1.19   0.00   9.42     1.58
  La      16     2.06   6.17   1.19   0.00   9.42     1.58

            Bond              Population      Length (A)
         O 27 -- Sn 2              0.35        2.10343
         O 13 -- Sn 1              0.35        2.10343
         O 19 -- Sn 2              0.35        2.10387
         O 30 -- Sn 1              0.35        2.10387
         O 36 -- Sn 3              0.35        2.10395
         O 41 -- Sn 3              0.35        2.10395
         O 16 -- Sn 3              0.35        2.10512
         O 26 -- Sn 3              0.35        2.10512
         O 31 -- Sn 2              0.35        2.10591
         O 18 -- Sn 1              0.35        2.10591
         O 17 -- Sn 3              0.35        2.10629
         O 32 -- Sn 3              0.35        2.10629
         O 45 -- Sn 2              0.35        2.10632
         O 50 -- Sn 1              0.35        2.10632
         O 42 -- Sn 1              0.35        2.10640
         O 35 -- Sn 2              0.35        2.10640
         O 25 -- Sn 1              0.35        2.10662
         O 15 -- Sn 2              0.35        2.10662
         O 52 -- Zr 13             0.43        2.11451
         O 56 -- Zr 10             0.43        2.11451
         O 47 -- Zr 4              0.43        2.11662
         O 53 -- Zr 3              0.43        2.11662
         O 33 -- Zr 11             0.43        2.11701
         O 39 -- Zr 9              0.43        2.11701
         O 41 -- Zr 4              0.46        2.11714
         O 36 -- Zr 3              0.46        2.11714
         O 43 -- Zr 2              0.43        2.11730
         O 38 -- Zr 2              0.43        2.11730
         O 11 -- Zr 11             0.43        2.11738
         O 24 -- Zr 9              0.43        2.11738
         O 33 -- Zr 3              0.43        2.11741
         O 39 -- Zr 4              0.43        2.11741
         O 11 -- Zr 10             0.43        2.11758
         O 24 -- Zr 13             0.43        2.11758
         O 29 -- Zr 12             0.43        2.11791
         O 20 -- Zr 8              0.43        2.11791
         O 51 -- Zr 6              0.43        2.11796
         O 55 -- Zr 7              0.43        2.11796
         O 12 -- Zr 7              0.43        2.11796
         O 23 -- Zr 6              0.44        2.11796
         O 38 -- Zr 8              0.43        2.11807
         O 43 -- Zr 12             0.43        2.11807
         O 28 -- Zr 10             0.43        2.11812
         O 14 -- Zr 13             0.43        2.11812
         O 48 -- Zr 1              0.43        2.11816
         O 54 -- Zr 1              0.43        2.11816
         O 46 -- Zr 3              0.43        2.11821
         O 49 -- Zr 4              0.43        2.11821
         O 40 -- Zr 8              0.44        2.11845
         O 34 -- Zr 12             0.44        2.11845
         O 53 -- Zr 7              0.43        2.11861
         O 47 -- Zr 6              0.43        2.11861
         O 23 -- Zr 8              0.43        2.11861
         O 12 -- Zr 12             0.43        2.11861
         O 20 -- Zr 5              0.43        2.11869
         O 29 -- Zr 5              0.43        2.11869
         O 10 -- Zr 6              0.43        2.11874
         O 21 -- Zr 7              0.43        2.11874
         O 46 -- Zr 5              0.43        2.11898
         O 49 -- Zr 5              0.43        2.11898
[...]
         O 10 -- O 31             -0.03        2.82328
         O 18 -- O 21             -0.03        2.82328
         O 11 -- O 37             -0.03        2.82356
         O 24 -- O 44             -0.03        2.82356
         O 9  -- O 38             -0.03        2.82389
         O 22 -- O 43             -0.03        2.82389
         O 17 -- O 25             -0.03        2.82499
         O 15 -- O 32             -0.03        2.82499
         O 35 -- O 42             -0.03        2.82500
         O 20 -- O 28             -0.03        2.82569
         O 14 -- O 29             -0.03        2.82569
         O 46 -- O 49             -0.03        2.82616
         O 45 -- O 50             -0.03        2.82620
         O 18 -- O 26             -0.03        2.82665
         O 16 -- O 31             -0.03        2.82665

Writing analysis data to Zr13_02_nmr.castep_bin

Writing model to Zr13_02_nmr.check

 A BibTeX formatted list of references used in this run has been written to
 Zr13_02_nmr.bib

Initialisation time =    117.69 s
Calculation time    =   4947.81 s
Finalisation time   =    107.33 s
Total time          =   5172.83 s

Overall parallel efficiency rating: Satisfactory (64%)

Data was distributed by:-
G-vector (24-way); efficiency rating: Satisfactory (68%)
k-point (14-way); efficiency rating: Very good (89%)