 Compiled for linux_x86_64_ifort2021 on Fri, 04 Feb 2022 13:31:17 +0000
 from code version
 203e84763863+ Castep161_branch Fri, 04 Mar 2016 19:21:07 +0000
 Compiler: Intel Fortran 2021.5.0; Optimisation: intermediate
 MATHLIBS: Intel MKL(2022.0-Product) (LAPACK version 3.9.0)
 FFT Lib : fftw3 version fftw-3.3.10
 Fundamental constants values: CODATA 2010

 Run started: Thu, 10 Mar 2022 09:55:08 +0000
 |           N   N    M   M    RRRR                |
 |           NN  N    MM MM    R   R               |
 |           N N N    M M M    RRRR                |
 |           N  NN    M   M    R  R                |
 |           N   N    M   M    R   R               |
 | Welcome to Materials Studio CASTEP-NMR          |
 | Authors:                                        |
 | J.R. Yates, C.J. Pickard, F. Mauri              |
 | Contributors:                                   |
 | T.F.G. Green, S.A. Joyce                        |
 | Copyright (c) 2004 - 2015                       |
 | Please cite the appropriate publications in all |
 | work arising from your use of CASTEP NMR.       |
 | For NMR Shielding Tensors cite:                 |
 |    "All-electron magnetic response with         |
 |    pseudopotentials: NMR chemical shifts",      |
 |    C. J. Pickard, F. Mauri;                     |
 |    Physical Review B63 245101 (2001), and       |
 |    "Calculation of NMR Chemical Shifts          |
 |    for extended systems using                   |
 |    Ultrasoft Pseudopotentials",                 |
 |    J. R. Yates, C. J. Pickard and F. Mauri      |
 |    Physical Review B76 024401 (2007)            |
 | For Electric Field Gradients cite:              |
 |   "Accurate First Principles Prediction of 17O  |
 |    NMR Parameters in SiO2: Assignment of the    |
 |    Zeolite Ferrierite Spectrum"                 |
 |    M. Profeta, F. Mauri and C. J. Pickard       |
 |    J. Amer. Chem. Soc. 125 541 (2003)           |
 | For Spin-Spin (J) Couplings cite:               |
 |   "A first principles theory of NMR J-coupling  |
 |   in solid-state systems"                       |
 |   S.A. Joyce, J.R. Yates, C.J. Pickard, F. Mauri|
 |   J. Chem. Phys. 127 204107 (2007)              |
 |   "Relativistic NMR J-coupling with ultrasoft   |
 |   pseudopotentials and the zeroth-order regular |
 |   approximation"                                |
 |   T.F.G. Green and J.R. Yates                   |
 |   J. Chem. Phys. 140 234106 (2014)              |

 Atomic calculation performed for O: 1s2 2s2 2p4

 Converged in 44 iterations to an ae energy of -2040.855 eV

 Atomic calculation performed for O: 1s2 2s2 2p4

 Exceeded max iterations: converged to 0.000000062 eV

   | Pseudopotential Report - Date of generation 10-03-2022   |
   | Element: O Ionic charge:  6.00 Level of theory: PBE      |
   | Atomic Solver: ZORA (scalar)                             |
   |               Reference Electronic Structure             |
   |         Orbital         Occupation         Energy        |
   |            2s              2.000           -0.881        |
   |            2p              4.000           -0.332        |
   |                 Pseudopotential Definition               |
   |        Beta     l      e      Rc     scheme   norm       |
   |          1      0   -0.881   1.100     qc      0         |
   |          2      0    0.250   1.100     qc      0         |
   |          3      1   -0.332   1.100     qc      0         |
   |          4      1    0.250   1.100     qc      0         |
   |         loc     2    0.000   1.100     pn      0         |
   | Augmentation charge Rinner = 0.769                       |
   | Partial core correction Rc = 0.769                       |
   | "2|1.1|15|18|20|20:21(qc=7)"                             |
   |      Author: Chris J. Pickard, Cambridge University      |

 Atomic calculation performed for Zr: 1s2 2s2 2p6 3s2 3p6 3d10 4s2 4p6 4d2 5s2

[...]

 Atomic calculation performed for Zr: 1s2 2s2 2p6 3s2 3p6 3d10 4s2 4p6 4d2 5s2

[...]

 Warning: ion_atom_descreen_psp: negative charge density encountered
   | Pseudopotential Report - Date of generation 10-03-2022   |
   | Element: Zr Ionic charge: 12.00 Level of theory: PBE     |
   | Atomic Solver: ZORA (scalar)                             |
   |               Reference Electronic Structure             |
   |         Orbital         Occupation         Energy        |
   |            4s              2.000           -2.003        |
   |            4p              6.000           -1.193        |
   |            5s              2.000           -0.163        |
   |            4d              2.000           -0.132        |
   |                 Pseudopotential Definition               |
   |        Beta     l      e      Rc     scheme   norm       |
   |          1      0   -2.003   2.105     qc      0         |
   |          2      0   -0.163   2.105     qc      0         |
   |          3      0    0.250   2.105     qc      0         |
   |          4      1   -1.193   2.105     qc      0         |
   |          5      1    0.250   2.105     qc      0         |
   |          6      2   -0.132   2.105     qc      0         |
   |          7      2    0.250   2.105     qc      0         |
   |         loc     3    0.000   2.105     pn      0         |
   | Augmentation charge Rinner = 1.471                       |
   | Partial core correction Rc = 1.471                       |
   | "3|2.1|7|8|9|40U:50:41:42"                               |
   |      Author: Chris J. Pickard, Cambridge University      |

 Atomic calculation performed for Sn:

[...]

 Atomic calculation performed for Sn:

[...]

   | Pseudopotential Report - Date of generation 10-03-2022   |
   | Element: Sn Ionic charge: 14.00 Level of theory: PBE     |
   | Atomic Solver: ZORA (scalar)                             |
   |               Reference Electronic Structure             |
   |         Orbital         Occupation         Energy        |
   |            4d             10.000           -0.950        |
   |            5s              2.000           -0.388        |
   |            5p              2.000           -0.136        |
   |                 Pseudopotential Definition               |
   |        Beta     l      e      Rc     scheme   norm       |
   |          1      0   -0.388   2.199     qc      0         |
   |          2      0    0.250   2.199     qc      0         |
   |          3      1   -0.136   2.199     qc      0         |
   |          4      1    0.250   2.199     qc      0         |
   |          5      2   -0.950   2.199     qc      0         |
   |          6      2    0.250   2.199     qc      0         |
   |         loc     3    0.000   2.199     pn      0         |
   | Augmentation charge Rinner = 1.537                       |
   | Partial core correction Rc = 1.537                       |
   | "3|2.2|7|8|9|50:51:42"                                   |
   |      Author: Chris J. Pickard, Cambridge University      |

 Atomic calculation performed for La:

 Converged in 55 iterations to an ae energy of -230121.495 eV

 Atomic calculation performed for La:

 Exceeded max iterations: converged to 0.000001291 eV

 Warning: ion_atom_descreen_psp: negative charge density encountered
   | Pseudopotential Report - Date of generation 10-03-2022   |
   | Element: La Ionic charge: 11.00 Level of theory: PBE     |
   | Atomic Solver: ZORA (scalar)                             |
   |               Reference Electronic Structure             |
   |         Orbital         Occupation         Energy        |
   |            5s              2.000           -1.430        |
   |            5p              6.000           -0.823        |
   |            6s              2.000           -0.135        |
   |            5d              1.000           -0.114        |
   |                 Pseudopotential Definition               |
   |        Beta     l      e      Rc     scheme   norm       |
   |          1      0   -1.430   2.298     qc      0         |
   |          2      0   -0.135   2.298     qc      0         |
   |          3      0    0.250   2.298     qc      0         |
   |          4      1   -0.823   2.298     qc      0         |
   |          5      1    0.250   2.298     qc      0         |
   |          6      2   -0.114   2.298     qc      0         |
   |          7      2    0.250   2.298     qc      0         |
   |         loc     2    0.000   2.298     pn      0         |
   | Augmentation charge Rinner = 1.606                       |
   | Partial core correction Rc = 1.606                       |
   | "2|2.3|5|6|7|50U:60:51:52(qc=4.5)"                       |
   |      Author: Chris J. Pickard, Cambridge University      |

 Pseudo atomic calculation performed for O 2s2 2p4

 Converged in 39 iterations to a total energy of -432.6554 eV

 Pseudo atomic calculation performed for Zr 4s2 4p6 4d2 5s2

[...]

 Calculation parallelised over 182 processes.
 Data is distributed by G-vector(13-way) and k-point(14-way)

 ************************************ Title ************************************
 nmr testing

 ***************************** General Parameters ******************************

 output verbosity                               : normal  (1)
 write checkpoint data to                       : Zr13_03_nmr.check
 type of calculation                            : Magnetic Resonance
 stress calculation                             : on
 density difference calculation                 : off
 electron localisation func (ELF) calculation   : off
 Hirshfeld analysis                             : off
 unlimited duration calculation
 timing information                             : on
 write final potential to formatted file        : off
 write final density to formatted file          : off
 write BibTeX reference list                    : on
 write OTFG pseudopotential files               : on
 checkpoint writing                             : both castep_bin and check files

 output         length unit                     : A
 output           mass unit                     : amu
 output           time unit                     : ps
 output         charge unit                     : e
 output           spin unit                     : hbar/2
 output         energy unit                     : eV
 output          force unit                     : eV/A
 output       velocity unit                     : A/ps
 output       pressure unit                     : GPa
 output     inv_length unit                     : 1/A
 output      frequency unit                     : cm-1
 output force constant unit                     : eV/A**2
 output         volume unit                     : A**3
 output   IR intensity unit                     : (D/A)**2/amu
 output         dipole unit                     : D
 output         efield unit                     : eV/A/e
 output        entropy unit                     : J/mol/K

 wavefunctions paging                           : none
 random number generator seed                   : randomised (95509674)
 data distribution                              : optimal for this architecture
[...]
  |    O          42      -86.86      82.39      0.14  -3.176E+00   0.12 |
  |    O          43     -167.25     159.92      0.82   1.074E+00   0.98 |
  |    O          44      -88.10      92.18      0.28  -3.119E+00   0.12 |
  |    O          45     -164.97     152.28      0.78   1.065E+00   0.89 |
  |    O          46     -164.07     155.25      0.83   1.088E+00   0.89 |
  |    O          47     -166.30     161.42      0.81   1.093E+00   0.95 |
  |    O          48     -164.51     145.34      0.77   1.074E+00   0.82 |
  |    O          49     -165.33     153.06      0.77   1.049E+00   0.91 |
  |    O          50      -89.51      87.18      0.15  -3.231E+00   0.13 |
  |    O          51     -165.33     153.06      0.77   1.049E+00   0.91 |
  |    O          52      -89.51      87.18      0.15  -3.231E+00   0.13 |
  |    O          53     -167.16     156.73      0.79  -1.039E+00   0.99 |
  |    O          54     -167.53     160.10      0.84   1.050E+00   0.99 |
  |    O          55     -164.07     155.25      0.83   1.088E+00   0.89 |
  |    O          56     -164.97     152.28      0.78   1.065E+00   0.89 |
  |    Zr          1     1624.02    -124.24      0.10  -3.947E+01   0.05 |
  |    Zr          2     1628.99    -126.95      0.11  -4.028E+01   0.09 |
  |    Zr          3     1632.36    -128.36      0.08  -3.943E+01   0.05 |
  |    Zr          4     1628.50    -125.65      0.10  -4.045E+01   0.07 |
[...]
  |    La          2     4706.22     774.28      0.04  -8.152E+01   0.07 |
  |    La          3     4801.49     962.33      0.01  -8.602E+01   0.03 |
  |    La          4     4757.06     866.31      0.05  -8.395E+01   0.08 |
  |    La          5     4706.22     774.28      0.04  -8.152E+01   0.07 |
  |    La          6     4757.06     866.31      0.05  -8.395E+01   0.08 |
  |    La          7     4801.49     962.32      0.01  -8.602E+01   0.03 |
  |    La          8     4757.61     864.86      0.03  -8.350E+01   0.04 |
  |    La          9     4798.96     968.78      0.00  -8.485E+01   0.00 |
  |    La         10     4711.80     766.34      0.04  -8.225E+01   0.05 |
  |    La         11     4704.30     758.54      0.05  -8.023E+01   0.10 |
  |    La         12     4755.37     880.49      0.05  -8.321E+01   0.06 |
  |    La         13     4757.61     864.86      0.03  -8.350E+01   0.04 |
  |    La         14     4755.37     880.48      0.05  -8.321E+01   0.06 |
  |    La         15     4711.80     766.34      0.04  -8.225E+01   0.05 |
  |    La         16     4707.33     761.80      0.05  -7.983E+01   0.10 |

 *********************** Forces ***********************
 *            Cartesian components (eV/A)             *
 *                   x            y            z      *
 * O         1     -0.00742     -0.00742     -0.00649 *
 * O         2     -0.00833     -0.00306      0.00318 *
 * O         3     -0.00306     -0.00833      0.00318 *
 * O         4      0.00027      0.00027      0.00003 *
 * O         5      0.00604      0.01003      0.00018 *
 * O         6      0.00516      0.00516      0.00871 *
 * O         7      0.00441      0.00441     -0.00576 *
 * O         8      0.01003      0.00604      0.00018 *
 * O         9     -0.00779      0.01103      0.01731 *
 * O        10     -0.00480      0.01333     -0.00481 *
 * O        11      0.00079      0.00598     -0.00032 *
 * O        12      0.01200      0.00861     -0.00086 *
 * O        13      0.01102     -0.00779      0.01731 *
 * O        14     -0.01234      0.01407      0.01806 *
 * O        15      0.00599      0.00079     -0.00032 *
 * O        16     -0.01489     -0.00614     -0.00953 *
 * O        17     -0.00042     -0.00041     -0.00628 *
 * O        18      0.01187     -0.01122      0.00905 *
 * O        19      0.00591      0.00590     -0.00736 *
 * O        20     -0.00313     -0.00175      0.00885 *
 * O        21      0.00324      0.00845     -0.00285 *
 * O        22      0.00285     -0.00559      0.00596 *
 * O        23     -0.00626     -0.00649     -0.01016 *
 * O        24      0.01669     -0.00313     -0.01196 *
 * O        25     -0.00313      0.01669     -0.01196 *
 * O        26      0.00582      0.00303      0.00793 *
 * O        27     -0.00558      0.00285      0.00596 *
 * O        28      0.00043     -0.00674      0.00331 *
 * O        29     -0.01119     -0.00597     -0.00123 *
 * O        30      0.00010      0.00010     -0.01458 *
 * O        31     -0.00256      0.00641      0.00672 *
 * O        32      0.01658      0.01658      0.01335 *
 * O        33      0.00846      0.00324     -0.00285 *
 * O        34     -0.00650     -0.00626     -0.01016 *
 * O        35     -0.00674      0.00043      0.00331 *
 * O        36      0.00303      0.00580      0.00793 *
 * O        37      0.00641     -0.00257      0.00672 *
 * O        38     -0.00597     -0.01119     -0.00122 *
 * O        39      0.01333     -0.00480     -0.00480 *
 * O        40      0.00862      0.01201     -0.00085 *
 * O        41     -0.00615     -0.01489     -0.00954 *
 * O        42      0.01408     -0.01234      0.01806 *
 * O        43     -0.00176     -0.00314      0.00886 *
 * O        44     -0.01121      0.01187      0.00905 *
 * O        45      0.00515     -0.00581      0.00082 *
 * O        46     -0.00789     -0.00842     -0.00594 *
 * O        47     -0.00534     -0.00534     -0.01265 *
 * O        48      0.00763      0.00763      0.00350 *
 * O        49     -0.00406     -0.00044      0.00482 *
 * O        50     -0.01300     -0.00123     -0.01395 *
 * O        51     -0.00044     -0.00406      0.00482 *
 * O        52     -0.00123     -0.01300     -0.01395 *
 * O        53     -0.00159     -0.00159      0.01185 *
 * O        54     -0.00055     -0.00054     -0.00704 *
 * O        55     -0.00842     -0.00789     -0.00595 *
 * O        56     -0.00580      0.00515      0.00082 *
 * Zr        1      0.00935      0.00936     -0.00904 *
 * Zr        2     -0.00902     -0.00731      0.00116 *
 * Zr        3     -0.00171      0.00730      0.00085 *
 * Zr        4     -0.00721     -0.00344     -0.00671 *
[...]
 * La        2     -0.00293     -0.00741     -0.00109 *
 * La        3     -0.00327      0.00166      0.00016 *
 * La        4     -0.00604     -0.01144     -0.00135 *
 * La        5     -0.00742     -0.00294     -0.00110 *
 * La        6     -0.01143     -0.00604     -0.00135 *
 * La        7      0.00167     -0.00327      0.00016 *
 * La        8      0.00596      0.00423      0.00196 *
 * La        9      0.00266      0.00265     -0.00665 *
 * La       10      0.00155      0.00653      0.00702 *
 * La       11      0.01134      0.01134      0.01095 *
 * La       12      0.00945     -0.00505     -0.00618 *
 * La       13      0.00423      0.00596      0.00196 *
 * La       14     -0.00506      0.00944     -0.00618 *
 * La       15      0.00653      0.00156      0.00702 *
 * La       16     -0.00409     -0.00409      0.00947 *

 ***************** Stress Tensor *****************
 *          Cartesian components (GPa)           *
 *             x             y             z     *
 *  x     -0.015996      0.003147      0.034671  *
 *  y      0.003147     -0.015986      0.034670  *
 *  z      0.034671      0.034670      0.055154  *
 *  Pressure:   -0.0077                          *

[...]

 Pseudo atomic calculation performed for Sn 4d10 5s2 5p2

[...]

 Pseudo atomic calculation performed for La 5s2 5p6 5d1 6s2

 Converged in 34 iterations to a total energy of -968.0371 eV

Charge spilling parameter for spin component 1 = 0.22%

     Atomic Populations (Mulliken)
Species   Ion     s      p      d      f     Total  Charge (e)
  O        1     1.87   5.00   0.00   0.00   6.87    -0.87
  O        2     1.87   5.00   0.00   0.00   6.87    -0.87
  O        3     1.87   5.00   0.00   0.00   6.87    -0.87
  O        4     1.87   5.00   0.00   0.00   6.87    -0.87
  O        5     1.87   5.00   0.00   0.00   6.87    -0.87
  O        6     1.87   5.00   0.00   0.00   6.87    -0.87
  O        7     1.87   5.00   0.00   0.00   6.87    -0.87
  O        8     1.87   5.00   0.00   0.00   6.87    -0.87
  O        9     1.87   4.98   0.00   0.00   6.85    -0.85
  O       10     1.86   4.94   0.00   0.00   6.80    -0.80
  O       11     1.86   4.94   0.00   0.00   6.80    -0.80
  O       12     1.85   4.94   0.00   0.00   6.80    -0.80
  O       13     1.87   4.98   0.00   0.00   6.85    -0.85
  O       14     1.87   4.98   0.00   0.00   6.85    -0.85
  O       15     1.86   4.94   0.00   0.00   6.80    -0.80
  O       16     1.87   4.98   0.00   0.00   6.85    -0.85
  O       17     1.87   4.98   0.00   0.00   6.85    -0.85
  O       18     1.87   4.98   0.00   0.00   6.85    -0.85
  O       19     1.85   4.94   0.00   0.00   6.80    -0.80
  O       20     1.85   4.94   0.00   0.00   6.80    -0.80
  O       21     1.86   4.94   0.00   0.00   6.80    -0.80
  O       22     1.85   4.94   0.00   0.00   6.80    -0.80
  O       23     1.86   4.94   0.00   0.00   6.80    -0.80
  O       24     1.87   4.98   0.00   0.00   6.85    -0.85
  O       25     1.87   4.98   0.00   0.00   6.85    -0.85
  O       26     1.87   4.98   0.00   0.00   6.85    -0.85
  O       27     1.85   4.94   0.00   0.00   6.80    -0.80
  O       28     1.86   4.94   0.00   0.00   6.80    -0.80
  O       29     1.86   4.94   0.00   0.00   6.80    -0.80
  O       30     1.88   5.02   0.00   0.00   6.90    -0.90
  O       31     1.86   4.94   0.00   0.00   6.80    -0.80
  O       32     1.87   4.98   0.00   0.00   6.85    -0.85
  O       33     1.86   4.94   0.00   0.00   6.80    -0.80
  O       34     1.86   4.94   0.00   0.00   6.80    -0.80
  O       35     1.86   4.94   0.00   0.00   6.80    -0.80
  O       36     1.87   4.98   0.00   0.00   6.85    -0.85
  O       37     1.86   4.94   0.00   0.00   6.80    -0.80
  O       38     1.86   4.94   0.00   0.00   6.80    -0.80
  O       39     1.86   4.94   0.00   0.00   6.80    -0.80
  O       40     1.85   4.94   0.00   0.00   6.80    -0.80
  O       41     1.87   4.98   0.00   0.00   6.85    -0.85
  O       42     1.87   4.98   0.00   0.00   6.85    -0.85
  O       43     1.85   4.94   0.00   0.00   6.80    -0.80
  O       44     1.87   4.98   0.00   0.00   6.85    -0.85
  O       45     1.86   4.94   0.00   0.00   6.80    -0.80
  O       46     1.86   4.94   0.00   0.00   6.80    -0.80
  O       47     1.85   4.94   0.00   0.00   6.80    -0.80
  O       48     1.86   4.94   0.00   0.00   6.80    -0.80
  O       49     1.86   4.94   0.00   0.00   6.80    -0.80
  O       50     1.87   4.99   0.00   0.00   6.85    -0.85
  O       51     1.86   4.94   0.00   0.00   6.80    -0.80
  O       52     1.87   4.99   0.00   0.00   6.85    -0.85
  O       53     1.86   4.94   0.00   0.00   6.80    -0.80
  O       54     1.85   4.94   0.00   0.00   6.80    -0.80
  O       55     1.86   4.94   0.00   0.00   6.80    -0.80
  O       56     1.86   4.94   0.00   0.00   6.80    -0.80
  Zr       1     2.38   6.49   1.93   0.00  10.79     1.21
  Zr       2     2.37   6.48   1.93   0.00  10.78     1.22
  Zr       3     2.38   6.49   1.93   0.00  10.79     1.21
  Zr       4     2.38   6.48   1.93   0.00  10.78     1.22
[...]
  La       2     2.08   6.16   1.19   0.00   9.44     1.56
  La       3     2.04   6.13   1.19   0.00   9.36     1.64
  La       4     2.06   6.15   1.19   0.00   9.40     1.60
  La       5     2.08   6.16   1.19   0.00   9.44     1.56
  La       6     2.06   6.15   1.19   0.00   9.40     1.60
  La       7     2.04   6.13   1.19   0.00   9.36     1.64
  La       8     2.06   6.15   1.19   0.00   9.41     1.59
  La       9     2.04   6.12   1.19   0.00   9.36     1.64
  La      10     2.08   6.17   1.19   0.00   9.44     1.56
  La      11     2.09   6.17   1.19   0.00   9.45     1.55
  La      12     2.05   6.15   1.19   0.00   9.38     1.62
  La      13     2.06   6.15   1.19   0.00   9.41     1.59
  La      14     2.05   6.15   1.19   0.00   9.38     1.62
  La      15     2.08   6.17   1.19   0.00   9.44     1.56
  La      16     2.08   6.17   1.19   0.00   9.44     1.56

            Bond              Population      Length (A)
         O 50 -- Sn 1              0.35        2.10278
         O 52 -- Sn 2              0.35        2.10278
         O 16 -- Sn 3              0.35        2.10411
         O 41 -- Sn 3              0.35        2.10411
         O 32 -- Sn 3              0.35        2.10466
         O 24 -- Sn 2              0.35        2.10495
         O 25 -- Sn 1              0.35        2.10495
         O 36 -- Sn 3              0.35        2.10555
         O 26 -- Sn 3              0.35        2.10555
         O 13 -- Sn 1              0.35        2.10632
         O 9  -- Sn 2              0.35        2.10632
         O 17 -- Sn 3              0.35        2.10694
         O 14 -- Sn 2              0.35        2.10696
         O 42 -- Sn 1              0.35        2.10696
         O 44 -- Sn 2              0.34        2.11027
         O 18 -- Sn 1              0.34        2.11027
         O 30 -- Sn 1              0.33        2.11142
         O 30 -- Sn 2              0.33        2.11142
         O 43 -- Zr 2              0.43        2.11204
         O 20 -- Zr 5              0.43        2.11204
         O 47 -- Zr 4              0.43        2.11370
         O 47 -- Zr 6              0.43        2.11370
         O 54 -- Zr 9              0.43        2.11507
         O 32 -- Zr 11             0.46        2.11563
         O 19 -- Zr 10             0.43        2.11601
         O 19 -- Zr 13             0.43        2.11601
         O 22 -- Zr 10             0.44        2.11658
         O 27 -- Zr 13             0.44        2.11658
         O 16 -- Zr 6              0.46        2.11681
         O 41 -- Zr 4              0.46        2.11681
         O 35 -- Zr 2              0.43        2.11720
         O 28 -- Zr 5              0.43        2.11720
         O 55 -- Zr 7              0.43        2.11735
         O 46 -- Zr 3              0.43        2.11735
         O 21 -- Zr 7              0.43        2.11756
         O 33 -- Zr 3              0.43        2.11756
         O 20 -- Zr 8              0.42        2.11769
         O 43 -- Zr 12             0.42        2.11769
         O 21 -- Zr 11             0.43        2.11780
         O 33 -- Zr 11             0.43        2.11780
         O 23 -- Zr 8              0.44        2.11792
         O 34 -- Zr 12             0.44        2.11792
         O 54 -- Zr 1              0.42        2.11796
         O 55 -- Zr 2              0.43        2.11808
         O 46 -- Zr 5              0.43        2.11808
         O 40 -- Zr 8              0.43        2.11820
         O 12 -- Zr 12             0.43        2.11820
         O 31 -- Zr 13             0.43        2.11837
         O 37 -- Zr 10             0.43        2.11837
         O 40 -- Zr 3              0.43        2.11840
         O 12 -- Zr 7              0.43        2.11840
         O 15 -- Zr 11             0.43        2.11849
         O 11 -- Zr 11             0.43        2.11849
         O 49 -- Zr 4              0.44        2.11851
         O 51 -- Zr 6              0.44        2.11851
         O 29 -- Zr 12             0.43        2.11874
         O 38 -- Zr 8              0.43        2.11874
         O 37 -- Zr 4              0.43        2.11875
         O 31 -- Zr 6              0.43        2.11875
         O 39 -- Zr 9              0.43        2.11914
[...]
         O 36 -- O 46             -0.03        2.82398
         O 51 -- O 55             -0.03        2.82438
         O 46 -- O 49             -0.03        2.82438
         O 15 -- O 31             -0.03        2.82556
         O 11 -- O 37             -0.03        2.82556
         O 28 -- O 56             -0.03        2.82628
         O 35 -- O 45             -0.03        2.82628
         O 17 -- O 24             -0.03        2.82639
         O 17 -- O 25             -0.03        2.82639
         O 36 -- O 44             -0.03        2.82724
         O 18 -- O 26             -0.03        2.82725
         O 14 -- O 29             -0.03        2.83155
         O 38 -- O 42             -0.03        2.83155
         O 13 -- O 29             -0.03        2.83204
         O 9  -- O 38             -0.03        2.83204

Writing analysis data to Zr13_03_nmr.castep_bin

Writing model to Zr13_03_nmr.check

 A BibTeX formatted list of references used in this run has been written to
 Zr13_03_nmr.bib

Initialisation time =     44.55 s
Calculation time    =   9258.68 s
Finalisation time   =     35.86 s
Total time          =   9339.09 s

Overall parallel efficiency rating: Good (79%)

Data was distributed by:-
G-vector (13-way); efficiency rating: Very good (82%)
k-point (14-way); efficiency rating: Excellent (96%)