 Compiled for linux_x86_64_ifort17 on Mon, 09 Apr 2018 23:35:31 +0100
 from code version
 203e84763863+ Castep161_branch Fri, 04 Mar 2016 19:21:07 +0000
 Compiler: Intel Fortran 17.0.1.132; Optimisation: fast
 MATHLIBS: Intel MKL(2017.0.1) (LAPACK version 3.6.0)
 FFT Lib : mkl
 Fundamental constants values: CODATA 2010

 Run started: Wed, 19 Aug 2020 18:27:04 +0100
 |           N   N    M   M    RRRR                |
 |           NN  N    MM MM    R   R               |
 |           N N N    M M M    RRRR                |
 |           N  NN    M   M    R  R                |
 |           N   N    M   M    R   R               |
 | Welcome to Materials Studio CASTEP-NMR          |
 | Authors:                                        |
 | J.R. Yates, C.J. Pickard, F. Mauri              |
 | Contributors:                                   |
 | T.F.G. Green, S.A. Joyce                        |
 | Copyright (c) 2004 - 2015                       |
 | Please cite the appropriate publications in all |
 | work arising from your use of CASTEP NMR.       |
 | For NMR Shielding Tensors cite:                 |
 |    "All-electron magnetic response with         |
 |    pseudopotentials: NMR chemical shifts",      |
 |    C. J. Pickard, F. Mauri;                     |
 |    Physical Review B63 245101 (2001), and       |
 |    "Calculation of NMR Chemical Shifts          |
 |    for extended systems using                   |
 |    Ultrasoft Pseudopotentials",                 |
 |    J. R. Yates, C. J. Pickard and F. Mauri      |
 |    Physical Review B76 024401 (2007)            |
 | For Electric Field Gradients cite:              |
 |   "Accurate First Principles Prediction of 17O  |
 |    NMR Parameters in SiO2: Assignment of the    |
 |    Zeolite Ferrierite Spectrum"                 |
 |    M. Profeta, F. Mauri and C. J. Pickard       |
 |    J. Amer. Chem. Soc. 125 541 (2003)           |
 | For Spin-Spin (J) Couplings cite:               |
 |   "A first principles theory of NMR J-coupling  |
 |   in solid-state systems"                       |
 |   S.A. Joyce, J.R. Yates, C.J. Pickard, F. Mauri|
 |   J. Chem. Phys. 127 204107 (2007)              |
 |   "Relativistic NMR J-coupling with ultrasoft   |
 |   pseudopotentials and the zeroth-order regular |
 |   approximation"                                |
 |   T.F.G. Green and J.R. Yates                   |
 |   J. Chem. Phys. 140 234106 (2014)              |

 Atomic calculation performed for O: 1s2 2s2 2p4

 Converged in 44 iterations to an ae energy of -2040.855 eV

 Atomic calculation performed for O: 1s2 2s2 2p4

 Exceeded max iterations: converged to 0.000000062 eV

   | Pseudopotential Report - Date of generation 19-08-2020   |
   | Element: O Ionic charge:  6.00 Level of theory: PBE      |
   | Atomic Solver: ZORA (scalar)                             |
   |               Reference Electronic Structure             |
   |         Orbital         Occupation         Energy        |
   |            2s              2.000           -0.881        |
   |            2p              4.000           -0.332        |
   |                 Pseudopotential Definition               |
   |        Beta     l      e      Rc     scheme   norm       |
   |          1      0   -0.881   1.100     qc      0         |
   |          2      0    0.250   1.100     qc      0         |
   |          3      1   -0.332   1.100     qc      0         |
   |          4      1    0.250   1.100     qc      0         |
   |         loc     2    0.000   1.100     pn      0         |
   | Augmentation charge Rinner = 0.769                       |
   | Partial core correction Rc = 0.769                       |
   | "2|1.1|15|18|20|20:21(qc=7)"                             |
   |      Author: Chris J. Pickard, Cambridge University      |

 Atomic calculation performed for Zr: 1s2 2s2 2p6 3s2 3p6 3d10 4s2 4p6 4d2 5s2

[...]

 Atomic calculation performed for Zr: 1s2 2s2 2p6 3s2 3p6 3d10 4s2 4p6 4d2 5s2

[...]

 Warning: ion_atom_descreen_psp: negative charge density encountered
   | Pseudopotential Report - Date of generation 19-08-2020   |
   | Element: Zr Ionic charge: 12.00 Level of theory: PBE     |
   | Atomic Solver: ZORA (scalar)                             |
   |               Reference Electronic Structure             |
   |         Orbital         Occupation         Energy        |
   |            4s              2.000           -2.003        |
   |            4p              6.000           -1.193        |
   |            5s              2.000           -0.163        |
   |            4d              2.000           -0.132        |
   |                 Pseudopotential Definition               |
   |        Beta     l      e      Rc     scheme   norm       |
   |          1      0   -2.003   2.105     qc      0         |
   |          2      0   -0.163   2.105     qc      0         |
   |          3      0    0.250   2.105     qc      0         |
   |          4      1   -1.193   2.105     qc      0         |
   |          5      1    0.250   2.105     qc      0         |
   |          6      2   -0.132   2.105     qc      0         |
   |          7      2    0.250   2.105     qc      0         |
   |         loc     3    0.000   2.105     pn      0         |
   | Augmentation charge Rinner = 1.471                       |
   | Partial core correction Rc = 1.471                       |
   | "3|2.1|7|8|9|40U:50:41:42"                               |
   |      Author: Chris J. Pickard, Cambridge University      |

 Atomic calculation performed for Sn:

[...]

 Atomic calculation performed for Sn:

[...]

   | Pseudopotential Report - Date of generation 19-08-2020   |
   | Element: Sn Ionic charge: 14.00 Level of theory: PBE     |
   | Atomic Solver: ZORA (scalar)                             |
   |               Reference Electronic Structure             |
   |         Orbital         Occupation         Energy        |
   |            4d             10.000           -0.950        |
   |            5s              2.000           -0.388        |
   |            5p              2.000           -0.136        |
   |                 Pseudopotential Definition               |
   |        Beta     l      e      Rc     scheme   norm       |
   |          1      0   -0.388   2.199     qc      0         |
   |          2      0    0.250   2.199     qc      0         |
   |          3      1   -0.136   2.199     qc      0         |
   |          4      1    0.250   2.199     qc      0         |
   |          5      2   -0.950   2.199     qc      0         |
   |          6      2    0.250   2.199     qc      0         |
   |         loc     3    0.000   2.199     pn      0         |
   | Augmentation charge Rinner = 1.537                       |
   | Partial core correction Rc = 1.537                       |
   | "3|2.2|7|8|9|50:51:42"                                   |
   |      Author: Chris J. Pickard, Cambridge University      |

 Atomic calculation performed for La:

 Converged in 56 iterations to an ae energy of -230121.495 eV

 Atomic calculation performed for La:

 Exceeded max iterations: converged to 0.000000907 eV

 Warning: ion_atom_descreen_psp: negative charge density encountered
   | Pseudopotential Report - Date of generation 19-08-2020   |
   | Element: La Ionic charge: 11.00 Level of theory: PBE     |
   | Atomic Solver: ZORA (scalar)                             |
   |               Reference Electronic Structure             |
   |         Orbital         Occupation         Energy        |
   |            5s              2.000           -1.430        |
   |            5p              6.000           -0.823        |
   |            6s              2.000           -0.135        |
   |            5d              1.000           -0.114        |
   |                 Pseudopotential Definition               |
   |        Beta     l      e      Rc     scheme   norm       |
   |          1      0   -1.430   2.298     qc      0         |
   |          2      0   -0.135   2.298     qc      0         |
   |          3      0    0.250   2.298     qc      0         |
   |          4      1   -0.823   2.298     qc      0         |
   |          5      1    0.250   2.298     qc      0         |
   |          6      2   -0.114   2.298     qc      0         |
   |          7      2    0.250   2.298     qc      0         |
   |         loc     2    0.000   2.298     pn      0         |
   | Augmentation charge Rinner = 1.606                       |
   | Partial core correction Rc = 1.606                       |
   | "2|2.3|5|6|7|50U:60:51:52(qc=4.5)"                       |
   |      Author: Chris J. Pickard, Cambridge University      |

 Pseudo atomic calculation performed for O 2s2 2p4

 Converged in 39 iterations to a total energy of -432.6554 eV

 Pseudo atomic calculation performed for Zr 4s2 4p6 4d2 5s2

[...]

 Calculation parallelised over 336 processes.
 Data is distributed by G-vector(24-way) and k-point(14-way)

 ************************************ Title ************************************
 nmr testing

 ***************************** General Parameters ******************************

 output verbosity                               : normal  (1)
 write checkpoint data to                       : Zr13_04_nmr.check
 type of calculation                            : Magnetic Resonance
 stress calculation                             : on
 density difference calculation                 : off
 electron localisation func (ELF) calculation   : off
 Hirshfeld analysis                             : off
 unlimited duration calculation
 timing information                             : on
 write final potential to formatted file        : off
 write final density to formatted file          : off
 write BibTeX reference list                    : on
 write OTFG pseudopotential files               : on
 checkpoint writing                             : both castep_bin and check files

 output         length unit                     : A
 output           mass unit                     : amu
 output           time unit                     : ps
 output         charge unit                     : e
 output           spin unit                     : hbar/2
 output         energy unit                     : eV
 output          force unit                     : eV/A
 output       velocity unit                     : A/ps
 output       pressure unit                     : GPa
 output     inv_length unit                     : 1/A
 output      frequency unit                     : cm-1
 output force constant unit                     : eV/A**2
 output         volume unit                     : A**3
 output   IR intensity unit                     : (D/A)**2/amu
 output         dipole unit                     : D
 output         efield unit                     : eV/A/e
 output        entropy unit                     : J/mol/K

 wavefunctions paging                           : none
 random number generator seed                   : randomised (182726606)
 data distribution                              : optimal for this architecture
 optimization strategy                          : maximize speed(+++)

[...]
  |    O          42      -85.28      85.55      0.13  -3.141E+00   0.10 |
  |    O          43     -165.19     156.15      0.83   1.074E+00   0.92 |
  |    O          44      -88.67      87.87      0.21  -3.157E+00   0.14 |
  |    O          45      -86.98      91.86      0.26  -3.156E+00   0.11 |
  |    O          46     -167.05     160.60      0.82   1.074E+00   0.97 |
  |    O          47     -166.77     156.65      0.76   1.062E+00   0.97 |
  |    O          48     -163.66     151.58      0.82   1.099E+00   0.81 |
  |    O          49     -167.45     156.24      0.77   1.043E+00   1.00 |
  |    O          50      -87.72      92.80      0.25  -3.172E+00   0.12 |
  |    O          51     -167.30     160.10      0.81  -1.045E+00   1.00 |
  |    O          52      -89.25      85.14      0.14  -3.229E+00   0.13 |
  |    O          53     -167.25     152.28      0.76  -1.032E+00   0.99 |
  |    O          54     -165.06     159.15      0.85   1.087E+00   0.88 |
  |    O          55     -166.78     158.35      0.81   1.056E+00   0.98 |
  |    O          56     -165.02     158.39      0.81   1.067E+00   0.89 |
  |    Zr          1     1627.26    -127.91      0.11  -3.868E+01   0.08 |
  |    Zr          2     1632.37    -129.28      0.07  -3.938E+01   0.06 |
  |    Zr          3     1628.69    -126.07      0.01  -4.038E+01   0.03 |
  |    Zr          4     1624.66    -122.14      0.06  -4.148E+01   0.03 |
[...]
  |    La          2     4752.96     873.34      0.05  -8.312E+01   0.06 |
  |    La          3     4757.79     871.63      0.04  -8.435E+01   0.04 |
  |    La          4     4762.64     860.13      0.04  -8.459E+01   0.06 |
  |    La          5     4706.67     773.83      0.05  -8.143E+01   0.06 |
  |    La          6     4757.50     867.29      0.06  -8.400E+01   0.08 |
  |    La          7     4805.38     954.78      0.01  -8.667E+01   0.03 |
  |    La          8     4752.83     872.89      0.05  -8.303E+01   0.06 |
  |    La          9     4753.20     875.53      0.06  -8.311E+01   0.06 |
  |    La         10     4757.30     865.38      0.05  -8.387E+01   0.08 |
  |    La         11     4705.00     759.86      0.05  -8.028E+01   0.09 |
  |    La         12     4755.15     877.91      0.05  -8.306E+01   0.06 |
  |    La         13     4707.40     788.73      0.12  -8.138E+01   0.13 |
  |    La         14     4804.01     960.26      0.01  -8.514E+01   0.02 |
  |    La         15     4759.58     866.79      0.05  -8.350E+01   0.08 |
  |    La         16     4658.83     668.19      0.11  -7.848E+01   0.14 |

 *********************** Forces ***********************
 *            Cartesian components (eV/A)             *
 *                   x            y            z      *
 * O         1     -0.00833     -0.00309      0.00375 *
 * O         2     -0.00162      0.00846      0.01113 *
 * O         3     -0.00891      0.00315      0.01062 *
 * O         4      0.00331      0.01056      0.01299 *
 * O         5      0.00421     -0.00058     -0.00361 *
 * O         6      0.01003     -0.00067     -0.00206 *
 * O         7      0.00236     -0.00806     -0.01643 *
 * O         8      0.00445     -0.00192     -0.01069 *
 * O         9     -0.00557      0.00767      0.01685 *
 * O        10      0.00499      0.01572      0.00549 *
 * O        11     -0.01253     -0.00129     -0.00207 *
 * O        12      0.01166     -0.00188     -0.00903 *
 * O        13      0.01294     -0.01018      0.02231 *
 * O        14     -0.01191      0.00539      0.02429 *
 * O        15     -0.01410      0.00457      0.01841 *
 * O        16      0.00089      0.00651      0.01445 *
 * O        17      0.01155      0.01334      0.00442 *
 * O        18      0.01546     -0.01903      0.00233 *
 * O        19     -0.01062      0.02111     -0.00264 *
 * O        20     -0.00715     -0.00579      0.00381 *
 * O        21     -0.00546      0.00292      0.00101 *
 * O        22      0.00189     -0.00156     -0.00299 *
 * O        23      0.00639     -0.00450      0.00553 *
 * O        24      0.02047      0.00740     -0.01679 *
 * O        25      0.00128      0.02719     -0.01761 *
 * O        26     -0.01087     -0.00407     -0.00624 *
 * O        27      0.00528     -0.00975     -0.01062 *
 * O        28      0.00150     -0.00869     -0.00846 *
 * O        29     -0.00598     -0.00389      0.00104 *
 * O        30     -0.00232      0.00096     -0.00527 *
 * O        31      0.01569     -0.01325      0.00556 *
 * O        32     -0.00335     -0.00625      0.00308 *
 * O        33     -0.00055     -0.00520     -0.00554 *
 * O        34     -0.00726      0.00375      0.00136 *
 * O        35      0.01331     -0.00167     -0.01389 *
 * O        36     -0.00751     -0.00461     -0.00463 *
 * O        37     -0.00510      0.00500      0.01365 *
 * O        38     -0.00323      0.00023     -0.00244 *
 * O        39      0.01355     -0.00174     -0.00662 *
 * O        40     -0.00293      0.00698     -0.00795 *
 * O        41      0.00898     -0.00239      0.00175 *
 * O        42      0.01156     -0.01153      0.02498 *
 * O        43     -0.00199      0.00666      0.00613 *
 * O        44     -0.01343      0.01522      0.00128 *
 * O        45     -0.00313      0.00947      0.01064 *
 * O        46     -0.01470     -0.00854     -0.00716 *
 * O        47      0.00331     -0.01140     -0.00696 *
 * O        48     -0.00436     -0.00898      0.00349 *
 * O        49     -0.00596      0.00694      0.00895 *
 * O        50     -0.01898     -0.00021     -0.01843 *
 * O        51      0.01077     -0.00079      0.01197 *
 * O        52     -0.00327     -0.01418     -0.01139 *
 * O        53     -0.00174      0.00040      0.00976 *
 * O        54      0.01240      0.00723     -0.00146 *
 * O        55     -0.00014     -0.01519     -0.01298 *
 * O        56     -0.00818      0.00431     -0.00960 *
 * Zr        1     -0.00187      0.01583     -0.00725 *
 * Zr        2      0.00046     -0.00422      0.00273 *
 * Zr        3      0.00552     -0.00397      0.01078 *
 * Zr        4      0.00298     -0.00263     -0.00751 *
[...]
 * La        2      0.00530     -0.01295     -0.00801 *
 * La        3      0.00127      0.01113      0.00688 *
 * La        4     -0.00900     -0.00946     -0.00160 *
 * La        5     -0.00405      0.00549      0.00594 *
 * La        6     -0.00461     -0.01408     -0.00679 *
 * La        7      0.00240     -0.00178      0.00096 *
 * La        8      0.00605     -0.00169     -0.00246 *
 * La        9     -0.00458     -0.00191     -0.01589 *
 * La       10     -0.00336      0.01344      0.01136 *
 * La       11      0.00364      0.01683      0.01859 *
 * La       12      0.00399     -0.01454     -0.01274 *
 * La       13      0.00194     -0.00025      0.00661 *
 * La       14     -0.00466      0.01008     -0.00787 *
 * La       15      0.00790      0.00258      0.00636 *
 * La       16     -0.00277     -0.00050      0.00305 *

 ***************** Stress Tensor *****************
 *          Cartesian components (GPa)           *
 *             x             y             z     *
 *  x      0.020751     -0.052622     -0.024975  *
 *  y     -0.052622     -0.005296      0.027826  *
 *  z     -0.024975      0.027826      0.025182  *
 *  Pressure:   -0.0135                          *

[...]

 Pseudo atomic calculation performed for Sn 4d10 5s2 5p2

[...]

 Pseudo atomic calculation performed for La 5s2 5p6 5d1 6s2

 Converged in 34 iterations to a total energy of -968.0372 eV

Charge spilling parameter for spin component 1 = 0.22%

     Atomic Populations (Mulliken)
Species   Ion     s      p      d      f     Total  Charge (e)
  O        1     1.87   5.00   0.00   0.00   6.87    -0.87
  O        2     1.87   5.00   0.00   0.00   6.87    -0.87
  O        3     1.87   5.00   0.00   0.00   6.87    -0.87
  O        4     1.87   5.00   0.00   0.00   6.87    -0.87
  O        5     1.87   5.00   0.00   0.00   6.87    -0.87
  O        6     1.87   5.00   0.00   0.00   6.87    -0.87
  O        7     1.87   5.00   0.00   0.00   6.86    -0.86
  O        8     1.87   5.00   0.00   0.00   6.87    -0.87
  O        9     1.87   4.98   0.00   0.00   6.85    -0.85
  O       10     1.86   4.94   0.00   0.00   6.80    -0.80
  O       11     1.85   4.94   0.00   0.00   6.80    -0.80
  O       12     1.85   4.94   0.00   0.00   6.80    -0.80
  O       13     1.87   4.98   0.00   0.00   6.85    -0.85
  O       14     1.87   4.98   0.00   0.00   6.85    -0.85
  O       15     1.87   4.98   0.00   0.00   6.85    -0.85
  O       16     1.86   4.94   0.00   0.00   6.80    -0.80
  O       17     1.86   4.94   0.00   0.00   6.80    -0.80
  O       18     1.87   4.98   0.00   0.00   6.85    -0.85
  O       19     1.87   4.98   0.00   0.00   6.85    -0.85
  O       20     1.86   4.94   0.00   0.00   6.80    -0.80
  O       21     1.86   4.94   0.00   0.00   6.80    -0.80
  O       22     1.86   4.94   0.00   0.00   6.80    -0.80
  O       23     1.86   4.94   0.00   0.00   6.80    -0.80
  O       24     1.87   4.99   0.00   0.00   6.85    -0.85
  O       25     1.87   4.98   0.00   0.00   6.85    -0.85
  O       26     1.86   4.94   0.00   0.00   6.80    -0.80
  O       27     1.87   4.98   0.00   0.00   6.85    -0.85
  O       28     1.86   4.94   0.00   0.00   6.80    -0.80
  O       29     1.86   4.94   0.00   0.00   6.80    -0.80
  O       30     1.88   5.02   0.00   0.00   6.90    -0.90
  O       31     1.87   4.98   0.00   0.00   6.85    -0.85
  O       32     1.86   4.94   0.00   0.00   6.80    -0.80
  O       33     1.86   4.94   0.00   0.00   6.80    -0.80
  O       34     1.86   4.94   0.00   0.00   6.80    -0.80
  O       35     1.87   4.98   0.00   0.00   6.85    -0.85
  O       36     1.86   4.94   0.00   0.00   6.80    -0.80
  O       37     1.85   4.94   0.00   0.00   6.80    -0.80
  O       38     1.86   4.94   0.00   0.00   6.80    -0.80
  O       39     1.86   4.94   0.00   0.00   6.80    -0.80
  O       40     1.86   4.94   0.00   0.00   6.80    -0.80
  O       41     1.85   4.94   0.00   0.00   6.80    -0.80
  O       42     1.87   4.98   0.00   0.00   6.85    -0.85
  O       43     1.86   4.94   0.00   0.00   6.80    -0.80
  O       44     1.87   4.98   0.00   0.00   6.85    -0.85
  O       45     1.87   4.98   0.00   0.00   6.85    -0.85
  O       46     1.85   4.94   0.00   0.00   6.80    -0.80
  O       47     1.85   4.94   0.00   0.00   6.80    -0.80
  O       48     1.86   4.94   0.00   0.00   6.80    -0.80
  O       49     1.86   4.94   0.00   0.00   6.80    -0.80
  O       50     1.87   4.98   0.00   0.00   6.85    -0.85
  O       51     1.86   4.94   0.00   0.00   6.80    -0.80
  O       52     1.87   4.98   0.00   0.00   6.85    -0.85
  O       53     1.86   4.94   0.00   0.00   6.80    -0.80
  O       54     1.86   4.94   0.00   0.00   6.80    -0.80
  O       55     1.85   4.94   0.00   0.00   6.80    -0.80
  O       56     1.86   4.94   0.00   0.00   6.80    -0.80
  Zr       1     2.38   6.50   1.92   0.00  10.80     1.20
  Zr       2     2.38   6.49   1.93   0.00  10.79     1.21
  Zr       3     2.38   6.48   1.93   0.00  10.78     1.22
  Zr       4     2.38   6.47   1.93   0.00  10.78     1.22
[...]
  La       2     2.07   6.14   1.19   0.00   9.40     1.60
  La       3     2.06   6.15   1.19   0.00   9.41     1.59
  La       4     2.06   6.16   1.19   0.00   9.41     1.59
  La       5     2.08   6.16   1.19   0.00   9.44     1.56
  La       6     2.06   6.15   1.19   0.00   9.40     1.60
  La       7     2.04   6.14   1.19   0.00   9.37     1.63
  La       8     2.06   6.14   1.19   0.00   9.40     1.60
  La       9     2.06   6.15   1.19   0.00   9.40     1.60
  La      10     2.06   6.15   1.19   0.00   9.40     1.60
  La      11     2.09   6.17   1.19   0.00   9.45     1.55
  La      12     2.05   6.15   1.19   0.00   9.39     1.61
  La      13     2.08   6.16   1.19   0.00   9.44     1.56
  La      14     2.02   6.13   1.19   0.00   9.35     1.65
  La      15     2.04   6.15   1.19   0.00   9.39     1.61
  La      16     2.11   6.18   1.19   0.00   9.48     1.52

            Bond              Population      Length (A)
         O 24 -- Sn 2              0.35        2.10266
         O 31 -- Sn 3              0.35        2.10279
         O 19 -- Sn 3              0.35        2.10300
         O 25 -- Sn 1              0.35        2.10319
         O 15 -- Sn 3              0.35        2.10448
         O 52 -- Sn 2              0.35        2.10497
         O 50 -- Sn 1              0.35        2.10598
         O 27 -- Sn 3              0.35        2.10634
         O 14 -- Sn 2              0.35        2.10693
         O 13 -- Sn 1              0.35        2.10717
         O 35 -- Sn 3              0.34        2.10720
         O 18 -- Sn 1              0.34        2.10725
         O 44 -- Sn 2              0.34        2.10775
         O 9  -- Sn 2              0.35        2.10849
         O 45 -- Sn 3              0.34        2.10904
         O 42 -- Sn 1              0.35        2.10961
         O 30 -- Sn 1              0.33        2.11136
         O 30 -- Sn 2              0.33        2.11173
         O 54 -- Zr 9              0.42        2.11257
         O 12 -- Zr 7              0.43        2.11263
         O 20 -- Zr 5              0.43        2.11474
         O 11 -- Zr 10             0.43        2.11486
         O 46 -- Zr 5              0.43        2.11490
         O 46 -- Zr 3              0.43        2.11546
         O 40 -- Zr 3              0.43        2.11549
         O 11 -- Zr 11             0.43        2.11555
         O 51 -- Zr 6              0.43        2.11564
         O 41 -- Zr 4              0.43        2.11609
         O 23 -- Zr 6              0.43        2.11630
         O 12 -- Zr 12             0.43        2.11643
         O 43 -- Zr 2              0.43        2.11656
         O 23 -- Zr 8              0.43        2.11657
         O 54 -- Zr 1              0.42        2.11668
         O 47 -- Zr 4              0.44        2.11670
         O 40 -- Zr 8              0.43        2.11672
         O 34 -- Zr 12             0.43        2.11673
         O 55 -- Zr 7              0.43        2.11724
         O 49 -- Zr 4              0.44        2.11725
         O 41 -- Zr 13             0.43        2.11739
         O 25 -- Zr 9              0.45        2.11764
         O 20 -- Zr 8              0.42        2.11777
         O 48 -- Zr 11             0.43        2.11789
         O 56 -- Zr 10             0.43        2.11848
         O 56 -- Zr 1              0.43        2.11851
         O 15 -- Zr 11             0.46        2.11853
         O 37 -- Zr 4              0.43        2.11882
         O 24 -- Zr 9              0.45        2.11885
         O 48 -- Zr 1              0.43        2.11890
         O 55 -- Zr 2              0.43        2.11890
         O 38 -- Zr 8              0.43        2.11892
         O 43 -- Zr 12             0.43        2.11912
         O 47 -- Zr 6              0.44        2.11920
         O 26 -- Zr 13             0.43        2.11932
         O 19 -- Zr 10             0.46        2.11942
         O 51 -- Zr 2              0.43        2.11946
         O 37 -- Zr 10             0.44        2.11946
         O 16 -- Zr 13             0.43        2.11946
         O 36 -- Zr 13             0.43        2.11964
         O 32 -- Zr 11             0.43        2.11968
         O 32 -- Zr 13             0.43        2.11976
[...]
         O 48 -- O 50             -0.03        2.82345
         O 35 -- O 42             -0.03        2.82428
         O 17 -- O 26             -0.03        2.82463
         O 34 -- O 39             -0.03        2.82540
         O 33 -- O 48             -0.03        2.82566
         O 16 -- O 32             -0.03        2.82569
         O 10 -- O 54             -0.03        2.82606
         O 10 -- O 23             -0.03        2.82783
         O 20 -- O 28             -0.03        2.82790
         O 28 -- O 56             -0.03        2.82803
         O 33 -- O 40             -0.03        2.82816
         O 9  -- O 38             -0.03        2.82895
         O 13 -- O 29             -0.03        2.83083
         O 14 -- O 29             -0.03        2.83217
         O 38 -- O 42             -0.03        2.83333

Writing analysis data to Zr13_04_nmr.castep_bin

Writing model to Zr13_04_nmr.check

 A BibTeX formatted list of references used in this run has been written to
 Zr13_04_nmr.bib

Initialisation time =    118.88 s
Calculation time    =   4716.29 s
Finalisation time   =     76.18 s
Total time          =   4911.35 s

Overall parallel efficiency rating: Satisfactory (65%)

Data was distributed by:-
G-vector (24-way); efficiency rating: Satisfactory (69%)
k-point (14-way); efficiency rating: Excellent (92%)