 Compiled for linux_x86_64_ifort17 on Mon, 09 Apr 2018 23:35:31 +0100
 from code version
 203e84763863+ Castep161_branch Fri, 04 Mar 2016 19:21:07 +0000
 Compiler: Intel Fortran 17.0.1.132; Optimisation: fast
 MATHLIBS: Intel MKL(2017.0.1) (LAPACK version 3.6.0)
 FFT Lib : mkl
 Fundamental constants values: CODATA 2010

 Run started: Wed, 19 Aug 2020 21:25:41 +0100
 |           N   N    M   M    RRRR                |
 |           NN  N    MM MM    R   R               |
 |           N N N    M M M    RRRR                |
 |           N  NN    M   M    R  R                |
 |           N   N    M   M    R   R               |
 | Welcome to Materials Studio CASTEP-NMR          |
 | Authors:                                        |
 | J.R. Yates, C.J. Pickard, F. Mauri              |
 | Contributors:                                   |
 | T.F.G. Green, S.A. Joyce                        |
 | Copyright (c) 2004 - 2015                       |
 | Please cite the appropriate publications in all |
 | work arising from your use of CASTEP NMR.       |
 | For NMR Shielding Tensors cite:                 |
 |    "All-electron magnetic response with         |
 |    pseudopotentials: NMR chemical shifts",      |
 |    C. J. Pickard, F. Mauri;                     |
 |    Physical Review B63 245101 (2001), and       |
 |    "Calculation of NMR Chemical Shifts          |
 |    for extended systems using                   |
 |    Ultrasoft Pseudopotentials",                 |
 |    J. R. Yates, C. J. Pickard and F. Mauri      |
 |    Physical Review B76 024401 (2007)            |
 | For Electric Field Gradients cite:              |
 |   "Accurate First Principles Prediction of 17O  |
 |    NMR Parameters in SiO2: Assignment of the    |
 |    Zeolite Ferrierite Spectrum"                 |
 |    M. Profeta, F. Mauri and C. J. Pickard       |
 |    J. Amer. Chem. Soc. 125 541 (2003)           |
 | For Spin-Spin (J) Couplings cite:               |
 |   "A first principles theory of NMR J-coupling  |
 |   in solid-state systems"                       |
 |   S.A. Joyce, J.R. Yates, C.J. Pickard, F. Mauri|
 |   J. Chem. Phys. 127 204107 (2007)              |
 |   "Relativistic NMR J-coupling with ultrasoft   |
 |   pseudopotentials and the zeroth-order regular |
 |   approximation"                                |
 |   T.F.G. Green and J.R. Yates                   |
 |   J. Chem. Phys. 140 234106 (2014)              |

 Atomic calculation performed for O: 1s2 2s2 2p4

 Converged in 44 iterations to an ae energy of -2040.855 eV

 Atomic calculation performed for O: 1s2 2s2 2p4

 Exceeded max iterations: converged to 0.000000062 eV

   | Pseudopotential Report - Date of generation 19-08-2020   |
   | Element: O Ionic charge:  6.00 Level of theory: PBE      |
   | Atomic Solver: ZORA (scalar)                             |
   |               Reference Electronic Structure             |
   |         Orbital         Occupation         Energy        |
   |            2s              2.000           -0.881        |
   |            2p              4.000           -0.332        |
   |                 Pseudopotential Definition               |
   |        Beta     l      e      Rc     scheme   norm       |
   |          1      0   -0.881   1.100     qc      0         |
   |          2      0    0.250   1.100     qc      0         |
   |          3      1   -0.332   1.100     qc      0         |
   |          4      1    0.250   1.100     qc      0         |
   |         loc     2    0.000   1.100     pn      0         |
   | Augmentation charge Rinner = 0.769                       |
   | Partial core correction Rc = 0.769                       |
   | "2|1.1|15|18|20|20:21(qc=7)"                             |
   |      Author: Chris J. Pickard, Cambridge University      |

 Atomic calculation performed for Zr: 1s2 2s2 2p6 3s2 3p6 3d10 4s2 4p6 4d2 5s2

[...]

 Atomic calculation performed for Zr: 1s2 2s2 2p6 3s2 3p6 3d10 4s2 4p6 4d2 5s2

[...]

 Warning: ion_atom_descreen_psp: negative charge density encountered
   | Pseudopotential Report - Date of generation 19-08-2020   |
   | Element: Zr Ionic charge: 12.00 Level of theory: PBE     |
   | Atomic Solver: ZORA (scalar)                             |
   |               Reference Electronic Structure             |
   |         Orbital         Occupation         Energy        |
   |            4s              2.000           -2.003        |
   |            4p              6.000           -1.193        |
   |            5s              2.000           -0.163        |
   |            4d              2.000           -0.132        |
   |                 Pseudopotential Definition               |
   |        Beta     l      e      Rc     scheme   norm       |
   |          1      0   -2.003   2.105     qc      0         |
   |          2      0   -0.163   2.105     qc      0         |
   |          3      0    0.250   2.105     qc      0         |
   |          4      1   -1.193   2.105     qc      0         |
   |          5      1    0.250   2.105     qc      0         |
   |          6      2   -0.132   2.105     qc      0         |
   |          7      2    0.250   2.105     qc      0         |
   |         loc     3    0.000   2.105     pn      0         |
   | Augmentation charge Rinner = 1.471                       |
   | Partial core correction Rc = 1.471                       |
   | "3|2.1|7|8|9|40U:50:41:42"                               |
   |      Author: Chris J. Pickard, Cambridge University      |

 Atomic calculation performed for Sn:

[...]

 Atomic calculation performed for Sn:

[...]

   | Pseudopotential Report - Date of generation 19-08-2020   |
   | Element: Sn Ionic charge: 14.00 Level of theory: PBE     |
   | Atomic Solver: ZORA (scalar)                             |
   |               Reference Electronic Structure             |
   |         Orbital         Occupation         Energy        |
   |            4d             10.000           -0.950        |
   |            5s              2.000           -0.388        |
   |            5p              2.000           -0.136        |
   |                 Pseudopotential Definition               |
   |        Beta     l      e      Rc     scheme   norm       |
   |          1      0   -0.388   2.199     qc      0         |
   |          2      0    0.250   2.199     qc      0         |
   |          3      1   -0.136   2.199     qc      0         |
   |          4      1    0.250   2.199     qc      0         |
   |          5      2   -0.950   2.199     qc      0         |
   |          6      2    0.250   2.199     qc      0         |
   |         loc     3    0.000   2.199     pn      0         |
   | Augmentation charge Rinner = 1.537                       |
   | Partial core correction Rc = 1.537                       |
   | "3|2.2|7|8|9|50:51:42"                                   |
   |      Author: Chris J. Pickard, Cambridge University      |

 Atomic calculation performed for La:

 Converged in 56 iterations to an ae energy of -230121.495 eV

 Atomic calculation performed for La:

 Exceeded max iterations: converged to 0.000000907 eV

 Warning: ion_atom_descreen_psp: negative charge density encountered
   | Pseudopotential Report - Date of generation 19-08-2020   |
   | Element: La Ionic charge: 11.00 Level of theory: PBE     |
   | Atomic Solver: ZORA (scalar)                             |
   |               Reference Electronic Structure             |
   |         Orbital         Occupation         Energy        |
   |            5s              2.000           -1.430        |
   |            5p              6.000           -0.823        |
   |            6s              2.000           -0.135        |
   |            5d              1.000           -0.114        |
   |                 Pseudopotential Definition               |
   |        Beta     l      e      Rc     scheme   norm       |
   |          1      0   -1.430   2.298     qc      0         |
   |          2      0   -0.135   2.298     qc      0         |
   |          3      0    0.250   2.298     qc      0         |
   |          4      1   -0.823   2.298     qc      0         |
   |          5      1    0.250   2.298     qc      0         |
   |          6      2   -0.114   2.298     qc      0         |
   |          7      2    0.250   2.298     qc      0         |
   |         loc     2    0.000   2.298     pn      0         |
   | Augmentation charge Rinner = 1.606                       |
   | Partial core correction Rc = 1.606                       |
   | "2|2.3|5|6|7|50U:60:51:52(qc=4.5)"                       |
   |      Author: Chris J. Pickard, Cambridge University      |

 Pseudo atomic calculation performed for O 2s2 2p4

 Converged in 39 iterations to a total energy of -432.6554 eV

 Pseudo atomic calculation performed for Zr 4s2 4p6 4d2 5s2

[...]

 Calculation parallelised over 336 processes.
 Data is distributed by G-vector(24-way) and k-point(14-way)

 ************************************ Title ************************************
 nmr testing

 ***************************** General Parameters ******************************

 output verbosity                               : normal  (1)
 write checkpoint data to                       : Zr13_05_nmr.check
 type of calculation                            : Magnetic Resonance
 stress calculation                             : on
 density difference calculation                 : off
 electron localisation func (ELF) calculation   : off
 Hirshfeld analysis                             : off
 unlimited duration calculation
 timing information                             : on
 write final potential to formatted file        : off
 write final density to formatted file          : off
 write BibTeX reference list                    : on
 write OTFG pseudopotential files               : on
 checkpoint writing                             : both castep_bin and check files

 output         length unit                     : A
 output           mass unit                     : amu
 output           time unit                     : ps
 output         charge unit                     : e
 output           spin unit                     : hbar/2
 output         energy unit                     : eV
 output          force unit                     : eV/A
 output       velocity unit                     : A/ps
 output       pressure unit                     : GPa
 output     inv_length unit                     : 1/A
 output      frequency unit                     : cm-1
 output force constant unit                     : eV/A**2
 output         volume unit                     : A**3
 output   IR intensity unit                     : (D/A)**2/amu
 output         dipole unit                     : D
 output         efield unit                     : eV/A/e
 output        entropy unit                     : J/mol/K

 wavefunctions paging                           : none
 random number generator seed                   : randomised (212541455)
 data distribution                              : optimal for this architecture
 optimization strategy                          : maximize speed(+++)

[...]
  |    O          42      -88.67      81.52      0.21  -3.213E+00   0.12 |
  |    O          43      -89.98      91.62      0.13  -3.213E+00   0.13 |
  |    O          44      -90.28      90.16      0.17  -3.147E+00   0.14 |
  |    O          45     -164.77     152.01      0.78   1.060E+00   0.89 |
  |    O          46     -164.18     155.98      0.83   1.085E+00   0.89 |
  |    O          47     -164.47     154.60      0.78   1.094E+00   0.87 |
  |    O          48     -163.51     145.74      0.79   1.101E+00   0.79 |
  |    O          49     -167.67     158.86      0.81  -1.050E+00   0.99 |
  |    O          50      -90.66      86.15      0.16  -3.195E+00   0.14 |
  |    O          51     -165.63     154.05      0.78   1.048E+00   0.91 |
  |    O          52      -89.04      85.90      0.11  -3.239E+00   0.13 |
  |    O          53     -165.72     151.34      0.76   1.039E+00   0.91 |
  |    O          54     -166.97     161.87      0.84   1.079E+00   0.95 |
  |    O          55     -167.14     161.13      0.85   1.081E+00   0.95 |
  |    O          56     -165.83     150.93      0.76   1.038E+00   0.91 |
  |    Zr          1     1624.01    -124.44      0.14  -3.940E+01   0.06 |
  |    Zr          2     1623.31    -124.62      0.07  -3.938E+01   0.08 |
  |    Zr          3     1628.69    -126.14      0.10  -4.037E+01   0.09 |
  |    Zr          4     1629.11    -126.50      0.12  -4.032E+01   0.08 |
[...]
  |    La          2     4752.54     872.83      0.04  -8.299E+01   0.06 |
  |    La          3     4757.09     872.07      0.05  -8.473E+01   0.08 |
  |    La          4     4756.99     864.58      0.05  -8.383E+01   0.08 |
  |    La          5     4752.30     871.36      0.05  -8.307E+01   0.06 |
  |    La          6     4711.89     768.39      0.05  -8.273E+01   0.09 |
  |    La          7     4801.56     961.81      0.01  -8.584E+01   0.03 |
  |    La          8     4757.07     864.09      0.05  -8.373E+01   0.08 |
  |    La          9     4753.29     876.56      0.04  -8.323E+01   0.06 |
  |    La         10     4756.20     868.10      0.05  -8.447E+01   0.08 |
  |    La         11     4656.27     635.25      0.00  -7.742E+01   0.03 |
  |    La         12     4800.17     971.26      0.00  -8.493E+01   0.00 |
  |    La         13     4754.83     877.42      0.05  -8.295E+01   0.07 |
  |    La         14     4755.31     878.90      0.05  -8.302E+01   0.06 |
  |    La         15     4710.52     749.45      0.04  -8.076E+01   0.08 |
  |    La         16     4710.86     749.67      0.04  -8.068E+01   0.08 |

 *********************** Forces ***********************
 *            Cartesian components (eV/A)             *
 *                   x            y            z      *
 * O         1     -0.01071     -0.01150      0.00150 *
 * O         2     -0.00480     -0.00172      0.00104 *
 * O         3     -0.00600      0.00111     -0.00232 *
 * O         4     -0.00638      0.00462      0.00147 *
 * O         5      0.00710     -0.00439      0.00620 *
 * O         6      0.00526      0.00646      0.00051 *
 * O         7      0.01017     -0.00348     -0.00856 *
 * O         8      0.00539      0.00259      0.00164 *
 * O         9     -0.00956      0.00524      0.01520 *
 * O        10      0.00369      0.01038     -0.00581 *
 * O        11      0.00123      0.00215      0.00320 *
 * O        12     -0.00051     -0.00966     -0.01523 *
 * O        13      0.00515     -0.01459      0.01000 *
 * O        14     -0.00618      0.01382      0.01879 *
 * O        15      0.00364     -0.00035     -0.00180 *
 * O        16     -0.00277      0.00617     -0.00184 *
 * O        17      0.00906      0.00743      0.00556 *
 * O        18      0.01152     -0.01420     -0.00085 *
 * O        19      0.01012      0.00336     -0.00599 *
 * O        20      0.00334      0.00033      0.01098 *
 * O        21      0.00287      0.00143     -0.00260 *
 * O        22      0.01385      0.00926      0.01284 *
 * O        23      0.00176     -0.00749     -0.01030 *
 * O        24      0.01535      0.00023     -0.01218 *
 * O        25     -0.00576      0.02035     -0.00908 *
 * O        26     -0.00664     -0.00623     -0.00522 *
 * O        27     -0.00717      0.00797      0.00283 *
 * O        28      0.00885     -0.00789     -0.00051 *
 * O        29     -0.00011      0.01003      0.01483 *
 * O        30      0.00036      0.00059     -0.01293 *
 * O        31     -0.00403      0.00837      0.00638 *
 * O        32      0.00250      0.00639     -0.00232 *
 * O        33     -0.00306      0.00517     -0.00404 *
 * O        34      0.01159      0.01378      0.00841 *
 * O        35     -0.01040      0.00270      0.00458 *
 * O        36     -0.00951     -0.01032     -0.00090 *
 * O        37      0.00123     -0.00065      0.01713 *
 * O        38     -0.01101     -0.01289      0.00161 *
 * O        39      0.01097      0.00683     -0.00483 *
 * O        40     -0.00002      0.00836     -0.00284 *
 * O        41      0.01128     -0.00069      0.00577 *
 * O        42      0.00438     -0.01365      0.02041 *
 * O        43     -0.01692     -0.01666     -0.00098 *
 * O        44     -0.01145      0.00653      0.00833 *
 * O        45      0.00373     -0.00145     -0.00534 *
 * O        46     -0.00797     -0.00826     -0.00356 *
 * O        47     -0.00226     -0.00728     -0.00237 *
 * O        48     -0.00075      0.00531      0.00162 *
 * O        49     -0.00401      0.01147      0.00720 *
 * O        50     -0.01078      0.00234     -0.00916 *
 * O        51     -0.00272     -0.00450      0.00335 *
 * O        52     -0.00165     -0.01468     -0.00889 *
 * O        53     -0.00440      0.00143      0.00051 *
 * O        54      0.00673      0.00073     -0.00672 *
 * O        55     -0.00671     -0.01336     -0.00727 *
 * O        56      0.00455      0.00533      0.00678 *
 * Zr        1      0.01275      0.00695     -0.00587 *
 * Zr        2     -0.00447     -0.00944     -0.00724 *
 * Zr        3     -0.00912     -0.00305     -0.00753 *
 * Zr        4      0.01161      0.00183     -0.00345 *
[...]
 * La        2     -0.00553     -0.00525      0.00064 *
 * La        3     -0.00389      0.00508      0.00685 *
 * La        4     -0.01192     -0.01389     -0.00352 *
 * La        5     -0.00670     -0.00787     -0.00579 *
 * La        6     -0.00704     -0.00700     -0.00613 *
 * La        7      0.00840      0.00128      0.00273 *
 * La        8      0.00752      0.00522     -0.00374 *
 * La        9      0.00309     -0.00445     -0.00824 *
 * La       10      0.00628      0.00705      0.00734 *
 * La       11      0.00770      0.01081      0.00961 *
 * La       12      0.00735     -0.00493     -0.00601 *
 * La       13      0.00231      0.00441     -0.00021 *
 * La       14     -0.00455      0.00392     -0.00285 *
 * La       15      0.00688      0.00559      0.00124 *
 * La       16     -0.00748     -0.00154      0.00662 *

 ***************** Stress Tensor *****************
 *          Cartesian components (GPa)           *
 *             x             y             z     *
 *  x     -0.047951     -0.003123      0.005060  *
 *  y     -0.003123      0.041029      0.045575  *
 *  z      0.005060      0.045575      0.028534  *
 *  Pressure:   -0.0072                          *

[...]

 Pseudo atomic calculation performed for Sn 4d10 5s2 5p2

[...]

 Pseudo atomic calculation performed for La 5s2 5p6 5d1 6s2

 Converged in 34 iterations to a total energy of -968.0372 eV

Charge spilling parameter for spin component 1 = 0.22%

     Atomic Populations (Mulliken)
Species   Ion     s      p      d      f     Total  Charge (e)
  O        1     1.87   5.00   0.00   0.00   6.86    -0.86
  O        2     1.87   5.00   0.00   0.00   6.87    -0.87
  O        3     1.87   5.00   0.00   0.00   6.87    -0.87
  O        4     1.87   5.00   0.00   0.00   6.87    -0.87
  O        5     1.87   5.00   0.00   0.00   6.87    -0.87
  O        6     1.87   5.00   0.00   0.00   6.87    -0.87
  O        7     1.87   5.00   0.00   0.00   6.87    -0.87
  O        8     1.87   5.00   0.00   0.00   6.87    -0.87
  O        9     1.87   4.98   0.00   0.00   6.85    -0.85
  O       10     1.86   4.94   0.00   0.00   6.80    -0.80
  O       11     1.86   4.94   0.00   0.00   6.80    -0.80
  O       12     1.87   4.99   0.00   0.00   6.85    -0.85
  O       13     1.88   5.02   0.00   0.00   6.90    -0.90
  O       14     1.87   4.98   0.00   0.00   6.85    -0.85
  O       15     1.85   4.94   0.00   0.00   6.80    -0.80
  O       16     1.85   4.94   0.00   0.00   6.80    -0.80
  O       17     1.86   4.94   0.00   0.00   6.80    -0.80
  O       18     1.87   4.98   0.00   0.00   6.85    -0.85
  O       19     1.86   4.94   0.00   0.00   6.80    -0.80
  O       20     1.86   4.94   0.00   0.00   6.80    -0.80
  O       21     1.86   4.94   0.00   0.00   6.80    -0.80
  O       22     1.87   4.98   0.00   0.00   6.85    -0.85
  O       23     1.85   4.94   0.00   0.00   6.80    -0.80
  O       24     1.87   4.98   0.00   0.00   6.85    -0.85
  O       25     1.87   4.98   0.00   0.00   6.85    -0.85
  O       26     1.86   4.94   0.00   0.00   6.80    -0.80
  O       27     1.86   4.94   0.00   0.00   6.80    -0.80
  O       28     1.86   4.94   0.00   0.00   6.80    -0.80
  O       29     1.87   4.98   0.00   0.00   6.85    -0.85
  O       30     1.88   5.02   0.00   0.00   6.90    -0.90
  O       31     1.85   4.94   0.00   0.00   6.80    -0.80
  O       32     1.86   4.94   0.00   0.00   6.80    -0.80
  O       33     1.86   4.94   0.00   0.00   6.80    -0.80
  O       34     1.87   4.98   0.00   0.00   6.85    -0.85
  O       35     1.86   4.94   0.00   0.00   6.80    -0.80
  O       36     1.86   4.94   0.00   0.00   6.80    -0.80
  O       37     1.85   4.94   0.00   0.00   6.80    -0.80
  O       38     1.86   4.94   0.00   0.00   6.80    -0.80
  O       39     1.86   4.94   0.00   0.00   6.80    -0.80
  O       40     1.85   4.94   0.00   0.00   6.80    -0.80
  O       41     1.86   4.94   0.00   0.00   6.80    -0.80
  O       42     1.87   4.98   0.00   0.00   6.85    -0.85
  O       43     1.87   4.98   0.00   0.00   6.85    -0.85
  O       44     1.87   4.98   0.00   0.00   6.85    -0.85
  O       45     1.86   4.94   0.00   0.00   6.80    -0.80
  O       46     1.86   4.94   0.00   0.00   6.80    -0.80
  O       47     1.85   4.94   0.00   0.00   6.80    -0.80
  O       48     1.86   4.94   0.00   0.00   6.80    -0.80
  O       49     1.86   4.94   0.00   0.00   6.80    -0.80
  O       50     1.87   4.98   0.00   0.00   6.85    -0.85
  O       51     1.86   4.94   0.00   0.00   6.80    -0.80
  O       52     1.87   4.99   0.00   0.00   6.85    -0.85
  O       53     1.86   4.94   0.00   0.00   6.80    -0.80
  O       54     1.85   4.94   0.00   0.00   6.80    -0.80
  O       55     1.85   4.94   0.00   0.00   6.80    -0.80
  O       56     1.86   4.94   0.00   0.00   6.80    -0.80
  Zr       1     2.38   6.49   1.93   0.00  10.79     1.21
  Zr       2     2.37   6.49   1.93   0.00  10.79     1.21
  Zr       3     2.38   6.48   1.93   0.00  10.78     1.22
  Zr       4     2.38   6.48   1.93   0.00  10.78     1.22
[...]
  La       2     2.07   6.14   1.19   0.00   9.40     1.60
  La       3     2.06   6.15   1.19   0.00   9.40     1.60
  La       4     2.06   6.15   1.19   0.00   9.40     1.60
  La       5     2.07   6.14   1.19   0.00   9.40     1.60
  La       6     2.08   6.17   1.19   0.00   9.44     1.56
  La       7     2.04   6.13   1.19   0.00   9.37     1.63
  La       8     2.06   6.15   1.19   0.00   9.40     1.60
  La       9     2.07   6.14   1.19   0.00   9.40     1.60
  La      10     2.06   6.15   1.19   0.00   9.40     1.60
  La      11     2.12   6.19   1.19   0.00   9.50     1.50
  La      12     2.03   6.12   1.19   0.00   9.34     1.66
  La      13     2.05   6.15   1.19   0.00   9.39     1.61
  La      14     2.05   6.15   1.19   0.00   9.39     1.61
  La      15     2.09   6.17   1.19   0.00   9.45     1.55
  La      16     2.09   6.17   1.19   0.00   9.45     1.55

            Bond              Population      Length (A)
         O 12 -- Sn 2              0.35        2.10128
         O 52 -- Sn 3              0.35        2.10218
         O 24 -- Sn 3              0.35        2.10294
         O 43 -- Sn 2              0.35        2.10307
         O 34 -- Sn 2              0.35        2.10480
         O 25 -- Sn 1              0.35        2.10496
         O 42 -- Sn 1              0.35        2.10529
         O 9  -- Sn 3              0.35        2.10569
         O 50 -- Sn 1              0.34        2.10585
         O 18 -- Sn 1              0.34        2.10601
         O 29 -- Sn 2              0.35        2.10799
         O 22 -- Sn 2              0.34        2.10822
         O 44 -- Sn 3              0.34        2.10827
         O 14 -- Sn 3              0.35        2.10948
         O 54 -- Zr 9              0.42        2.10969
         O 40 -- Zr 3              0.43        2.11249
         O 13 -- Sn 2              0.33        2.11341
         O 55 -- Zr 7              0.42        2.11353
         O 55 -- Zr 2              0.42        2.11360
         O 37 -- Zr 10             0.43        2.11454
         O 30 -- Sn 1              0.34        2.11467
         O 32 -- Zr 11             0.44        2.11476
         O 30 -- Sn 3              0.33        2.11479
         O 31 -- Zr 12             0.43        2.11503
         O 16 -- Zr 6              0.43        2.11505
         O 23 -- Zr 8              0.43        2.11519
         O 37 -- Zr 4              0.43        2.11533
         O 13 -- Sn 1              0.33        2.11534
         O 43 -- Zr 2              0.45        2.11555
         O 49 -- Zr 4              0.43        2.11557
         O 15 -- Zr 12             0.43        2.11589
         O 22 -- Zr 10             0.46        2.11597
         O 40 -- Zr 8              0.42        2.11617
         O 28 -- Zr 5              0.43        2.11621
         O 47 -- Zr 4              0.43        2.11626
         O 31 -- Zr 6              0.43        2.11630
         O 54 -- Zr 1              0.42        2.11639
         O 15 -- Zr 11             0.43        2.11639
         O 46 -- Zr 5              0.43        2.11665
         O 27 -- Zr 12             0.44        2.11679
         O 12 -- Zr 7              0.45        2.11709
         O 16 -- Zr 13             0.43        2.11762
         O 36 -- Zr 13             0.43        2.11784
         O 33 -- Zr 3              0.43        2.11797
         O 28 -- Zr 10             0.43        2.11820
         O 11 -- Zr 10             0.43        2.11831
         O 20 -- Zr 8              0.43        2.11845
         O 32 -- Zr 13             0.43        2.11846
         O 44 -- Zr 3              0.46        2.11848
         O 19 -- Zr 10             0.43        2.11851
         O 48 -- Zr 1              0.43        2.11856
         O 33 -- Zr 11             0.43        2.11860
         O 41 -- Zr 13             0.44        2.11894
         O 24 -- Zr 9              0.45        2.11899
         O 20 -- Zr 5              0.44        2.11919
         O 46 -- Zr 3              0.43        2.11920
         O 47 -- Zr 6              0.43        2.11928
         O 49 -- Zr 5              0.43        2.11938
         O 45 -- Zr 1              0.44        2.11943
         O 19 -- Zr 12             0.43        2.11959
[...]
         O 12 -- O 21             -0.03        2.82347
         O 19 -- O 35             -0.03        2.82376
         O 35 -- O 45             -0.03        2.82382
         O 46 -- O 53             -0.03        2.82401
         O 33 -- O 48             -0.03        2.82455
         O 17 -- O 36             -0.03        2.82471
         O 11 -- O 21             -0.03        2.82525
         O 17 -- O 26             -0.03        2.82583
         O 10 -- O 23             -0.03        2.82618
         O 47 -- O 51             -0.03        2.82700
         O 38 -- O 42             -0.03        2.83003
         O 25 -- O 39             -0.03        2.83067
         O 34 -- O 39             -0.03        2.83251
         O 9  -- O 38             -0.03        2.83311
         O 14 -- O 29             -0.03        2.83843

Writing analysis data to Zr13_05_nmr.castep_bin

Writing model to Zr13_05_nmr.check

 A BibTeX formatted list of references used in this run has been written to
 Zr13_05_nmr.bib

Initialisation time =     96.58 s
Calculation time    =   4289.73 s
Finalisation time   =    167.76 s
Total time          =   4554.08 s

Overall parallel efficiency rating: Good (71%)

Data was distributed by:-
G-vector (24-way); efficiency rating: Good (73%)
k-point (14-way); efficiency rating: Excellent (94%)