 Compiled for linux_x86_64_ifort17 on Mon, 09 Apr 2018 23:35:31 +0100
 from code version
 203e84763863+ Castep161_branch Fri, 04 Mar 2016 19:21:07 +0000
 Compiler: Intel Fortran 17.0.1.132; Optimisation: fast
 MATHLIBS: Intel MKL(2017.0.1) (LAPACK version 3.6.0)
 FFT Lib : mkl
 Fundamental constants values: CODATA 2010

 Run started: Thu, 20 Aug 2020 00:05:43 +0100
 |           N   N    M   M    RRRR                |
 |           NN  N    MM MM    R   R               |
 |           N N N    M M M    RRRR                |
 |           N  NN    M   M    R  R                |
 |           N   N    M   M    R   R               |
 | Welcome to Materials Studio CASTEP-NMR          |
 | Authors:                                        |
 | J.R. Yates, C.J. Pickard, F. Mauri              |
 | Contributors:                                   |
 | T.F.G. Green, S.A. Joyce                        |
 | Copyright (c) 2004 - 2015                       |
 | Please cite the appropriate publications in all |
 | work arising from your use of CASTEP NMR.       |
 | For NMR Shielding Tensors cite:                 |
 |    "All-electron magnetic response with         |
 |    pseudopotentials: NMR chemical shifts",      |
 |    C. J. Pickard, F. Mauri;                     |
 |    Physical Review B63 245101 (2001), and       |
 |    "Calculation of NMR Chemical Shifts          |
 |    for extended systems using                   |
 |    Ultrasoft Pseudopotentials",                 |
 |    J. R. Yates, C. J. Pickard and F. Mauri      |
 |    Physical Review B76 024401 (2007)            |
 | For Electric Field Gradients cite:              |
 |   "Accurate First Principles Prediction of 17O  |
 |    NMR Parameters in SiO2: Assignment of the    |
 |    Zeolite Ferrierite Spectrum"                 |
 |    M. Profeta, F. Mauri and C. J. Pickard       |
 |    J. Amer. Chem. Soc. 125 541 (2003)           |
 | For Spin-Spin (J) Couplings cite:               |
 |   "A first principles theory of NMR J-coupling  |
 |   in solid-state systems"                       |
 |   S.A. Joyce, J.R. Yates, C.J. Pickard, F. Mauri|
 |   J. Chem. Phys. 127 204107 (2007)              |
 |   "Relativistic NMR J-coupling with ultrasoft   |
 |   pseudopotentials and the zeroth-order regular |
 |   approximation"                                |
 |   T.F.G. Green and J.R. Yates                   |
 |   J. Chem. Phys. 140 234106 (2014)              |

 Atomic calculation performed for O: 1s2 2s2 2p4

 Converged in 44 iterations to an ae energy of -2040.855 eV

 Atomic calculation performed for O: 1s2 2s2 2p4

 Exceeded max iterations: converged to 0.000000062 eV

   | Pseudopotential Report - Date of generation 20-08-2020   |
   | Element: O Ionic charge:  6.00 Level of theory: PBE      |
   | Atomic Solver: ZORA (scalar)                             |
   |               Reference Electronic Structure             |
   |         Orbital         Occupation         Energy        |
   |            2s              2.000           -0.881        |
   |            2p              4.000           -0.332        |
   |                 Pseudopotential Definition               |
   |        Beta     l      e      Rc     scheme   norm       |
   |          1      0   -0.881   1.100     qc      0         |
   |          2      0    0.250   1.100     qc      0         |
   |          3      1   -0.332   1.100     qc      0         |
   |          4      1    0.250   1.100     qc      0         |
   |         loc     2    0.000   1.100     pn      0         |
   | Augmentation charge Rinner = 0.769                       |
   | Partial core correction Rc = 0.769                       |
   | "2|1.1|15|18|20|20:21(qc=7)"                             |
   |      Author: Chris J. Pickard, Cambridge University      |

 Atomic calculation performed for Zr: 1s2 2s2 2p6 3s2 3p6 3d10 4s2 4p6 4d2 5s2

[...]

 Atomic calculation performed for Zr: 1s2 2s2 2p6 3s2 3p6 3d10 4s2 4p6 4d2 5s2

[...]

 Warning: ion_atom_descreen_psp: negative charge density encountered
   | Pseudopotential Report - Date of generation 20-08-2020   |
   | Element: Zr Ionic charge: 12.00 Level of theory: PBE     |
   | Atomic Solver: ZORA (scalar)                             |
   |               Reference Electronic Structure             |
   |         Orbital         Occupation         Energy        |
   |            4s              2.000           -2.003        |
   |            4p              6.000           -1.193        |
   |            5s              2.000           -0.163        |
   |            4d              2.000           -0.132        |
   |                 Pseudopotential Definition               |
   |        Beta     l      e      Rc     scheme   norm       |
   |          1      0   -2.003   2.105     qc      0         |
   |          2      0   -0.163   2.105     qc      0         |
   |          3      0    0.250   2.105     qc      0         |
   |          4      1   -1.193   2.105     qc      0         |
   |          5      1    0.250   2.105     qc      0         |
   |          6      2   -0.132   2.105     qc      0         |
   |          7      2    0.250   2.105     qc      0         |
   |         loc     3    0.000   2.105     pn      0         |
   | Augmentation charge Rinner = 1.471                       |
   | Partial core correction Rc = 1.471                       |
   | "3|2.1|7|8|9|40U:50:41:42"                               |
   |      Author: Chris J. Pickard, Cambridge University      |

 Atomic calculation performed for Sn:

[...]

 Atomic calculation performed for Sn:

[...]

   | Pseudopotential Report - Date of generation 20-08-2020   |
   | Element: Sn Ionic charge: 14.00 Level of theory: PBE     |
   | Atomic Solver: ZORA (scalar)                             |
   |               Reference Electronic Structure             |
   |         Orbital         Occupation         Energy        |
   |            4d             10.000           -0.950        |
   |            5s              2.000           -0.388        |
   |            5p              2.000           -0.136        |
   |                 Pseudopotential Definition               |
   |        Beta     l      e      Rc     scheme   norm       |
   |          1      0   -0.388   2.199     qc      0         |
   |          2      0    0.250   2.199     qc      0         |
   |          3      1   -0.136   2.199     qc      0         |
   |          4      1    0.250   2.199     qc      0         |
   |          5      2   -0.950   2.199     qc      0         |
   |          6      2    0.250   2.199     qc      0         |
   |         loc     3    0.000   2.199     pn      0         |
   | Augmentation charge Rinner = 1.537                       |
   | Partial core correction Rc = 1.537                       |
   | "3|2.2|7|8|9|50:51:42"                                   |
   |      Author: Chris J. Pickard, Cambridge University      |

 Atomic calculation performed for La:

 Converged in 56 iterations to an ae energy of -230121.495 eV

 Atomic calculation performed for La:

 Exceeded max iterations: converged to 0.000000907 eV

 Warning: ion_atom_descreen_psp: negative charge density encountered
   | Pseudopotential Report - Date of generation 20-08-2020   |
   | Element: La Ionic charge: 11.00 Level of theory: PBE     |
   | Atomic Solver: ZORA (scalar)                             |
   |               Reference Electronic Structure             |
   |         Orbital         Occupation         Energy        |
   |            5s              2.000           -1.430        |
   |            5p              6.000           -0.823        |
   |            6s              2.000           -0.135        |
   |            5d              1.000           -0.114        |
   |                 Pseudopotential Definition               |
   |        Beta     l      e      Rc     scheme   norm       |
   |          1      0   -1.430   2.298     qc      0         |
   |          2      0   -0.135   2.298     qc      0         |
   |          3      0    0.250   2.298     qc      0         |
   |          4      1   -0.823   2.298     qc      0         |
   |          5      1    0.250   2.298     qc      0         |
   |          6      2   -0.114   2.298     qc      0         |
   |          7      2    0.250   2.298     qc      0         |
   |         loc     2    0.000   2.298     pn      0         |
   | Augmentation charge Rinner = 1.606                       |
   | Partial core correction Rc = 1.606                       |
   | "2|2.3|5|6|7|50U:60:51:52(qc=4.5)"                       |
   |      Author: Chris J. Pickard, Cambridge University      |

 Pseudo atomic calculation performed for O 2s2 2p4

 Converged in 39 iterations to a total energy of -432.6554 eV

 Pseudo atomic calculation performed for Zr 4s2 4p6 4d2 5s2

[...]

 Calculation parallelised over 336 processes.
 Data is distributed by G-vector(24-way) and k-point(14-way)

 ************************************ Title ************************************
 nmr testing

 ***************************** General Parameters ******************************

 output verbosity                               : normal  (1)
 write checkpoint data to                       : Zr13_07_nmr.check
 type of calculation                            : Magnetic Resonance
 stress calculation                             : on
 density difference calculation                 : off
 electron localisation func (ELF) calculation   : off
 Hirshfeld analysis                             : off
 unlimited duration calculation
 timing information                             : on
 write final potential to formatted file        : off
 write final density to formatted file          : off
 write BibTeX reference list                    : on
 write OTFG pseudopotential files               : on
 checkpoint writing                             : both castep_bin and check files

 output         length unit                     : A
 output           mass unit                     : amu
 output           time unit                     : ps
 output         charge unit                     : e
 output           spin unit                     : hbar/2
 output         energy unit                     : eV
 output          force unit                     : eV/A
 output       velocity unit                     : A/ps
 output       pressure unit                     : GPa
 output     inv_length unit                     : 1/A
 output      frequency unit                     : cm-1
 output force constant unit                     : eV/A**2
 output         volume unit                     : A**3
 output   IR intensity unit                     : (D/A)**2/amu
 output         dipole unit                     : D
 output         efield unit                     : eV/A/e
 output        entropy unit                     : J/mol/K

 wavefunctions paging                           : none
 random number generator seed                   : randomised (543532)
 data distribution                              : optimal for this architecture
 optimization strategy                          : maximize speed(+++)

[...]
  |    O          42     -164.02     153.12      0.78   1.100E+00   0.86 |
  |    O          43     -161.86     147.76      0.80   1.096E+00   0.79 |
  |    O          44     -164.02     153.12      0.78   1.100E+00   0.86 |
  |    O          45      -91.03      85.35      0.11  -3.225E+00   0.13 |
  |    O          46     -167.69     153.11      0.76  -1.026E+00   0.97 |
  |    O          47     -167.69     153.11      0.76  -1.026E+00   0.97 |
  |    O          48      -91.03      85.35      0.11  -3.225E+00   0.13 |
  |    O          49     -166.15     159.67      0.82   1.089E+00   0.94 |
  |    O          50     -165.51     148.44      0.77   1.071E+00   0.81 |
  |    O          51     -166.15     159.68      0.82   1.089E+00   0.94 |
  |    O          52     -165.51     148.43      0.77   1.071E+00   0.81 |
  |    O          53     -166.15     159.68      0.82   1.089E+00   0.94 |
  |    O          54     -165.51     148.43      0.77   1.071E+00   0.81 |
  |    O          55     -167.69     153.10      0.76  -1.026E+00   0.97 |
  |    O          56      -91.03      85.36      0.11  -3.225E+00   0.13 |
  |    Zr          1     1610.24    -117.88      0.00  -3.850E+01   0.00 |
  |    Zr          2     1629.07    -126.97      0.11  -4.026E+01   0.09 |
  |    Zr          3     1629.07    -126.96      0.11  -4.026E+01   0.09 |
  |    Zr          4     1629.07    -126.97      0.11  -4.026E+01   0.09 |
[...]
  |    La          2     4756.11     866.72      0.05  -8.432E+01   0.08 |
  |    La          3     4756.10     866.73      0.05  -8.432E+01   0.08 |
  |    La          4     4756.10     866.72      0.05  -8.432E+01   0.08 |
  |    La          5     4756.10     866.72      0.05  -8.432E+01   0.08 |
  |    La          6     4756.10     866.73      0.05  -8.432E+01   0.08 |
  |    La          7     4756.10     866.71      0.05  -8.432E+01   0.08 |
  |    La          8     4705.83     762.40      0.04  -8.025E+01   0.10 |
  |    La          9     4710.13     753.17      0.05  -8.140E+01   0.12 |
  |    La         10     4800.72     972.22      0.00  -8.488E+01   0.00 |
  |    La         11     4800.72     972.21      0.00  -8.488E+01   0.00 |
  |    La         12     4710.13     753.18      0.05  -8.140E+01   0.12 |
  |    La         13     4705.83     762.40      0.04  -8.025E+01   0.10 |
  |    La         14     4710.13     753.17      0.05  -8.140E+01   0.12 |
  |    La         15     4800.72     972.21      0.00  -8.488E+01   0.00 |
  |    La         16     4705.83     762.40      0.04  -8.025E+01   0.10 |

 *********************** Forces ***********************
 *            Cartesian components (eV/A)             *
 *                   x            y            z      *
 * O         1     -0.00536     -0.00536     -0.00536 *
 * O         2      0.00155     -0.00084      0.00155 *
 * O         3     -0.00084      0.00155      0.00155 *
 * O         4      0.00155      0.00155     -0.00084 *
 * O         5     -0.00477     -0.00284     -0.00284 *
 * O         6      0.00009      0.00009      0.00009 *
 * O         7     -0.00284     -0.00284     -0.00477 *
 * O         8     -0.00284     -0.00477     -0.00284 *
 * O         9      0.00435     -0.00759     -0.00759 *
 * O        10     -0.00219     -0.00441      0.00185 *
 * O        11      0.01122      0.00016      0.00016 *
 * O        12     -0.00713      0.00470      0.00288 *
 * O        13     -0.00759      0.00435     -0.00759 *
 * O        14      0.00185     -0.00220     -0.00441 *
 * O        15      0.00016      0.01121      0.00016 *
 * O        16      0.00288     -0.00713      0.00470 *
 * O        17     -0.00759     -0.00759      0.00435 *
 * O        18     -0.00441      0.00185     -0.00219 *
 * O        19      0.00016      0.00016      0.01120 *
 * O        20      0.00470      0.00288     -0.00713 *
 * O        21     -0.01258     -0.01294      0.00668 *
 * O        22     -0.01105      0.01869     -0.01105 *
 * O        23      0.00424     -0.01081      0.00668 *
 * O        24     -0.00530      0.00460     -0.00530 *
 * O        25      0.00460     -0.00530     -0.00530 *
 * O        26     -0.01081      0.00668      0.00424 *
 * O        27      0.01869     -0.01105     -0.01105 *
 * O        28     -0.01294      0.00668     -0.01258 *
 * O        29      0.00668      0.00424     -0.01081 *
 * O        30     -0.00530     -0.00530      0.00460 *
 * O        31      0.00668     -0.01258     -0.01294 *
 * O        32     -0.01105     -0.01105      0.01869 *
 * O        33     -0.01294     -0.01258      0.00668 *
 * O        34     -0.01081      0.00424      0.00668 *
 * O        35      0.00668     -0.01294     -0.01258 *
 * O        36      0.00668     -0.01081      0.00424 *
 * O        37     -0.01258      0.00668     -0.01294 *
 * O        38      0.00424      0.00668     -0.01081 *
 * O        39     -0.00441     -0.00220      0.00185 *
 * O        40      0.00470     -0.00713      0.00288 *
 * O        41     -0.00713      0.00288      0.00470 *
 * O        42     -0.00219      0.00185     -0.00441 *
 * O        43      0.00288      0.00470     -0.00713 *
 * O        44      0.00185     -0.00441     -0.00219 *
 * O        45     -0.00192      0.00488      0.00488 *
 * O        46     -0.00914     -0.00139     -0.00138 *
 * O        47     -0.00139     -0.00139     -0.00914 *
 * O        48      0.00488      0.00488     -0.00192 *
 * O        49      0.00542      0.00702      0.00542 *
 * O        50      0.00556      0.00281      0.00557 *
 * O        51      0.00702      0.00542      0.00542 *
 * O        52      0.00281      0.00556      0.00556 *
 * O        53      0.00542      0.00541      0.00702 *
 * O        54      0.00556      0.00556      0.00281 *
 * O        55     -0.00139     -0.00914     -0.00139 *
 * O        56      0.00488     -0.00192      0.00488 *
 * Zr        1      0.01031      0.01031      0.01031 *
 * Zr        2      0.01501      0.01390      0.00779 *
 * Zr        3      0.01390      0.00779      0.01499 *
 * Zr        4      0.00779      0.01500      0.01391 *
[...]
 * La        2      0.00417      0.01424      0.00089 *
 * La        3      0.01424      0.00089      0.00417 *
 * La        4      0.00088      0.00417      0.01423 *
 * La        5      0.01424      0.00417      0.00089 *
 * La        6      0.00417      0.00089      0.01423 *
 * La        7      0.00089      0.01424      0.00417 *
 * La        8     -0.01201     -0.00451     -0.00451 *
 * La        9     -0.01006     -0.01006     -0.00910 *
 * La       10     -0.00658      0.00966     -0.00659 *
 * La       11     -0.00658     -0.00659      0.00966 *
 * La       12     -0.01006     -0.00911     -0.01006 *
 * La       13     -0.00452     -0.01201     -0.00452 *
 * La       14     -0.00911     -0.01006     -0.01006 *
 * La       15      0.00966     -0.00659     -0.00659 *
 * La       16     -0.00452     -0.00452     -0.01200 *

 ***************** Stress Tensor *****************
 *          Cartesian components (GPa)           *
 *             x             y             z     *
 *  x      0.001427     -0.008451     -0.008450  *
 *  y     -0.008451      0.001420     -0.008452  *
 *  z     -0.008450     -0.008452      0.001427  *
 *  Pressure:   -0.0014                          *

[...]

 Pseudo atomic calculation performed for Sn 4d10 5s2 5p2

[...]

 Pseudo atomic calculation performed for La 5s2 5p6 5d1 6s2

 Converged in 34 iterations to a total energy of -968.0372 eV

Charge spilling parameter for spin component 1 = 0.22%

     Atomic Populations (Mulliken)
Species   Ion     s      p      d      f     Total  Charge (e)
  O        1     1.87   5.00   0.00   0.00   6.87    -0.87
  O        2     1.87   5.00   0.00   0.00   6.87    -0.87
  O        3     1.87   5.00   0.00   0.00   6.87    -0.87
  O        4     1.87   5.00   0.00   0.00   6.87    -0.87
  O        5     1.87   5.00   0.00   0.00   6.87    -0.87
  O        6     1.87   5.00   0.00   0.00   6.87    -0.87
  O        7     1.87   5.00   0.00   0.00   6.87    -0.87
  O        8     1.87   5.00   0.00   0.00   6.87    -0.87
  O        9     1.86   4.94   0.00   0.00   6.80    -0.80
  O       10     1.86   4.94   0.00   0.00   6.80    -0.80
  O       11     1.88   5.02   0.00   0.00   6.91    -0.91
  O       12     1.86   4.94   0.00   0.00   6.80    -0.80
  O       13     1.86   4.94   0.00   0.00   6.80    -0.80
  O       14     1.86   4.94   0.00   0.00   6.80    -0.80
  O       15     1.88   5.02   0.00   0.00   6.91    -0.91
  O       16     1.86   4.94   0.00   0.00   6.80    -0.80
  O       17     1.86   4.94   0.00   0.00   6.80    -0.80
  O       18     1.86   4.94   0.00   0.00   6.80    -0.80
  O       19     1.88   5.02   0.00   0.00   6.91    -0.91
  O       20     1.86   4.94   0.00   0.00   6.80    -0.80
  O       21     1.87   4.98   0.00   0.00   6.85    -0.85
  O       22     1.87   4.98   0.00   0.00   6.85    -0.85
  O       23     1.85   4.94   0.00   0.00   6.80    -0.80
  O       24     1.85   4.94   0.00   0.00   6.80    -0.80
  O       25     1.85   4.94   0.00   0.00   6.80    -0.80
  O       26     1.85   4.94   0.00   0.00   6.80    -0.80
  O       27     1.87   4.98   0.00   0.00   6.85    -0.85
  O       28     1.87   4.98   0.00   0.00   6.85    -0.85
  O       29     1.85   4.94   0.00   0.00   6.80    -0.80
  O       30     1.85   4.94   0.00   0.00   6.80    -0.80
  O       31     1.87   4.98   0.00   0.00   6.85    -0.85
  O       32     1.87   4.98   0.00   0.00   6.85    -0.85
  O       33     1.87   4.98   0.00   0.00   6.85    -0.85
  O       34     1.85   4.94   0.00   0.00   6.80    -0.80
  O       35     1.87   4.98   0.00   0.00   6.85    -0.85
  O       36     1.85   4.94   0.00   0.00   6.80    -0.80
  O       37     1.87   4.98   0.00   0.00   6.85    -0.85
  O       38     1.85   4.94   0.00   0.00   6.80    -0.80
  O       39     1.86   4.94   0.00   0.00   6.80    -0.80
  O       40     1.86   4.94   0.00   0.00   6.80    -0.80
  O       41     1.86   4.94   0.00   0.00   6.80    -0.80
  O       42     1.86   4.94   0.00   0.00   6.80    -0.80
  O       43     1.86   4.94   0.00   0.00   6.80    -0.80
  O       44     1.86   4.94   0.00   0.00   6.80    -0.80
  O       45     1.87   4.99   0.00   0.00   6.85    -0.85
  O       46     1.86   4.94   0.00   0.00   6.80    -0.80
  O       47     1.86   4.94   0.00   0.00   6.80    -0.80
  O       48     1.87   4.99   0.00   0.00   6.85    -0.85
  O       49     1.85   4.94   0.00   0.00   6.80    -0.80
  O       50     1.86   4.94   0.00   0.00   6.80    -0.80
  O       51     1.85   4.94   0.00   0.00   6.80    -0.80
  O       52     1.86   4.94   0.00   0.00   6.80    -0.80
  O       53     1.85   4.94   0.00   0.00   6.80    -0.80
  O       54     1.86   4.94   0.00   0.00   6.80    -0.80
  O       55     1.86   4.94   0.00   0.00   6.80    -0.80
  O       56     1.87   4.99   0.00   0.00   6.85    -0.85
  Zr       1     2.37   6.50   1.92   0.00  10.80     1.20
  Zr       2     2.38   6.48   1.93   0.00  10.78     1.22
  Zr       3     2.38   6.48   1.93   0.00  10.78     1.22
  Zr       4     2.38   6.48   1.93   0.00  10.78     1.22
[...]
  La       2     2.06   6.15   1.19   0.00   9.40     1.60
  La       3     2.06   6.15   1.19   0.00   9.40     1.60
  La       4     2.06   6.15   1.19   0.00   9.40     1.60
  La       5     2.06   6.15   1.19   0.00   9.40     1.60
  La       6     2.06   6.15   1.19   0.00   9.40     1.60
  La       7     2.06   6.15   1.19   0.00   9.40     1.60
  La       8     2.10   6.16   1.19   0.00   9.45     1.55
  La       9     2.09   6.17   1.19   0.00   9.45     1.55
  La      10     2.03   6.13   1.19   0.00   9.35     1.65
  La      11     2.03   6.13   1.19   0.00   9.35     1.65
  La      12     2.09   6.17   1.19   0.00   9.45     1.55
  La      13     2.10   6.16   1.19   0.00   9.45     1.55
  La      14     2.09   6.17   1.19   0.00   9.45     1.55
  La      15     2.03   6.13   1.19   0.00   9.35     1.65
  La      16     2.10   6.16   1.19   0.00   9.45     1.55

            Bond              Population      Length (A)
         O 45 -- Sn 3              0.35        2.10253
         O 48 -- Sn 2              0.35        2.10253
         O 56 -- Sn 1              0.35        2.10253
         O 19 -- Sn 1              0.34        2.10893
         O 19 -- Sn 3              0.34        2.10893
         O 15 -- Sn 2              0.34        2.10893
         O 11 -- Sn 2              0.34        2.10893
         O 11 -- Sn 1              0.34        2.10893
         O 15 -- Sn 3              0.34        2.10893
         O 37 -- Sn 1              0.34        2.10898
         O 31 -- Sn 3              0.34        2.10898
         O 21 -- Sn 2              0.34        2.10898
         O 33 -- Sn 2              0.34        2.10898
         O 28 -- Sn 1              0.34        2.10898
         O 35 -- Sn 3              0.34        2.10898
         O 27 -- Sn 3              0.35        2.10938
         O 32 -- Sn 2              0.35        2.10938
         O 22 -- Sn 1              0.35        2.10938
         O 26 -- Zr 7              0.43        2.11189
         O 34 -- Zr 4              0.43        2.11189
         O 38 -- Zr 2              0.43        2.11189
         O 29 -- Zr 5              0.43        2.11189
         O 23 -- Zr 6              0.43        2.11189
         O 36 -- Zr 3              0.43        2.11189
         O 53 -- Zr 3              0.43        2.11436
         O 53 -- Zr 7              0.43        2.11436
         O 49 -- Zr 5              0.43        2.11436
         O 51 -- Zr 6              0.43        2.11436
         O 51 -- Zr 2              0.43        2.11436
         O 49 -- Zr 4              0.43        2.11436
         O 9  -- Zr 12             0.44        2.11587
         O 17 -- Zr 9              0.44        2.11587
         O 13 -- Zr 10             0.44        2.11587
         O 30 -- Zr 10             0.43        2.11658
         O 30 -- Zr 12             0.43        2.11658
         O 24 -- Zr 9              0.43        2.11658
         O 25 -- Zr 9              0.43        2.11658
         O 25 -- Zr 10             0.43        2.11658
         O 24 -- Zr 12             0.43        2.11658
         O 44 -- Zr 3              0.43        2.11750
         O 18 -- Zr 7              0.43        2.11750
         O 14 -- Zr 5              0.43        2.11750
         O 42 -- Zr 2              0.43        2.11750
         O 10 -- Zr 6              0.43        2.11750
         O 39 -- Zr 4              0.43        2.11750
         O 34 -- Zr 11             0.42        2.11785
         O 26 -- Zr 13             0.42        2.11785
         O 29 -- Zr 11             0.42        2.11785
         O 38 -- Zr 8              0.42        2.11785
         O 23 -- Zr 8              0.42        2.11785
         O 36 -- Zr 13             0.42        2.11785
         O 41 -- Zr 13             0.44        2.11810
         O 12 -- Zr 11             0.44        2.11810
         O 20 -- Zr 8              0.44        2.11810
         O 43 -- Zr 11             0.44        2.11810
         O 16 -- Zr 13             0.44        2.11810
         O 40 -- Zr 8              0.44        2.11810
         O 18 -- Zr 10             0.43        2.11885
         O 44 -- Zr 12             0.43        2.11885
         O 39 -- Zr 9              0.43        2.11885
[...]
         O 39 -- O 54             -0.03        2.82255
         O 18 -- O 50             -0.03        2.82255
         O 42 -- O 50             -0.03        2.82255
         O 20 -- O 27             -0.03        2.83179
         O 32 -- O 41             -0.03        2.83179
         O 27 -- O 40             -0.03        2.83179
         O 12 -- O 22             -0.03        2.83179
         O 16 -- O 32             -0.03        2.83179
         O 22 -- O 43             -0.03        2.83179
         O 37 -- O 41             -0.03        2.83314
         O 20 -- O 28             -0.03        2.83314
         O 12 -- O 21             -0.03        2.83314
         O 35 -- O 43             -0.03        2.83314
         O 16 -- O 31             -0.03        2.83314
         O 33 -- O 40             -0.03        2.83314

Writing analysis data to Zr13_07_nmr.castep_bin

Writing model to Zr13_07_nmr.check

 A BibTeX formatted list of references used in this run has been written to
 Zr13_07_nmr.bib

Initialisation time =     98.19 s
Calculation time    =   4842.60 s
Finalisation time   =     90.73 s
Total time          =   5031.52 s

Overall parallel efficiency rating: Satisfactory (67%)

Data was distributed by:-
G-vector (24-way); efficiency rating: Good (70%)
k-point (14-way); efficiency rating: Excellent (92%)