 Compiled for linux_x86_64_ifort17 on Mon, 09 Apr 2018 23:35:31 +0100
 from code version
 203e84763863+ Castep161_branch Fri, 04 Mar 2016 19:21:07 +0000
 Compiler: Intel Fortran 17.0.1.132; Optimisation: fast
 MATHLIBS: Intel MKL(2017.0.1) (LAPACK version 3.6.0)
 FFT Lib : mkl
 Fundamental constants values: CODATA 2010

 Run started: Thu, 20 Aug 2020 01:32:57 +0100
 |           N   N    M   M    RRRR                |
 |           NN  N    MM MM    R   R               |
 |           N N N    M M M    RRRR                |
 |           N  NN    M   M    R  R                |
 |           N   N    M   M    R   R               |
 | Welcome to Materials Studio CASTEP-NMR          |
 | Authors:                                        |
 | J.R. Yates, C.J. Pickard, F. Mauri              |
 | Contributors:                                   |
 | T.F.G. Green, S.A. Joyce                        |
 | Copyright (c) 2004 - 2015                       |
 | Please cite the appropriate publications in all |
 | work arising from your use of CASTEP NMR.       |
 | For NMR Shielding Tensors cite:                 |
 |    "All-electron magnetic response with         |
 |    pseudopotentials: NMR chemical shifts",      |
 |    C. J. Pickard, F. Mauri;                     |
 |    Physical Review B63 245101 (2001), and       |
 |    "Calculation of NMR Chemical Shifts          |
 |    for extended systems using                   |
 |    Ultrasoft Pseudopotentials",                 |
 |    J. R. Yates, C. J. Pickard and F. Mauri      |
 |    Physical Review B76 024401 (2007)            |
 | For Electric Field Gradients cite:              |
 |   "Accurate First Principles Prediction of 17O  |
 |    NMR Parameters in SiO2: Assignment of the    |
 |    Zeolite Ferrierite Spectrum"                 |
 |    M. Profeta, F. Mauri and C. J. Pickard       |
 |    J. Amer. Chem. Soc. 125 541 (2003)           |
 | For Spin-Spin (J) Couplings cite:               |
 |   "A first principles theory of NMR J-coupling  |
 |   in solid-state systems"                       |
 |   S.A. Joyce, J.R. Yates, C.J. Pickard, F. Mauri|
 |   J. Chem. Phys. 127 204107 (2007)              |
 |   "Relativistic NMR J-coupling with ultrasoft   |
 |   pseudopotentials and the zeroth-order regular |
 |   approximation"                                |
 |   T.F.G. Green and J.R. Yates                   |
 |   J. Chem. Phys. 140 234106 (2014)              |

 Atomic calculation performed for O: 1s2 2s2 2p4

 Converged in 44 iterations to an ae energy of -2040.855 eV

 Atomic calculation performed for O: 1s2 2s2 2p4

 Exceeded max iterations: converged to 0.000000062 eV

   | Pseudopotential Report - Date of generation 20-08-2020   |
   | Element: O Ionic charge:  6.00 Level of theory: PBE      |
   | Atomic Solver: ZORA (scalar)                             |
   |               Reference Electronic Structure             |
   |         Orbital         Occupation         Energy        |
   |            2s              2.000           -0.881        |
   |            2p              4.000           -0.332        |
   |                 Pseudopotential Definition               |
   |        Beta     l      e      Rc     scheme   norm       |
   |          1      0   -0.881   1.100     qc      0         |
   |          2      0    0.250   1.100     qc      0         |
   |          3      1   -0.332   1.100     qc      0         |
   |          4      1    0.250   1.100     qc      0         |
   |         loc     2    0.000   1.100     pn      0         |
   | Augmentation charge Rinner = 0.769                       |
   | Partial core correction Rc = 0.769                       |
   | "2|1.1|15|18|20|20:21(qc=7)"                             |
   |      Author: Chris J. Pickard, Cambridge University      |

 Atomic calculation performed for Zr: 1s2 2s2 2p6 3s2 3p6 3d10 4s2 4p6 4d2 5s2

[...]

 Atomic calculation performed for Zr: 1s2 2s2 2p6 3s2 3p6 3d10 4s2 4p6 4d2 5s2

[...]

 Warning: ion_atom_descreen_psp: negative charge density encountered
   | Pseudopotential Report - Date of generation 20-08-2020   |
   | Element: Zr Ionic charge: 12.00 Level of theory: PBE     |
   | Atomic Solver: ZORA (scalar)                             |
   |               Reference Electronic Structure             |
   |         Orbital         Occupation         Energy        |
   |            4s              2.000           -2.003        |
   |            4p              6.000           -1.193        |
   |            5s              2.000           -0.163        |
   |            4d              2.000           -0.132        |
   |                 Pseudopotential Definition               |
   |        Beta     l      e      Rc     scheme   norm       |
   |          1      0   -2.003   2.105     qc      0         |
   |          2      0   -0.163   2.105     qc      0         |
   |          3      0    0.250   2.105     qc      0         |
   |          4      1   -1.193   2.105     qc      0         |
   |          5      1    0.250   2.105     qc      0         |
   |          6      2   -0.132   2.105     qc      0         |
   |          7      2    0.250   2.105     qc      0         |
   |         loc     3    0.000   2.105     pn      0         |
   | Augmentation charge Rinner = 1.471                       |
   | Partial core correction Rc = 1.471                       |
   | "3|2.1|7|8|9|40U:50:41:42"                               |
   |      Author: Chris J. Pickard, Cambridge University      |

 Atomic calculation performed for Sn:

[...]

 Atomic calculation performed for Sn:

[...]

   | Pseudopotential Report - Date of generation 20-08-2020   |
   | Element: Sn Ionic charge: 14.00 Level of theory: PBE     |
   | Atomic Solver: ZORA (scalar)                             |
   |               Reference Electronic Structure             |
   |         Orbital         Occupation         Energy        |
   |            4d             10.000           -0.950        |
   |            5s              2.000           -0.388        |
   |            5p              2.000           -0.136        |
   |                 Pseudopotential Definition               |
   |        Beta     l      e      Rc     scheme   norm       |
   |          1      0   -0.388   2.199     qc      0         |
   |          2      0    0.250   2.199     qc      0         |
   |          3      1   -0.136   2.199     qc      0         |
   |          4      1    0.250   2.199     qc      0         |
   |          5      2   -0.950   2.199     qc      0         |
   |          6      2    0.250   2.199     qc      0         |
   |         loc     3    0.000   2.199     pn      0         |
   | Augmentation charge Rinner = 1.537                       |
   | Partial core correction Rc = 1.537                       |
   | "3|2.2|7|8|9|50:51:42"                                   |
   |      Author: Chris J. Pickard, Cambridge University      |

 Atomic calculation performed for La:

 Converged in 56 iterations to an ae energy of -230121.495 eV

 Atomic calculation performed for La:

 Exceeded max iterations: converged to 0.000000907 eV

 Warning: ion_atom_descreen_psp: negative charge density encountered
   | Pseudopotential Report - Date of generation 20-08-2020   |
   | Element: La Ionic charge: 11.00 Level of theory: PBE     |
   | Atomic Solver: ZORA (scalar)                             |
   |               Reference Electronic Structure             |
   |         Orbital         Occupation         Energy        |
   |            5s              2.000           -1.430        |
   |            5p              6.000           -0.823        |
   |            6s              2.000           -0.135        |
   |            5d              1.000           -0.114        |
   |                 Pseudopotential Definition               |
   |        Beta     l      e      Rc     scheme   norm       |
   |          1      0   -1.430   2.298     qc      0         |
   |          2      0   -0.135   2.298     qc      0         |
   |          3      0    0.250   2.298     qc      0         |
   |          4      1   -0.823   2.298     qc      0         |
   |          5      1    0.250   2.298     qc      0         |
   |          6      2   -0.114   2.298     qc      0         |
   |          7      2    0.250   2.298     qc      0         |
   |         loc     2    0.000   2.298     pn      0         |
   | Augmentation charge Rinner = 1.606                       |
   | Partial core correction Rc = 1.606                       |
   | "2|2.3|5|6|7|50U:60:51:52(qc=4.5)"                       |
   |      Author: Chris J. Pickard, Cambridge University      |

 Pseudo atomic calculation performed for O 2s2 2p4

 Converged in 39 iterations to a total energy of -432.6554 eV

 Pseudo atomic calculation performed for Zr 4s2 4p6 4d2 5s2

[...]

 Calculation parallelised over 336 processes.
 Data is distributed by G-vector(24-way) and k-point(14-way)

 ************************************ Title ************************************
 nmr testing

 ***************************** General Parameters ******************************

 output verbosity                               : normal  (1)
 write checkpoint data to                       : Zr13_08_nmr.check
 type of calculation                            : Magnetic Resonance
 stress calculation                             : on
 density difference calculation                 : off
 electron localisation func (ELF) calculation   : off
 Hirshfeld analysis                             : off
 unlimited duration calculation
 timing information                             : on
 write final potential to formatted file        : off
 write final density to formatted file          : off
 write BibTeX reference list                    : on
 write OTFG pseudopotential files               : on
 checkpoint writing                             : both castep_bin and check files

 output         length unit                     : A
 output           mass unit                     : amu
 output           time unit                     : ps
 output         charge unit                     : e
 output           spin unit                     : hbar/2
 output         energy unit                     : eV
 output          force unit                     : eV/A
 output       velocity unit                     : A/ps
 output       pressure unit                     : GPa
 output     inv_length unit                     : 1/A
 output      frequency unit                     : cm-1
 output force constant unit                     : eV/A**2
 output         volume unit                     : A**3
 output   IR intensity unit                     : (D/A)**2/amu
 output         dipole unit                     : D
 output         efield unit                     : eV/A/e
 output        entropy unit                     : J/mol/K

 wavefunctions paging                           : none
 random number generator seed                   : randomised (13258574)
 data distribution                              : optimal for this architecture
 optimization strategy                          : maximize speed(+++)

[...]
  |    O          42     -165.00     157.67      0.82   1.076E+00   0.90 |
  |    O          43      -86.79      84.80      0.20  -3.209E+00   0.13 |
  |    O          44     -165.00     157.67      0.82   1.076E+00   0.90 |
  |    O          45     -167.04     152.76      0.77   1.059E+00   0.99 |
  |    O          46     -162.02     151.39      0.83   1.091E+00   0.81 |
  |    O          47     -162.02     151.39      0.83   1.091E+00   0.81 |
  |    O          48     -167.04     152.76      0.77   1.059E+00   0.99 |
  |    O          49     -162.02     151.39      0.83   1.091E+00   0.81 |
  |    O          50     -167.04     152.77      0.77   1.059E+00   0.99 |
  |    O          51     -162.02     151.39      0.83   1.091E+00   0.81 |
  |    O          52     -167.04     152.76      0.77   1.059E+00   0.99 |
  |    O          53     -162.02     151.39      0.83   1.091E+00   0.81 |
  |    O          54     -167.04     152.76      0.77   1.059E+00   0.99 |
  |    O          55     -162.02     151.39      0.83   1.091E+00   0.81 |
  |    O          56     -167.04     152.76      0.77   1.059E+00   0.99 |
  |    Zr          1     1623.64    -120.75      0.00  -4.169E+01   0.00 |
  |    Zr          2     1632.35    -130.93      0.05  -3.952E+01   0.04 |
  |    Zr          3     1632.35    -130.93      0.05  -3.952E+01   0.04 |
  |    Zr          4     1632.35    -130.93      0.05  -3.952E+01   0.04 |
[...]
  |    La          2     4753.81     873.07      0.06  -8.291E+01   0.06 |
  |    La          3     4753.81     873.08      0.06  -8.291E+01   0.06 |
  |    La          4     4753.81     873.07      0.06  -8.291E+01   0.06 |
  |    La          5     4753.81     873.07      0.06  -8.291E+01   0.06 |
  |    La          6     4753.81     873.08      0.06  -8.291E+01   0.06 |
  |    La          7     4753.81     873.07      0.06  -8.291E+01   0.06 |
  |    La          8     4808.10     953.53      0.01  -8.603E+01   0.03 |
  |    La          9     4708.37     792.80      0.12  -8.148E+01   0.12 |
  |    La         10     4708.37     792.80      0.12  -8.148E+01   0.12 |
  |    La         11     4708.37     792.80      0.12  -8.148E+01   0.12 |
  |    La         12     4708.37     792.80      0.12  -8.148E+01   0.12 |
  |    La         13     4808.10     953.53      0.01  -8.603E+01   0.03 |
  |    La         14     4708.37     792.80      0.12  -8.148E+01   0.12 |
  |    La         15     4708.37     792.80      0.12  -8.148E+01   0.12 |
  |    La         16     4808.10     953.53      0.01  -8.603E+01   0.03 |

 *********************** Forces ***********************
 *            Cartesian components (eV/A)             *
 *                   x            y            z      *
 * O         1     -0.00923     -0.00923     -0.00923 *
 * O         2     -0.00679     -0.01108     -0.00679 *
 * O         3     -0.01108     -0.00679     -0.00679 *
 * O         4     -0.00679     -0.00679     -0.01108 *
 * O         5      0.01108      0.00679      0.00679 *
 * O         6      0.00923      0.00923      0.00923 *
 * O         7      0.00679      0.00679      0.01108 *
 * O         8      0.00679      0.01108      0.00679 *
 * O         9     -0.00271     -0.03083     -0.03083 *
 * O        10     -0.01206     -0.00696      0.00093 *
 * O        11      0.00462      0.00014      0.00014 *
 * O        12      0.00415     -0.02242     -0.02072 *
 * O        13     -0.03083     -0.00271     -0.03083 *
 * O        14      0.00093     -0.01206     -0.00696 *
 * O        15      0.00014      0.00462      0.00014 *
 * O        16     -0.02072      0.00415     -0.02242 *
 * O        17     -0.03083     -0.03083     -0.00271 *
 * O        18     -0.00696      0.00093     -0.01206 *
 * O        19      0.00014      0.00014      0.00462 *
 * O        20     -0.02242     -0.02072      0.00415 *
 * O        21      0.00696      0.01206     -0.00093 *
 * O        22      0.03083      0.00271      0.03083 *
 * O        23      0.02242     -0.00415      0.02072 *
 * O        24     -0.00014     -0.00462     -0.00014 *
 * O        25     -0.00462     -0.00014     -0.00014 *
 * O        26     -0.00415      0.02072      0.02242 *
 * O        27      0.00271      0.03083      0.03083 *
 * O        28      0.01206     -0.00093      0.00696 *
 * O        29      0.02072      0.02242     -0.00415 *
 * O        30     -0.00014     -0.00014     -0.00462 *
 * O        31     -0.00093      0.00696      0.01206 *
 * O        32      0.03083      0.03083      0.00271 *
 * O        33      0.01206      0.00695     -0.00093 *
 * O        34     -0.00415      0.02242      0.02072 *
 * O        35     -0.00093      0.01206      0.00696 *
 * O        36      0.02072     -0.00416      0.02242 *
 * O        37      0.00696     -0.00093      0.01206 *
 * O        38      0.02242      0.02072     -0.00415 *
 * O        39     -0.00696     -0.01206      0.00093 *
 * O        40     -0.02242      0.00415     -0.02072 *
 * O        41      0.00415     -0.02072     -0.02242 *
 * O        42     -0.01206      0.00093     -0.00696 *
 * O        43     -0.02072     -0.02242      0.00415 *
 * O        44      0.00093     -0.00696     -0.01206 *
 * O        45      0.01758      0.02168      0.02168 *
 * O        46     -0.00867     -0.00159     -0.00159 *
 * O        47     -0.00159     -0.00159     -0.00867 *
 * O        48      0.02168      0.02168      0.01758 *
 * O        49      0.00159      0.00867      0.00159 *
 * O        50     -0.02168     -0.01757     -0.02168 *
 * O        51      0.00867      0.00159      0.00159 *
 * O        52     -0.01758     -0.02168     -0.02168 *
 * O        53      0.00160      0.00159      0.00867 *
 * O        54     -0.02168     -0.02168     -0.01758 *
 * O        55     -0.00159     -0.00867     -0.00159 *
 * O        56      0.02168      0.01758      0.02168 *
 * Zr        1      0.00000      0.00000     -0.00000 *
 * Zr        2     -0.00321      0.00322     -0.00000 *
 * Zr        3      0.00321      0.00000     -0.00323 *
 * Zr        4      0.00000     -0.00321      0.00323 *
[...]
 * La        2     -0.00930      0.00930     -0.00000 *
 * La        3      0.00929      0.00000     -0.00929 *
 * La        4      0.00000     -0.00929      0.00929 *
 * La        5      0.00930     -0.00930      0.00000 *
 * La        6     -0.00929     -0.00000      0.00929 *
 * La        7      0.00000      0.00929     -0.00929 *
 * La        8     -0.00000     -0.00000      0.00000 *
 * La        9     -0.00708     -0.00707      0.01339 *
 * La       10      0.00708     -0.01339      0.00707 *
 * La       11      0.00707      0.00707     -0.01340 *
 * La       12     -0.00708      0.01339     -0.00707 *
 * La       13      0.00000     -0.00000      0.00000 *
 * La       14      0.01339     -0.00708     -0.00707 *
 * La       15     -0.01340      0.00707      0.00707 *
 * La       16      0.00000      0.00000      0.00000 *

 ***************** Stress Tensor *****************
 *          Cartesian components (GPa)           *
 *             x             y             z     *
 *  x      0.023119      0.038806      0.038812  *
 *  y      0.038806      0.023124      0.038804  *
 *  z      0.038812      0.038804      0.023123  *
 *  Pressure:   -0.0231                          *

[...]

 Pseudo atomic calculation performed for Sn 4d10 5s2 5p2

[...]

 Pseudo atomic calculation performed for La 5s2 5p6 5d1 6s2

 Converged in 34 iterations to a total energy of -968.0372 eV

Charge spilling parameter for spin component 1 = 0.22%

     Atomic Populations (Mulliken)
Species   Ion     s      p      d      f     Total  Charge (e)
  O        1     1.87   5.00   0.00   0.00   6.87    -0.87
  O        2     1.87   5.00   0.00   0.00   6.87    -0.87
  O        3     1.87   5.00   0.00   0.00   6.87    -0.87
  O        4     1.87   5.00   0.00   0.00   6.87    -0.87
  O        5     1.87   5.00   0.00   0.00   6.87    -0.87
  O        6     1.87   5.00   0.00   0.00   6.87    -0.87
  O        7     1.87   5.00   0.00   0.00   6.87    -0.87
  O        8     1.87   5.00   0.00   0.00   6.87    -0.87
  O        9     1.87   4.98   0.00   0.00   6.85    -0.85
  O       10     1.86   4.94   0.00   0.00   6.80    -0.80
  O       11     1.86   4.94   0.00   0.00   6.80    -0.80
  O       12     1.87   4.98   0.00   0.00   6.85    -0.85
  O       13     1.87   4.98   0.00   0.00   6.85    -0.85
  O       14     1.86   4.94   0.00   0.00   6.80    -0.80
  O       15     1.86   4.94   0.00   0.00   6.80    -0.80
  O       16     1.87   4.98   0.00   0.00   6.85    -0.85
  O       17     1.87   4.98   0.00   0.00   6.85    -0.85
  O       18     1.86   4.94   0.00   0.00   6.80    -0.80
  O       19     1.86   4.94   0.00   0.00   6.80    -0.80
  O       20     1.87   4.98   0.00   0.00   6.85    -0.85
  O       21     1.86   4.94   0.00   0.00   6.80    -0.80
  O       22     1.87   4.98   0.00   0.00   6.85    -0.85
  O       23     1.87   4.98   0.00   0.00   6.85    -0.85
  O       24     1.86   4.94   0.00   0.00   6.80    -0.80
  O       25     1.86   4.94   0.00   0.00   6.80    -0.80
  O       26     1.87   4.98   0.00   0.00   6.85    -0.85
  O       27     1.87   4.98   0.00   0.00   6.85    -0.85
  O       28     1.86   4.94   0.00   0.00   6.80    -0.80
  O       29     1.87   4.98   0.00   0.00   6.85    -0.85
  O       30     1.86   4.94   0.00   0.00   6.80    -0.80
  O       31     1.86   4.94   0.00   0.00   6.80    -0.80
  O       32     1.87   4.98   0.00   0.00   6.85    -0.85
  O       33     1.86   4.94   0.00   0.00   6.80    -0.80
  O       34     1.87   4.98   0.00   0.00   6.85    -0.85
  O       35     1.86   4.94   0.00   0.00   6.80    -0.80
  O       36     1.87   4.98   0.00   0.00   6.85    -0.85
  O       37     1.86   4.94   0.00   0.00   6.80    -0.80
  O       38     1.87   4.98   0.00   0.00   6.85    -0.85
  O       39     1.86   4.94   0.00   0.00   6.80    -0.80
  O       40     1.87   4.98   0.00   0.00   6.85    -0.85
  O       41     1.87   4.98   0.00   0.00   6.85    -0.85
  O       42     1.86   4.94   0.00   0.00   6.80    -0.80
  O       43     1.87   4.98   0.00   0.00   6.85    -0.85
  O       44     1.86   4.94   0.00   0.00   6.80    -0.80
  O       45     1.86   4.94   0.00   0.00   6.80    -0.80
  O       46     1.86   4.94   0.00   0.00   6.80    -0.80
  O       47     1.86   4.94   0.00   0.00   6.80    -0.80
  O       48     1.86   4.94   0.00   0.00   6.80    -0.80
  O       49     1.86   4.94   0.00   0.00   6.80    -0.80
  O       50     1.86   4.94   0.00   0.00   6.80    -0.80
  O       51     1.86   4.94   0.00   0.00   6.80    -0.80
  O       52     1.86   4.94   0.00   0.00   6.80    -0.80
  O       53     1.86   4.94   0.00   0.00   6.80    -0.80
  O       54     1.86   4.94   0.00   0.00   6.80    -0.80
  O       55     1.86   4.94   0.00   0.00   6.80    -0.80
  O       56     1.86   4.94   0.00   0.00   6.80    -0.80
  Zr       1     2.38   6.47   1.93   0.00  10.78     1.22
  Zr       2     2.38   6.49   1.93   0.00  10.79     1.21
  Zr       3     2.38   6.49   1.93   0.00  10.79     1.21
  Zr       4     2.38   6.49   1.93   0.00  10.79     1.21
[...]
  La       2     2.07   6.14   1.19   0.00   9.40     1.60
  La       3     2.07   6.14   1.19   0.00   9.40     1.60
  La       4     2.07   6.14   1.19   0.00   9.40     1.60
  La       5     2.07   6.14   1.19   0.00   9.40     1.60
  La       6     2.07   6.14   1.19   0.00   9.40     1.60
  La       7     2.07   6.14   1.19   0.00   9.40     1.60
  La       8     2.03   6.14   1.19   0.00   9.36     1.64
  La       9     2.08   6.16   1.19   0.00   9.44     1.56
  La      10     2.08   6.16   1.19   0.00   9.44     1.56
  La      11     2.08   6.16   1.19   0.00   9.44     1.56
  La      12     2.08   6.16   1.19   0.00   9.44     1.56
  La      13     2.03   6.14   1.19   0.00   9.36     1.64
  La      14     2.08   6.16   1.19   0.00   9.44     1.56
  La      15     2.08   6.16   1.19   0.00   9.44     1.56
  La      16     2.03   6.14   1.19   0.00   9.36     1.64

            Bond              Population      Length (A)
         O 32 -- Sn 3              0.35        2.10441
         O 17 -- Sn 3              0.35        2.10441
         O 27 -- Sn 1              0.35        2.10441
         O 9  -- Sn 1              0.35        2.10441
         O 22 -- Sn 2              0.35        2.10441
         O 13 -- Sn 2              0.35        2.10441
         O 38 -- Sn 1              0.35        2.10625
         O 20 -- Sn 1              0.35        2.10625
         O 43 -- Sn 2              0.35        2.10625
         O 29 -- Sn 2              0.35        2.10625
         O 41 -- Sn 3              0.35        2.10625
         O 26 -- Sn 3              0.35        2.10625
         O 34 -- Sn 2              0.35        2.10625
         O 12 -- Sn 2              0.35        2.10625
         O 40 -- Sn 1              0.35        2.10625
         O 23 -- Sn 1              0.35        2.10625
         O 36 -- Sn 3              0.35        2.10625
         O 16 -- Sn 3              0.35        2.10625
         O 32 -- Zr 10             0.46        2.11476
         O 17 -- Zr 8              0.46        2.11476
         O 27 -- Zr 13             0.46        2.11476
         O 9  -- Zr 12             0.46        2.11476
         O 22 -- Zr 9              0.46        2.11476
         O 13 -- Zr 11             0.46        2.11476
         O 39 -- Zr 4              0.43        2.11703
         O 21 -- Zr 7              0.43        2.11703
         O 14 -- Zr 5              0.43        2.11703
         O 35 -- Zr 2              0.43        2.11703
         O 44 -- Zr 3              0.43        2.11703
         O 31 -- Zr 6              0.43        2.11703
         O 10 -- Zr 6              0.43        2.11703
         O 33 -- Zr 3              0.43        2.11703
         O 37 -- Zr 4              0.43        2.11703
         O 18 -- Zr 7              0.43        2.11703
         O 42 -- Zr 2              0.43        2.11703
         O 28 -- Zr 5              0.43        2.11703
         O 35 -- Zr 13             0.43        2.11815
         O 14 -- Zr 12             0.43        2.11815
         O 21 -- Zr 10             0.43        2.11815
         O 39 -- Zr 8              0.43        2.11815
         O 37 -- Zr 9              0.43        2.11815
         O 18 -- Zr 11             0.43        2.11815
         O 28 -- Zr 9              0.43        2.11815
         O 42 -- Zr 11             0.43        2.11815
         O 31 -- Zr 13             0.43        2.11815
         O 44 -- Zr 12             0.43        2.11815
         O 33 -- Zr 10             0.43        2.11815
         O 10 -- Zr 8              0.43        2.11815
         O 54 -- Zr 1              0.44        2.11866
         O 48 -- Zr 1              0.44        2.11866
         O 52 -- Zr 1              0.44        2.11866
         O 45 -- Zr 1              0.44        2.11866
         O 56 -- Zr 1              0.44        2.11866
         O 50 -- Zr 1              0.44        2.11866
         O 49 -- Zr 4              0.43        2.12056
         O 55 -- Zr 7              0.43        2.12056
         O 49 -- Zr 5              0.43        2.12056
         O 55 -- Zr 2              0.43        2.12056
         O 53 -- Zr 3              0.43        2.12056
         O 47 -- Zr 6              0.43        2.12056
[...]
         O 24 -- O 44             -0.03        2.82673
         O 11 -- O 21             -0.03        2.82673
         O 25 -- O 39             -0.03        2.82673
         O 15 -- O 33             -0.03        2.82673
         O 10 -- O 24             -0.03        2.82673
         O 18 -- O 25             -0.03        2.82673
         O 11 -- O 37             -0.03        2.82673
         O 19 -- O 28             -0.03        2.82673
         O 30 -- O 42             -0.03        2.82673
         O 47 -- O 49             -0.03        2.83021
         O 53 -- O 55             -0.03        2.83021
         O 51 -- O 55             -0.03        2.83021
         O 46 -- O 49             -0.03        2.83021
         O 47 -- O 51             -0.03        2.83021
         O 46 -- O 53             -0.03        2.83021

Writing analysis data to Zr13_08_nmr.castep_bin

Writing model to Zr13_08_nmr.check

 A BibTeX formatted list of references used in this run has been written to
 Zr13_08_nmr.bib

Initialisation time =     93.94 s
Calculation time    =  29720.50 s
Finalisation time   =     16.76 s
Total time          =  29831.19 s

Overall parallel efficiency rating: Terrible (10%)

Data was distributed by:-
G-vector (24-way); efficiency rating: Terrible (10%)
k-point (14-way); efficiency rating: Very good (83%)