 Compiled for linux_x86_64_ifort16 on Sat, 23 Jul 2016 23:44:54 +0100
 from code version
 203e84763863+ Castep161_branch Fri, 04 Mar 2016 19:21:07 +0000
 Compiler: Intel Fortran 16.0.3.210; Optimisation: fast
 MATHLIBS: Intel MKL(11.3.3) (LAPACK version 3.6.0)
 FFT Lib : mkl
 Fundamental constants values: CODATA 2010

 Run started: Sat, 09 Dec 2017 21:44:59 +0000
 |           N   N    M   M    RRRR                |
 |           NN  N    MM MM    R   R               |
 |           N N N    M M M    RRRR                |
 |           N  NN    M   M    R  R                |
 |           N   N    M   M    R   R               |
 | Welcome to Materials Studio CASTEP-NMR          |
 | Authors:                                        |
 | J.R. Yates, C.J. Pickard, F. Mauri              |
 | Contributors:                                   |
 | T.F.G. Green, S.A. Joyce                        |
 | Copyright (c) 2004 - 2015                       |
 | Please cite the appropriate publications in all |
 | work arising from your use of CASTEP NMR.       |
 | For NMR Shielding Tensors cite:                 |
 |    "All-electron magnetic response with         |
 |    pseudopotentials: NMR chemical shifts",      |
 |    C. J. Pickard, F. Mauri;                     |
 |    Physical Review B63 245101 (2001), and       |
 |    "Calculation of NMR Chemical Shifts          |
 |    for extended systems using                   |
 |    Ultrasoft Pseudopotentials",                 |
 |    J. R. Yates, C. J. Pickard and F. Mauri      |
 |    Physical Review B76 024401 (2007)            |
 | For Electric Field Gradients cite:              |
 |   "Accurate First Principles Prediction of 17O  |
 |    NMR Parameters in SiO2: Assignment of the    |
 |    Zeolite Ferrierite Spectrum"                 |
 |    M. Profeta, F. Mauri and C. J. Pickard       |
 |    J. Amer. Chem. Soc. 125 541 (2003)           |
 | For Spin-Spin (J) Couplings cite:               |
 |   "A first principles theory of NMR J-coupling  |
 |   in solid-state systems"                       |
 |   S.A. Joyce, J.R. Yates, C.J. Pickard, F. Mauri|
 |   J. Chem. Phys. 127 204107 (2007)              |
 |   "Relativistic NMR J-coupling with ultrasoft   |
 |   pseudopotentials and the zeroth-order regular |
 |   approximation"                                |
 |   T.F.G. Green and J.R. Yates                   |
 |   J. Chem. Phys. 140 234106 (2014)              |

 Atomic calculation performed for O: 1s2 2s2 2p4

 Converged in 44 iterations to an ae energy of -2040.855 eV

 Atomic calculation performed for O: 1s2 2s2 2p4

 Exceeded max iterations: converged to 0.000000062 eV

   | Pseudopotential Report - Date of generation  9-12-2017   |
   | Element: O Ionic charge:  6.00 Level of theory: PBE      |
   | Atomic Solver: ZORA (scalar)                             |
   |               Reference Electronic Structure             |
   |         Orbital         Occupation         Energy        |
   |            2s              2.000           -0.881        |
   |            2p              4.000           -0.332        |
   |                 Pseudopotential Definition               |
   |        Beta     l      e      Rc     scheme   norm       |
   |          1      0   -0.881   1.100     qc      0         |
   |          2      0    0.250   1.100     qc      0         |
   |          3      1   -0.332   1.100     qc      0         |
   |          4      1    0.250   1.100     qc      0         |
   |         loc     2    0.000   1.100     pn      0         |
   | Augmentation charge Rinner = 0.769                       |
   | Partial core correction Rc = 0.769                       |
   | "2|1.1|15|18|20|20:21(qc=7)"                             |
   |      Author: Chris J. Pickard, Cambridge University      |

 Atomic calculation performed for Zr: 1s2 2s2 2p6 3s2 3p6 3d10 4s2 4p6 4d2 5s2

[...]

 Atomic calculation performed for Zr: 1s2 2s2 2p6 3s2 3p6 3d10 4s2 4p6 4d2 5s2

[...]

 Warning: ion_atom_descreen_psp: negative charge density encountered
   | Pseudopotential Report - Date of generation  9-12-2017   |
   | Element: Zr Ionic charge: 12.00 Level of theory: PBE     |
   | Atomic Solver: ZORA (scalar)                             |
   |               Reference Electronic Structure             |
   |         Orbital         Occupation         Energy        |
   |            4s              2.000           -2.003        |
   |            4p              6.000           -1.193        |
   |            5s              2.000           -0.163        |
   |            4d              2.000           -0.132        |
   |                 Pseudopotential Definition               |
   |        Beta     l      e      Rc     scheme   norm       |
   |          1      0   -2.003   2.105     qc      0         |
   |          2      0   -0.163   2.105     qc      0         |
   |          3      0    0.250   2.105     qc      0         |
   |          4      1   -1.193   2.105     qc      0         |
   |          5      1    0.250   2.105     qc      0         |
   |          6      2   -0.132   2.105     qc      0         |
   |          7      2    0.250   2.105     qc      0         |
   |         loc     3    0.000   2.105     pn      0         |
   | Augmentation charge Rinner = 1.471                       |
   | Partial core correction Rc = 1.471                       |
   | "3|2.1|7|8|9|40U:50:41:42"                               |
   |      Author: Chris J. Pickard, Cambridge University      |

 Atomic calculation performed for La:

 Converged in 56 iterations to an ae energy of -230121.495 eV

 Atomic calculation performed for La:

 Exceeded max iterations: converged to 0.000000907 eV

 Warning: ion_atom_descreen_psp: negative charge density encountered
   | Pseudopotential Report - Date of generation  9-12-2017   |
   | Element: La Ionic charge: 11.00 Level of theory: PBE     |
   | Atomic Solver: ZORA (scalar)                             |
   |               Reference Electronic Structure             |
   |         Orbital         Occupation         Energy        |
   |            5s              2.000           -1.430        |
   |            5p              6.000           -0.823        |
   |            6s              2.000           -0.135        |
   |            5d              1.000           -0.114        |
   |                 Pseudopotential Definition               |
   |        Beta     l      e      Rc     scheme   norm       |
   |          1      0   -1.430   2.298     qc      0         |
   |          2      0   -0.135   2.298     qc      0         |
   |          3      0    0.250   2.298     qc      0         |
   |          4      1   -0.823   2.298     qc      0         |
   |          5      1    0.250   2.298     qc      0         |
   |          6      2   -0.114   2.298     qc      0         |
   |          7      2    0.250   2.298     qc      0         |
   |         loc     2    0.000   2.298     pn      0         |
   | Augmentation charge Rinner = 1.606                       |
   | Partial core correction Rc = 1.606                       |
   | "2|2.3|5|6|7|50U:60:51:52(qc=4.5)"                       |
   |      Author: Chris J. Pickard, Cambridge University      |

 Pseudo atomic calculation performed for O 2s2 2p4

 Converged in 39 iterations to a total energy of -432.6554 eV

 Pseudo atomic calculation performed for Zr 4s2 4p6 4d2 5s2

[...]

 Calculation parallelised over 56 processes.
 Data is distributed by G-vector(4-way) and k-point(14-way)

 ************************************ Title ************************************
 nmr testing

 ***************************** General Parameters ******************************

 output verbosity                               : normal  (1)
 write checkpoint data to                       : La2Zr2O7.check
 type of calculation                            : Magnetic Resonance
 stress calculation                             : on
 density difference calculation                 : off
 electron localisation func (ELF) calculation   : off
 Hirshfeld analysis                             : off
 unlimited duration calculation
 timing information                             : on
 write final potential to formatted file        : off
 write final density to formatted file          : off
 write structure in CIF formatted file          : on
 write structure in CELL formatted file         : on
 write BibTeX reference list                    : on
 write OTFG pseudopotential files               : on
 checkpoint writing                             : both castep_bin and check files

 output         length unit                     : A
 output           mass unit                     : amu
 output           time unit                     : ps
 output         charge unit                     : e
 output           spin unit                     : hbar/2
 output         energy unit                     : eV
 output          force unit                     : eV/A
 output       velocity unit                     : A/ps
 output       pressure unit                     : GPa
 output     inv_length unit                     : 1/A
 output      frequency unit                     : cm-1
 output force constant unit                     : eV/A**2
 output         volume unit                     : A**3
 output   IR intensity unit                     : (D/A)**2/amu
 output         dipole unit                     : D
 output         efield unit                     : eV/A/e
 output        entropy unit                     : J/mol/K

 wavefunctions paging                           : none
 random number generator seed                   : randomised (214501648)
 data distribution                              : optimal for this architecture
 optimization strategy                          : maximize speed(+++)

 *********************** Exchange-Correlation Parameters ***********************

 using functional                               : Perdew Burke Ernzerhof
 relativistic treatment                         : ZORA
 DFT+D: Semi-empirical dispersion correction    : off

 ************************* Pseudopotential Parameters **************************

 pseudopotential representation                 : reciprocal space
 <beta|phi> representation                      : reciprocal space
 spin-orbit coupling                            : off

 **************************** Basis Set Parameters *****************************

 plane wave basis set cut-off                   :   816.3416   eV
 size of standard grid                          :     1.7500
 size of   fine   gmax                          :    25.6161   1/A
 finite basis set correction                    : automatic
 number of sample energies                      :          3
           sample  spacing                      :     5.0000   eV

 **************************** Electronic Parameters ****************************

 number of  electrons                           :  704.0
 net charge of system                           :  0.000
 treating system as non-spin-polarized
 number of bands                                :        422

[...]
  |    O          42     -167.58     155.25      0.79   1.078E+00   0.98 |
  |    O          43     -167.52     155.30      0.79   1.078E+00   0.98 |
  |    O          44     -167.58     155.25      0.79   1.078E+00   0.98 |
  |    O          45     -167.52     155.30      0.79   1.078E+00   0.98 |
  |    O          46     -167.58     155.25      0.79   1.078E+00   0.98 |
  |    O          47     -167.58     155.25      0.79   1.078E+00   0.98 |
  |    O          48     -167.52     155.30      0.79   1.078E+00   0.98 |
  |    O          49     -167.58     155.25      0.79   1.078E+00   0.98 |
  |    O          50     -167.52     155.30      0.79   1.078E+00   0.98 |
  |    O          51     -167.58     155.25      0.79   1.078E+00   0.98 |
  |    O          52     -167.52     155.30      0.79   1.078E+00   0.98 |
  |    O          53     -167.58     155.25      0.79   1.078E+00   0.98 |
  |    O          54     -167.52     155.30      0.79   1.078E+00   0.98 |
  |    O          55     -167.58     155.25      0.79   1.078E+00   0.98 |
  |    O          56     -167.52     155.30      0.79   1.078E+00   0.98 |
  |    Zr          1     1626.81    -125.44      0.00  -4.156E+01   0.00 |
  |    Zr          2     1626.56    -125.44      0.00  -4.158E+01   0.01 |
  |    Zr          3     1626.56    -125.44      0.00  -4.158E+01   0.01 |
  |    Zr          4     1626.56    -125.44      0.00  -4.158E+01   0.01 |
[...]
  |    La          2     4803.72     969.42      0.00  -8.443E+01   0.00 |
  |    La          3     4803.72     969.43      0.00  -8.443E+01   0.00 |
  |    La          4     4803.72     969.43      0.00  -8.443E+01   0.00 |
  |    La          5     4803.72     969.42      0.00  -8.443E+01   0.00 |
  |    La          6     4803.72     969.44      0.00  -8.443E+01   0.00 |
  |    La          7     4803.72     969.43      0.00  -8.443E+01   0.00 |
  |    La          8     4803.77     969.17      0.00  -8.434E+01   0.00 |
  |    La          9     4803.72     969.43      0.00  -8.443E+01   0.00 |
  |    La         10     4803.72     969.43      0.00  -8.443E+01   0.00 |
  |    La         11     4803.71     969.43      0.00  -8.443E+01   0.00 |
  |    La         12     4803.72     969.44      0.00  -8.443E+01   0.00 |
  |    La         13     4803.77     969.17      0.00  -8.434E+01   0.00 |
  |    La         14     4803.72     969.43      0.00  -8.443E+01   0.00 |
  |    La         15     4803.72     969.43      0.00  -8.443E+01   0.00 |
  |    La         16     4803.76     969.17      0.00  -8.434E+01   0.00 |

 *********************** Forces ***********************
 *            Cartesian components (eV/A)             *
 *                   x            y            z      *
 * O         1     -0.00045     -0.00044     -0.00045 *
 * O         2     -0.00045     -0.00044     -0.00045 *
 * O         3     -0.00045     -0.00044     -0.00045 *
 * O         4     -0.00045     -0.00044     -0.00045 *
 * O         5      0.00045      0.00044      0.00045 *
 * O         6      0.00045      0.00044      0.00045 *
 * O         7      0.00044      0.00044      0.00045 *
 * O         8      0.00045      0.00044      0.00045 *
 * O         9     -0.00009      0.00016      0.00017 *
 * O        10     -0.00008      0.00017      0.00017 *
 * O        11     -0.00008      0.00017      0.00017 *
 * O        12     -0.00009      0.00016      0.00016 *
 * O        13      0.00017     -0.00009      0.00017 *
 * O        14      0.00017     -0.00008      0.00017 *
 * O        15      0.00017     -0.00008      0.00017 *
 * O        16      0.00016     -0.00009      0.00016 *
 * O        17      0.00016      0.00016     -0.00008 *
 * O        18      0.00017      0.00017     -0.00008 *
 * O        19      0.00017      0.00017     -0.00008 *
 * O        20      0.00016      0.00016     -0.00008 *
 * O        21     -0.00017      0.00008     -0.00017 *
 * O        22     -0.00016      0.00009     -0.00016 *
 * O        23     -0.00017      0.00009     -0.00017 *
 * O        24     -0.00017      0.00008     -0.00017 *
 * O        25      0.00008     -0.00017     -0.00017 *
 * O        26      0.00009     -0.00016     -0.00016 *
 * O        27      0.00009     -0.00016     -0.00016 *
 * O        28      0.00008     -0.00017     -0.00017 *
 * O        29     -0.00016     -0.00016      0.00009 *
 * O        30     -0.00017     -0.00017      0.00008 *
 * O        31     -0.00017     -0.00017      0.00008 *
 * O        32     -0.00016     -0.00016      0.00008 *
 * O        33      0.00008     -0.00017     -0.00017 *
 * O        34      0.00009     -0.00016     -0.00016 *
 * O        35     -0.00017      0.00008     -0.00017 *
 * O        36     -0.00016      0.00009     -0.00016 *
 * O        37     -0.00017     -0.00017      0.00008 *
 * O        38     -0.00016     -0.00016      0.00009 *
 * O        39      0.00017     -0.00008      0.00017 *
 * O        40      0.00017     -0.00009      0.00017 *
 * O        41     -0.00008      0.00016      0.00016 *
 * O        42     -0.00008      0.00017      0.00017 *
 * O        43      0.00016      0.00016     -0.00009 *
 * O        44      0.00017      0.00017     -0.00008 *
 * O        45     -0.00009      0.00016      0.00016 *
 * O        46     -0.00008      0.00017      0.00018 *
 * O        47      0.00017      0.00017     -0.00008 *
 * O        48      0.00016      0.00016     -0.00009 *
 * O        49     -0.00017      0.00008     -0.00017 *
 * O        50     -0.00017      0.00009     -0.00017 *
 * O        51      0.00008     -0.00017     -0.00017 *
 * O        52      0.00009     -0.00016     -0.00016 *
 * O        53     -0.00017     -0.00017      0.00008 *
 * O        54     -0.00016     -0.00016      0.00008 *
 * O        55      0.00017     -0.00008      0.00017 *
 * O        56      0.00017     -0.00009      0.00016 *
 * Zr        1      0.00001      0.00000      0.00001 *
 * Zr        2      0.00001     -0.00000     -0.00001 *
 * Zr        3     -0.00001     -0.00000     -0.00001 *
 * Zr        4     -0.00001     -0.00000      0.00001 *
[...]
 * La        2     -0.00001     -0.00000      0.00001 *
 * La        3      0.00001     -0.00000      0.00001 *
 * La        4      0.00001      0.00000     -0.00001 *
 * La        5      0.00001      0.00000      0.00000 *
 * La        6     -0.00001      0.00000     -0.00001 *
 * La        7      0.00001     -0.00000      0.00001 *
 * La        8     -0.00001     -0.00000      0.00000 *
 * La        9     -0.00001      0.00000     -0.00000 *
 * La       10      0.00001      0.00000     -0.00001 *
 * La       11      0.00001     -0.00000     -0.00001 *
 * La       12     -0.00001      0.00000      0.00001 *
 * La       13      0.00001      0.00000      0.00001 *
 * La       14     -0.00001      0.00000      0.00001 *
 * La       15     -0.00001     -0.00000     -0.00001 *
 * La       16      0.00000     -0.00000     -0.00001 *

 ***************** Stress Tensor *****************
 *          Cartesian components (GPa)           *
 *             x             y             z     *
 *  x     -0.000420      0.000500      0.000447  *
 *  y      0.000500     -0.000480      0.000487  *
 *  z      0.000447      0.000487     -0.000463  *
 *  Pressure:    0.0005                          *

 Pseudo atomic calculation performed for O 2s2 2p4

[...]

 Pseudo atomic calculation performed for La 5s2 5p6 5d1 6s2

 Converged in 34 iterations to a total energy of -968.0372 eV

Charge spilling parameter for spin component 1 = 0.21%

     Atomic Populations (Mulliken)
Species   Ion     s      p      d      f     Total  Charge (e)
  O        1     1.87   5.00   0.00   0.00   6.86    -0.86
  O        2     1.87   5.00   0.00   0.00   6.86    -0.86
  O        3     1.87   5.00   0.00   0.00   6.86    -0.86
  O        4     1.87   5.00   0.00   0.00   6.86    -0.86
  O        5     1.87   5.00   0.00   0.00   6.86    -0.86
  O        6     1.87   5.00   0.00   0.00   6.86    -0.86
  O        7     1.87   5.00   0.00   0.00   6.86    -0.86
  O        8     1.87   5.00   0.00   0.00   6.86    -0.86
  O        9     1.85   4.94   0.00   0.00   6.80    -0.80
  O       10     1.85   4.94   0.00   0.00   6.80    -0.80
  O       11     1.85   4.94   0.00   0.00   6.80    -0.80
  O       12     1.85   4.94   0.00   0.00   6.80    -0.80
  O       13     1.85   4.94   0.00   0.00   6.80    -0.80
  O       14     1.85   4.94   0.00   0.00   6.80    -0.80
  O       15     1.85   4.94   0.00   0.00   6.80    -0.80
  O       16     1.85   4.94   0.00   0.00   6.80    -0.80
  O       17     1.85   4.94   0.00   0.00   6.80    -0.80
  O       18     1.85   4.94   0.00   0.00   6.80    -0.80
  O       19     1.85   4.94   0.00   0.00   6.80    -0.80
  O       20     1.85   4.94   0.00   0.00   6.80    -0.80
  O       21     1.85   4.94   0.00   0.00   6.80    -0.80
  O       22     1.85   4.94   0.00   0.00   6.80    -0.80
  O       23     1.85   4.94   0.00   0.00   6.80    -0.80
  O       24     1.85   4.94   0.00   0.00   6.80    -0.80
  O       25     1.85   4.94   0.00   0.00   6.80    -0.80
  O       26     1.85   4.94   0.00   0.00   6.80    -0.80
  O       27     1.85   4.94   0.00   0.00   6.80    -0.80
  O       28     1.85   4.94   0.00   0.00   6.80    -0.80
  O       29     1.85   4.94   0.00   0.00   6.80    -0.80
  O       30     1.85   4.94   0.00   0.00   6.80    -0.80
  O       31     1.85   4.94   0.00   0.00   6.80    -0.80
  O       32     1.85   4.94   0.00   0.00   6.80    -0.80
  O       33     1.85   4.94   0.00   0.00   6.80    -0.80
  O       34     1.85   4.94   0.00   0.00   6.80    -0.80
  O       35     1.85   4.94   0.00   0.00   6.80    -0.80
  O       36     1.85   4.94   0.00   0.00   6.80    -0.80
  O       37     1.85   4.94   0.00   0.00   6.80    -0.80
  O       38     1.85   4.94   0.00   0.00   6.80    -0.80
  O       39     1.85   4.94   0.00   0.00   6.80    -0.80
  O       40     1.85   4.94   0.00   0.00   6.80    -0.80
  O       41     1.85   4.94   0.00   0.00   6.80    -0.80
  O       42     1.85   4.94   0.00   0.00   6.80    -0.80
  O       43     1.85   4.94   0.00   0.00   6.80    -0.80
  O       44     1.85   4.94   0.00   0.00   6.80    -0.80
  O       45     1.85   4.94   0.00   0.00   6.80    -0.80
  O       46     1.85   4.94   0.00   0.00   6.80    -0.80
  O       47     1.85   4.94   0.00   0.00   6.80    -0.80
  O       48     1.85   4.94   0.00   0.00   6.80    -0.80
  O       49     1.85   4.94   0.00   0.00   6.80    -0.80
  O       50     1.85   4.94   0.00   0.00   6.80    -0.80
  O       51     1.85   4.94   0.00   0.00   6.80    -0.80
  O       52     1.85   4.94   0.00   0.00   6.80    -0.80
  O       53     1.85   4.94   0.00   0.00   6.80    -0.80
  O       54     1.85   4.94   0.00   0.00   6.80    -0.80
  O       55     1.85   4.94   0.00   0.00   6.80    -0.80
  O       56     1.85   4.94   0.00   0.00   6.80    -0.80
  Zr       1     2.38   6.48   1.93   0.00  10.79     1.21
  Zr       2     2.38   6.48   1.93   0.00  10.79     1.21
  Zr       3     2.38   6.48   1.93   0.00  10.79     1.21
  Zr       4     2.38   6.48   1.93   0.00  10.79     1.21
[...]
  La       2     2.07   6.13   1.19   0.00   9.39     1.61
  La       3     2.07   6.13   1.19   0.00   9.39     1.61
  La       4     2.07   6.13   1.19   0.00   9.39     1.61
  La       5     2.07   6.13   1.19   0.00   9.39     1.61
  La       6     2.07   6.13   1.19   0.00   9.39     1.61
  La       7     2.07   6.13   1.19   0.00   9.39     1.61
  La       8     2.07   6.13   1.19   0.00   9.39     1.61
  La       9     2.07   6.13   1.19   0.00   9.39     1.61
  La      10     2.07   6.13   1.19   0.00   9.39     1.61
  La      11     2.07   6.13   1.19   0.00   9.39     1.61
  La      12     2.07   6.13   1.19   0.00   9.39     1.61
  La      13     2.07   6.13   1.19   0.00   9.39     1.61
  La      14     2.07   6.13   1.19   0.00   9.39     1.61
  La      15     2.07   6.13   1.19   0.00   9.39     1.61
  La      16     2.07   6.13   1.19   0.00   9.39     1.61

            Bond              Population      Length (A)
         O 50 -- Zr 1              0.44        2.11915
         O 40 -- Zr 8              0.44        2.11915
         O 22 -- Zr 13             0.44        2.11915
         O 36 -- Zr 16             0.44        2.11915
         O 13 -- Zr 13             0.44        2.11915
         O 23 -- Zr 8              0.44        2.11915
         O 56 -- Zr 1              0.44        2.11915
         O 16 -- Zr 16             0.44        2.11915
         O 27 -- Zr 8              0.44        2.11915
         O 52 -- Zr 1              0.44        2.11915
         O 12 -- Zr 13             0.44        2.11915
         O 26 -- Zr 16             0.44        2.11915
         O 9  -- Zr 8              0.44        2.11915
         O 45 -- Zr 1              0.44        2.11915
         O 34 -- Zr 13             0.44        2.11915
         O 41 -- Zr 16             0.44        2.11915
         O 54 -- Zr 1              0.44        2.11915
         O 48 -- Zr 1              0.44        2.11915
         O 20 -- Zr 8              0.44        2.11915
         O 43 -- Zr 13             0.44        2.11915
         O 38 -- Zr 8              0.44        2.11915
         O 17 -- Zr 16             0.44        2.11915
         O 29 -- Zr 13             0.44        2.11915
         O 32 -- Zr 16             0.44        2.11915
         O 41 -- Zr 4              0.44        2.11916
         O 26 -- Zr 7              0.44        2.11916
         O 34 -- Zr 4              0.44        2.11916
         O 27 -- Zr 15             0.44        2.11916
         O 52 -- Zr 14             0.44        2.11916
         O 9  -- Zr 14             0.44        2.11916
         O 56 -- Zr 10             0.44        2.11916
         O 45 -- Zr 15             0.44        2.11916
         O 50 -- Zr 12             0.44        2.11916
         O 22 -- Zr 10             0.44        2.11916
         O 12 -- Zr 7              0.44        2.11916
         O 16 -- Zr 6              0.44        2.11916
         O 20 -- Zr 5              0.44        2.11916
         O 29 -- Zr 5              0.44        2.11916
         O 40 -- Zr 3              0.44        2.11916
         O 23 -- Zr 6              0.44        2.11916
         O 48 -- Zr 11             0.44        2.11916
         O 36 -- Zr 3              0.44        2.11916
         O 43 -- Zr 2              0.44        2.11916
         O 17 -- Zr 9              0.44        2.11916
         O 38 -- Zr 2              0.44        2.11916
         O 54 -- Zr 9              0.44        2.11916
         O 13 -- Zr 12             0.44        2.11916
         O 32 -- Zr 11             0.44        2.11916
         O 46 -- Zr 5              0.44        2.11921
         O 42 -- Zr 2              0.44        2.11921
         O 51 -- Zr 2              0.44        2.11921
         O 33 -- Zr 11             0.44        2.11921
         O 25 -- Zr 9              0.44        2.11921
         O 10 -- Zr 9              0.44        2.11921
         O 28 -- Zr 5              0.44        2.11921
         O 11 -- Zr 11             0.44        2.11921
         O 47 -- Zr 4              0.44        2.11921
         O 53 -- Zr 7              0.44        2.11921
         O 18 -- Zr 7              0.44        2.11921
         O 37 -- Zr 4              0.44        2.11921
[...]
         O 45 -- O 50             -0.03        2.81729
         O 52 -- O 56             -0.03        2.81729
         O 36 -- O 41             -0.03        2.81729
         O 16 -- O 26             -0.03        2.81729
         O 27 -- O 40             -0.03        2.81729
         O 13 -- O 34             -0.03        2.81729
         O 12 -- O 22             -0.03        2.81729
         O 38 -- O 40             -0.03        2.81729
         O 48 -- O 50             -0.03        2.81729
         O 13 -- O 29             -0.03        2.81729
         O 17 -- O 36             -0.03        2.81729
         O 54 -- O 56             -0.03        2.81729
         O 20 -- O 23             -0.03        2.81729
         O 22 -- O 43             -0.03        2.81729
         O 16 -- O 32             -0.03        2.81729

Writing analysis data to La2Zr2O7.castep_bin

Writing model to La2Zr2O7.check

 A BibTeX formatted list of references used in this run has been written to
 La2Zr2O7.bib

Initialisation time =     40.90 s
Calculation time    =  25301.78 s
Finalisation time   =     54.36 s
Total time          =  25397.05 s

Overall parallel efficiency rating: Good (77%)

Data was distributed by:-
G-vector (4-way); efficiency rating: Good (78%)
k-point (14-way); efficiency rating: Excellent (97%)