 Compiled for linux_x86_64_ifort2021 on Fri, 04 Feb 2022 13:31:17 +0000
 from code version
 203e84763863+ Castep161_branch Fri, 04 Mar 2016 19:21:07 +0000
 Compiler: Intel Fortran 2021.5.0; Optimisation: intermediate
 MATHLIBS: Intel MKL(2022.0-Product) (LAPACK version 3.9.0)
 FFT Lib : fftw3 version fftw-3.3.10
 Fundamental constants values: CODATA 2010

 Run started: Mon, 14 Mar 2022 13:17:35 +0000
 |           N   N    M   M    RRRR                |
 |           NN  N    MM MM    R   R               |
 |           N N N    M M M    RRRR                |
 |           N  NN    M   M    R  R                |
 |           N   N    M   M    R   R               |
 | Welcome to Materials Studio CASTEP-NMR          |
 | Authors:                                        |
 | J.R. Yates, C.J. Pickard, F. Mauri              |
 | Contributors:                                   |
 | T.F.G. Green, S.A. Joyce                        |
 | Copyright (c) 2004 - 2015                       |
 | Please cite the appropriate publications in all |
 | work arising from your use of CASTEP NMR.       |
 | For NMR Shielding Tensors cite:                 |
 |    "All-electron magnetic response with         |
 |    pseudopotentials: NMR chemical shifts",      |
 |    C. J. Pickard, F. Mauri;                     |
 |    Physical Review B63 245101 (2001), and       |
 |    "Calculation of NMR Chemical Shifts          |
 |    for extended systems using                   |
 |    Ultrasoft Pseudopotentials",                 |
 |    J. R. Yates, C. J. Pickard and F. Mauri      |
 |    Physical Review B76 024401 (2007)            |
 | For Electric Field Gradients cite:              |
 |   "Accurate First Principles Prediction of 17O  |
 |    NMR Parameters in SiO2: Assignment of the    |
 |    Zeolite Ferrierite Spectrum"                 |
 |    M. Profeta, F. Mauri and C. J. Pickard       |
 |    J. Amer. Chem. Soc. 125 541 (2003)           |
 | For Spin-Spin (J) Couplings cite:               |
 |   "A first principles theory of NMR J-coupling  |
 |   in solid-state systems"                       |
 |   S.A. Joyce, J.R. Yates, C.J. Pickard, F. Mauri|
 |   J. Chem. Phys. 127 204107 (2007)              |
 |   "Relativistic NMR J-coupling with ultrasoft   |
 |   pseudopotentials and the zeroth-order regular |
 |   approximation"                                |
 |   T.F.G. Green and J.R. Yates                   |
 |   J. Chem. Phys. 140 234106 (2014)              |

 Atomic calculation performed for O: 1s2 2s2 2p4

 Converged in 44 iterations to an ae energy of -2040.855 eV

 Atomic calculation performed for O: 1s2 2s2 2p4

 Exceeded max iterations: converged to 0.000000062 eV

   | Pseudopotential Report - Date of generation 14-03-2022   |
   | Element: O Ionic charge:  6.00 Level of theory: PBE      |
   | Atomic Solver: ZORA (scalar)                             |
   |               Reference Electronic Structure             |
   |         Orbital         Occupation         Energy        |
   |            2s              2.000           -0.881        |
   |            2p              4.000           -0.332        |
   |                 Pseudopotential Definition               |
   |        Beta     l      e      Rc     scheme   norm       |
   |          1      0   -0.881   1.100     qc      0         |
   |          2      0    0.250   1.100     qc      0         |
   |          3      1   -0.332   1.100     qc      0         |
   |          4      1    0.250   1.100     qc      0         |
   |         loc     2    0.000   1.100     pn      0         |
   | Augmentation charge Rinner = 0.769                       |
   | Partial core correction Rc = 0.769                       |
   | "2|1.1|15|18|20|20:21(qc=7)"                             |
   |      Author: Chris J. Pickard, Cambridge University      |

 Atomic calculation performed for Zr: 1s2 2s2 2p6 3s2 3p6 3d10 4s2 4p6 4d2 5s2

[...]

 Atomic calculation performed for Zr: 1s2 2s2 2p6 3s2 3p6 3d10 4s2 4p6 4d2 5s2

[...]

 Warning: ion_atom_descreen_psp: negative charge density encountered
   | Pseudopotential Report - Date of generation 14-03-2022   |
   | Element: Zr Ionic charge: 12.00 Level of theory: PBE     |
   | Atomic Solver: ZORA (scalar)                             |
   |               Reference Electronic Structure             |
   |         Orbital         Occupation         Energy        |
   |            4s              2.000           -2.003        |
   |            4p              6.000           -1.193        |
   |            5s              2.000           -0.163        |
   |            4d              2.000           -0.132        |
   |                 Pseudopotential Definition               |
   |        Beta     l      e      Rc     scheme   norm       |
   |          1      0   -2.003   2.105     qc      0         |
   |          2      0   -0.163   2.105     qc      0         |
   |          3      0    0.250   2.105     qc      0         |
   |          4      1   -1.193   2.105     qc      0         |
   |          5      1    0.250   2.105     qc      0         |
   |          6      2   -0.132   2.105     qc      0         |
   |          7      2    0.250   2.105     qc      0         |
   |         loc     3    0.000   2.105     pn      0         |
   | Augmentation charge Rinner = 1.471                       |
   | Partial core correction Rc = 1.471                       |
   | "3|2.1|7|8|9|40U:50:41:42"                               |
   |      Author: Chris J. Pickard, Cambridge University      |

 Atomic calculation performed for Sn:

[...]

 Atomic calculation performed for Sn:

[...]

   | Pseudopotential Report - Date of generation 14-03-2022   |
   | Element: Sn Ionic charge: 14.00 Level of theory: PBE     |
   | Atomic Solver: ZORA (scalar)                             |
   |               Reference Electronic Structure             |
   |         Orbital         Occupation         Energy        |
   |            4d             10.000           -0.950        |
   |            5s              2.000           -0.388        |
   |            5p              2.000           -0.136        |
   |                 Pseudopotential Definition               |
   |        Beta     l      e      Rc     scheme   norm       |
   |          1      0   -0.388   2.199     qc      0         |
   |          2      0    0.250   2.199     qc      0         |
   |          3      1   -0.136   2.199     qc      0         |
   |          4      1    0.250   2.199     qc      0         |
   |          5      2   -0.950   2.199     qc      0         |
   |          6      2    0.250   2.199     qc      0         |
   |         loc     3    0.000   2.199     pn      0         |
   | Augmentation charge Rinner = 1.537                       |
   | Partial core correction Rc = 1.537                       |
   | "3|2.2|7|8|9|50:51:42"                                   |
   |      Author: Chris J. Pickard, Cambridge University      |

 Atomic calculation performed for La:

 Converged in 55 iterations to an ae energy of -230121.495 eV

 Atomic calculation performed for La:

 Exceeded max iterations: converged to 0.000001291 eV

 Warning: ion_atom_descreen_psp: negative charge density encountered
   | Pseudopotential Report - Date of generation 14-03-2022   |
   | Element: La Ionic charge: 11.00 Level of theory: PBE     |
   | Atomic Solver: ZORA (scalar)                             |
   |               Reference Electronic Structure             |
   |         Orbital         Occupation         Energy        |
   |            5s              2.000           -1.430        |
   |            5p              6.000           -0.823        |
   |            6s              2.000           -0.135        |
   |            5d              1.000           -0.114        |
   |                 Pseudopotential Definition               |
   |        Beta     l      e      Rc     scheme   norm       |
   |          1      0   -1.430   2.298     qc      0         |
   |          2      0   -0.135   2.298     qc      0         |
   |          3      0    0.250   2.298     qc      0         |
   |          4      1   -0.823   2.298     qc      0         |
   |          5      1    0.250   2.298     qc      0         |
   |          6      2   -0.114   2.298     qc      0         |
   |          7      2    0.250   2.298     qc      0         |
   |         loc     2    0.000   2.298     pn      0         |
   | Augmentation charge Rinner = 1.606                       |
   | Partial core correction Rc = 1.606                       |
   | "2|2.3|5|6|7|50U:60:51:52(qc=4.5)"                       |
   |      Author: Chris J. Pickard, Cambridge University      |

 Pseudo atomic calculation performed for O 2s2 2p4

 Converged in 39 iterations to a total energy of -432.6554 eV

 Pseudo atomic calculation performed for Zr 4s2 4p6 4d2 5s2

[...]

 Calculation parallelised over 182 processes.
 Data is distributed by G-vector(13-way) and k-point(14-way)

 ************************************ Title ************************************
 nmr testing

 ***************************** General Parameters ******************************

 output verbosity                               : normal  (1)
 write checkpoint data to                       : Zr1.check
 type of calculation                            : Magnetic Resonance
 stress calculation                             : on
 density difference calculation                 : off
 electron localisation func (ELF) calculation   : off
 Hirshfeld analysis                             : off
 unlimited duration calculation
 timing information                             : on
 write final potential to formatted file        : off
 write final density to formatted file          : off
 write BibTeX reference list                    : on
 write OTFG pseudopotential files               : on
 checkpoint writing                             : both castep_bin and check files

 output         length unit                     : A
 output           mass unit                     : amu
 output           time unit                     : ps
 output         charge unit                     : e
 output           spin unit                     : hbar/2
 output         energy unit                     : eV
 output          force unit                     : eV/A
 output       velocity unit                     : A/ps
 output       pressure unit                     : GPa
 output     inv_length unit                     : 1/A
 output      frequency unit                     : cm-1
 output force constant unit                     : eV/A**2
 output         volume unit                     : A**3
 output   IR intensity unit                     : (D/A)**2/amu
 output         dipole unit                     : D
 output         efield unit                     : eV/A/e
 output        entropy unit                     : J/mol/K

 wavefunctions paging                           : none
 random number generator seed                   : randomised (131736056)
 data distribution                              : optimal for this architecture
[...]
  |    O          42      -13.79     -42.43      0.61   3.842E+00   0.95 |
  |    O          43      -13.13     -46.03      0.37   3.782E+00   0.99 |
  |    O          44      -13.79     -42.43      0.61   3.842E+00   0.95 |
  |    O          45      -85.48      87.61      0.11  -3.174E+00   0.04 |
  |    O          46      -11.90     -46.28      0.31   3.796E+00   0.99 |
  |    O          47      -11.90     -46.28      0.31   3.796E+00   0.99 |
  |    O          48      -85.48      87.61      0.11  -3.174E+00   0.04 |
  |    O          49      -11.90     -46.27      0.31   3.796E+00   0.99 |
  |    O          50      -85.48      87.61      0.11  -3.174E+00   0.04 |
  |    O          51      -11.89     -46.27      0.31   3.796E+00   0.99 |
  |    O          52      -85.48      87.60      0.11  -3.174E+00   0.04 |
  |    O          53      -11.90     -46.27      0.31   3.796E+00   0.99 |
  |    O          54      -85.48      87.61      0.11  -3.174E+00   0.04 |
  |    O          55      -11.90     -46.27      0.31   3.796E+00   0.99 |
  |    O          56      -85.48      87.60      0.11  -3.174E+00   0.04 |
  |    Zr          1     1603.96    -103.85      0.00  -3.383E+01   0.00 |
  |    Sn          1     3235.59     -63.50      0.06   1.120E+02   0.07 |
  |    Sn          2     3235.59     -63.49      0.07   1.120E+02   0.07 |
  |    Sn          3     3235.59     -63.49      0.07   1.120E+02   0.07 |
[...]
  |    La          2     4552.52     394.18      0.05  -7.896E+01   0.10 |
  |    La          3     4552.52     394.18      0.05  -7.896E+01   0.10 |
  |    La          4     4552.52     394.18      0.05  -7.896E+01   0.10 |
  |    La          5     4552.52     394.18      0.05  -7.896E+01   0.10 |
  |    La          6     4552.52     394.18      0.05  -7.896E+01   0.10 |
  |    La          7     4552.52     394.18      0.05  -7.896E+01   0.10 |
  |    La          8     4494.21     248.48      0.00  -7.450E+01   0.02 |
  |    La          9     4503.23     243.28      0.01  -7.621E+01   0.01 |
  |    La         10     4503.24     243.28      0.01  -7.621E+01   0.01 |
  |    La         11     4503.23     243.28      0.01  -7.621E+01   0.01 |
  |    La         12     4503.24     243.28      0.01  -7.621E+01   0.01 |
  |    La         13     4494.21     248.47      0.00  -7.450E+01   0.02 |
  |    La         14     4503.23     243.28      0.01  -7.621E+01   0.01 |
  |    La         15     4503.23     243.28      0.01  -7.621E+01   0.01 |
  |    La         16     4494.21     248.47      0.00  -7.450E+01   0.02 |

 *********************** Forces ***********************
 *            Cartesian components (eV/A)             *
 *                   x            y            z      *
 * O         1      0.00051      0.00051      0.00051 *
 * O         2      0.00232      0.00583      0.00231 *
 * O         3      0.00586      0.00232      0.00232 *
 * O         4      0.00234      0.00233      0.00588 *
 * O         5     -0.00587     -0.00237     -0.00229 *
 * O         6     -0.00051     -0.00051     -0.00052 *
 * O         7     -0.00232     -0.00234     -0.00588 *
 * O         8     -0.00232     -0.00585     -0.00232 *
 * O         9     -0.01163     -0.00993     -0.00993 *
 * O        10     -0.00667     -0.00677     -0.00766 *
 * O        11      0.01225      0.00034      0.00033 *
 * O        12     -0.00774     -0.00457     -0.00741 *
 * O        13     -0.00993     -0.01162     -0.00994 *
 * O        14     -0.00766     -0.00668     -0.00676 *
 * O        15      0.00033      0.01226      0.00033 *
 * O        16     -0.00742     -0.00774     -0.00457 *
 * O        17     -0.00993     -0.00993     -0.01161 *
 * O        18     -0.00678     -0.00765     -0.00668 *
 * O        19      0.00034      0.00034      0.01225 *
 * O        20     -0.00457     -0.00742     -0.00776 *
 * O        21      0.00677      0.00667      0.00766 *
 * O        22      0.00993      0.01163      0.00993 *
 * O        23      0.00457      0.00774      0.00741 *
 * O        24     -0.00033     -0.01225     -0.00033 *
 * O        25     -0.01225     -0.00034     -0.00034 *
 * O        26      0.00775      0.00741      0.00457 *
 * O        27      0.01161      0.00993      0.00994 *
 * O        28      0.00668      0.00766      0.00676 *
 * O        29      0.00742      0.00457      0.00776 *
 * O        30     -0.00034     -0.00034     -0.01225 *
 * O        31      0.00765      0.00678      0.00668 *
 * O        32      0.00993      0.00993      0.01162 *
 * O        33      0.00667      0.00677      0.00765 *
 * O        34      0.00782      0.00457      0.00742 *
 * O        35      0.00765      0.00668      0.00677 *
 * O        36      0.00741      0.00782      0.00457 *
 * O        37      0.00676      0.00766      0.00667 *
 * O        38      0.00458      0.00742      0.00774 *
 * O        39     -0.00677     -0.00668     -0.00765 *
 * O        40     -0.00457     -0.00782     -0.00742 *
 * O        41     -0.00775     -0.00742     -0.00458 *
 * O        42     -0.00668     -0.00765     -0.00677 *
 * O        43     -0.00742     -0.00458     -0.00774 *
 * O        44     -0.00766     -0.00676     -0.00666 *
 * O        45      0.02624      0.02338      0.02339 *
 * O        46      0.00541      0.00017      0.00018 *
 * O        47      0.00017      0.00017      0.00540 *
 * O        48      0.02339      0.02338      0.02624 *
 * O        49     -0.00017     -0.00542     -0.00017 *
 * O        50     -0.02338     -0.02624     -0.02339 *
 * O        51     -0.00540     -0.00017     -0.00017 *
 * O        52     -0.02623     -0.02339     -0.02337 *
 * O        53     -0.00017     -0.00018     -0.00541 *
 * O        54     -0.02338     -0.02339     -0.02624 *
 * O        55      0.00017      0.00540      0.00017 *
 * O        56      0.02338      0.02622      0.02337 *
 * Zr        1     -0.00003      0.00004      0.00000 *
 * Sn        1      0.00268     -0.00268      0.00000 *
 * Sn        2     -0.00266     -0.00000      0.00267 *
 * Sn        3     -0.00004      0.00267     -0.00269 *
[...]
 * La        2      0.00326     -0.00309     -0.00005 *
 * La        3     -0.00313      0.00000      0.00314 *
 * La        4      0.00000      0.00312     -0.00313 *
 * La        5     -0.00313      0.00313     -0.00000 *
 * La        6      0.00309      0.00005     -0.00324 *
 * La        7     -0.00006     -0.00307      0.00327 *
 * La        8      0.00000     -0.00001      0.00002 *
 * La        9     -0.01082     -0.01084      0.01258 *
 * La       10      0.01082     -0.01257      0.01082 *
 * La       11      0.01084      0.01082     -0.01258 *
 * La       12     -0.01080      0.01257     -0.01080 *
 * La       13     -0.00002     -0.00004     -0.00002 *
 * La       14      0.01257     -0.01082     -0.01082 *
 * La       15     -0.01258      0.01082      0.01082 *
 * La       16      0.00002     -0.00002      0.00000 *

 ***************** Stress Tensor *****************
 *          Cartesian components (GPa)           *
 *             x             y             z     *
 *  x     -0.000065      0.002164      0.002157  *
 *  y      0.002164     -0.000067      0.002161  *
 *  z      0.002157      0.002161     -0.000067  *
 *  Pressure:    0.0001                          *

[...]

 Pseudo atomic calculation performed for Sn 4d10 5s2 5p2

[...]

 Pseudo atomic calculation performed for La 5s2 5p6 5d1 6s2

 Converged in 34 iterations to a total energy of -968.0371 eV

Charge spilling parameter for spin component 1 = 0.27%

     Atomic Populations (Mulliken)
Species   Ion     s      p      d      f     Total  Charge (e)
  O        1     1.87   5.00   0.00   0.00   6.88    -0.88
  O        2     1.87   5.00   0.00   0.00   6.88    -0.88
  O        3     1.87   5.00   0.00   0.00   6.88    -0.88
  O        4     1.87   5.00   0.00   0.00   6.88    -0.88
  O        5     1.87   5.00   0.00   0.00   6.88    -0.88
  O        6     1.87   5.00   0.00   0.00   6.88    -0.88
  O        7     1.87   5.00   0.00   0.00   6.88    -0.88
  O        8     1.87   5.00   0.00   0.00   6.88    -0.88
  O        9     1.88   5.03   0.00   0.00   6.92    -0.92
  O       10     1.88   5.03   0.00   0.00   6.92    -0.92
  O       11     1.88   5.03   0.00   0.00   6.92    -0.92
  O       12     1.89   5.03   0.00   0.00   6.92    -0.92
  O       13     1.88   5.03   0.00   0.00   6.92    -0.92
  O       14     1.88   5.03   0.00   0.00   6.92    -0.92
  O       15     1.88   5.03   0.00   0.00   6.92    -0.92
  O       16     1.89   5.03   0.00   0.00   6.92    -0.92
  O       17     1.88   5.03   0.00   0.00   6.92    -0.92
  O       18     1.88   5.03   0.00   0.00   6.92    -0.92
  O       19     1.88   5.03   0.00   0.00   6.92    -0.92
  O       20     1.89   5.03   0.00   0.00   6.92    -0.92
  O       21     1.88   5.03   0.00   0.00   6.92    -0.92
  O       22     1.88   5.03   0.00   0.00   6.92    -0.92
  O       23     1.89   5.03   0.00   0.00   6.92    -0.92
  O       24     1.88   5.03   0.00   0.00   6.92    -0.92
  O       25     1.88   5.03   0.00   0.00   6.92    -0.92
  O       26     1.89   5.03   0.00   0.00   6.92    -0.92
  O       27     1.88   5.03   0.00   0.00   6.92    -0.92
  O       28     1.88   5.03   0.00   0.00   6.92    -0.92
  O       29     1.89   5.03   0.00   0.00   6.92    -0.92
  O       30     1.88   5.03   0.00   0.00   6.92    -0.92
  O       31     1.88   5.03   0.00   0.00   6.92    -0.92
  O       32     1.88   5.03   0.00   0.00   6.92    -0.92
  O       33     1.88   5.03   0.00   0.00   6.92    -0.92
  O       34     1.89   5.03   0.00   0.00   6.92    -0.92
  O       35     1.88   5.03   0.00   0.00   6.92    -0.92
  O       36     1.89   5.03   0.00   0.00   6.92    -0.92
  O       37     1.88   5.03   0.00   0.00   6.92    -0.92
  O       38     1.89   5.03   0.00   0.00   6.92    -0.92
  O       39     1.88   5.03   0.00   0.00   6.92    -0.92
  O       40     1.89   5.03   0.00   0.00   6.92    -0.92
  O       41     1.89   5.03   0.00   0.00   6.92    -0.92
  O       42     1.88   5.03   0.00   0.00   6.92    -0.92
  O       43     1.89   5.03   0.00   0.00   6.92    -0.92
  O       44     1.88   5.03   0.00   0.00   6.92    -0.92
  O       45     1.87   4.99   0.00   0.00   6.86    -0.86
  O       46     1.89   5.03   0.00   0.00   6.92    -0.92
  O       47     1.89   5.03   0.00   0.00   6.92    -0.92
  O       48     1.87   4.99   0.00   0.00   6.86    -0.86
  O       49     1.89   5.03   0.00   0.00   6.92    -0.92
  O       50     1.87   4.99   0.00   0.00   6.86    -0.86
  O       51     1.89   5.03   0.00   0.00   6.92    -0.92
  O       52     1.87   4.99   0.00   0.00   6.86    -0.86
  O       53     1.89   5.03   0.00   0.00   6.92    -0.92
  O       54     1.87   4.99   0.00   0.00   6.86    -0.86
  O       55     1.89   5.03   0.00   0.00   6.92    -0.92
  O       56     1.87   4.99   0.00   0.00   6.86    -0.86
  Zr       1     2.36   6.48   1.92   0.00  10.75     1.25
  Sn       1     1.04   1.30  10.00   0.00  12.34     1.66
  Sn       2     1.04   1.30  10.00   0.00  12.34     1.66
  Sn       3     1.04   1.30  10.00   0.00  12.34     1.66
[...]
  La       2     2.07   6.19   1.20   0.00   9.45     1.55
  La       3     2.07   6.19   1.20   0.00   9.45     1.55
  La       4     2.07   6.19   1.20   0.00   9.45     1.55
  La       5     2.07   6.19   1.20   0.00   9.45     1.55
  La       6     2.07   6.19   1.20   0.00   9.45     1.55
  La       7     2.07   6.19   1.20   0.00   9.45     1.55
  La       8     2.10   6.19   1.19   0.00   9.48     1.52
  La       9     2.09   6.20   1.19   0.00   9.48     1.52
  La      10     2.09   6.20   1.19   0.00   9.48     1.52
  La      11     2.09   6.20   1.19   0.00   9.48     1.52
  La      12     2.09   6.20   1.19   0.00   9.48     1.52
  La      13     2.10   6.19   1.19   0.00   9.48     1.52
  La      14     2.09   6.20   1.19   0.00   9.48     1.52
  La      15     2.09   6.20   1.19   0.00   9.48     1.52
  La      16     2.10   6.19   1.19   0.00   9.48     1.52

            Bond              Population      Length (A)
         O 52 -- Sn 13             0.34        2.10611
         O 45 -- Sn 14             0.34        2.10611
         O 50 -- Sn 11             0.34        2.10611
         O 56 -- Sn 9              0.34        2.10611
         O 54 -- Sn 8              0.34        2.10611
         O 48 -- Sn 10             0.34        2.10611
         O 9  -- Sn 13             0.34        2.10901
         O 27 -- Sn 14             0.34        2.10901
         O 13 -- Sn 11             0.34        2.10901
         O 22 -- Sn 9              0.34        2.10901
         O 17 -- Sn 8              0.34        2.10901
         O 32 -- Sn 10             0.34        2.10901
         O 10 -- Sn 5              0.34        2.10939
         O 33 -- Sn 2              0.34        2.10939
         O 42 -- Sn 1              0.34        2.10939
         O 28 -- Sn 4              0.34        2.10939
         O 39 -- Sn 3              0.34        2.10939
         O 21 -- Sn 6              0.34        2.10939
         O 14 -- Sn 4              0.34        2.10939
         O 35 -- Sn 1              0.34        2.10939
         O 18 -- Sn 6              0.34        2.10939
         O 37 -- Sn 3              0.34        2.10939
         O 44 -- Sn 2              0.34        2.10939
         O 31 -- Sn 5              0.34        2.10939
         O 42 -- Sn 11             0.33        2.11062
         O 28 -- Sn 9              0.33        2.11062
         O 10 -- Sn 8              0.33        2.11062
         O 33 -- Sn 10             0.33        2.11062
         O 14 -- Sn 13             0.33        2.11062
         O 35 -- Sn 14             0.33        2.11062
         O 39 -- Sn 8              0.33        2.11062
         O 21 -- Sn 10             0.33        2.11062
         O 44 -- Sn 13             0.33        2.11062
         O 31 -- Sn 14             0.33        2.11062
         O 18 -- Sn 11             0.33        2.11062
         O 37 -- Sn 9              0.33        2.11062
         O 27 -- Sn 7              0.33        2.11190
         O 9  -- Sn 7              0.33        2.11190
         O 22 -- Sn 12             0.33        2.11190
         O 13 -- Sn 12             0.33        2.11190
         O 32 -- Sn 15             0.33        2.11190
         O 17 -- Sn 15             0.33        2.11190
         O 51 -- Sn 1              0.33        2.11207
         O 46 -- Sn 4              0.33        2.11207
         O 51 -- Sn 5              0.33        2.11207
         O 46 -- Sn 2              0.33        2.11207
         O 49 -- Sn 4              0.33        2.11207
         O 55 -- Sn 1              0.33        2.11207
         O 55 -- Sn 6              0.33        2.11207
         O 49 -- Sn 3              0.33        2.11207
         O 53 -- Sn 2              0.33        2.11207
         O 47 -- Sn 5              0.33        2.11207
         O 53 -- Sn 6              0.33        2.11207
         O 47 -- Sn 3              0.33        2.11207
         O 34 -- Sn 12             0.33        2.11277
         O 40 -- Sn 7              0.33        2.11277
         O 36 -- Sn 15             0.33        2.11277
         O 12 -- Sn 12             0.33        2.11277
         O 26 -- Sn 15             0.33        2.11277
         O 41 -- Sn 15             0.33        2.11277
[...]
         O 11 -- O 22             -0.05        2.80728
         O 9  -- O 30             -0.05        2.80728
         O 19 -- O 27             -0.05        2.80728
         O 17 -- O 25             -0.05        2.80728
         O 11 -- O 32             -0.05        2.80728
         O 13 -- O 30             -0.05        2.80728
         O 19 -- O 22             -0.05        2.80728
         O 17 -- O 24             -0.05        2.80728
         O 15 -- O 32             -0.05        2.80728
         O 52 -- O 56             -0.03        2.82615
         O 45 -- O 50             -0.03        2.82615
         O 48 -- O 52             -0.03        2.82615
         O 45 -- O 54             -0.03        2.82615
         O 54 -- O 56             -0.03        2.82615
         O 48 -- O 50             -0.03        2.82615

Writing analysis data to Zr1.castep_bin

Writing model to Zr1.check

 A BibTeX formatted list of references used in this run has been written to
 Zr1.bib

Initialisation time =     43.70 s
Calculation time    =   9868.87 s
Finalisation time   =     45.37 s
Total time          =   9957.94 s

Overall parallel efficiency rating: Good (79%)

Data was distributed by:-
G-vector (13-way); efficiency rating: Very good (81%)
k-point (14-way); efficiency rating: Excellent (96%)