 Compiled for linux_x86_64_ifort17 on Mon, 09 Apr 2018 23:35:31 +0100
 from code version
 203e84763863+ Castep161_branch Fri, 04 Mar 2016 19:21:07 +0000
 Compiler: Intel Fortran 17.0.1.132; Optimisation: fast
 MATHLIBS: Intel MKL(2017.0.1) (LAPACK version 3.6.0)
 FFT Lib : mkl
 Fundamental constants values: CODATA 2010

 Run started: Thu, 20 Aug 2020 21:44:12 +0100
 |           N   N    M   M    RRRR                |
 |           NN  N    MM MM    R   R               |
 |           N N N    M M M    RRRR                |
 |           N  NN    M   M    R  R                |
 |           N   N    M   M    R   R               |
 | Welcome to Materials Studio CASTEP-NMR          |
 | Authors:                                        |
 | J.R. Yates, C.J. Pickard, F. Mauri              |
 | Contributors:                                   |
 | T.F.G. Green, S.A. Joyce                        |
 | Copyright (c) 2004 - 2015                       |
 | Please cite the appropriate publications in all |
 | work arising from your use of CASTEP NMR.       |
 | For NMR Shielding Tensors cite:                 |
 |    "All-electron magnetic response with         |
 |    pseudopotentials: NMR chemical shifts",      |
 |    C. J. Pickard, F. Mauri;                     |
 |    Physical Review B63 245101 (2001), and       |
 |    "Calculation of NMR Chemical Shifts          |
 |    for extended systems using                   |
 |    Ultrasoft Pseudopotentials",                 |
 |    J. R. Yates, C. J. Pickard and F. Mauri      |
 |    Physical Review B76 024401 (2007)            |
 | For Electric Field Gradients cite:              |
 |   "Accurate First Principles Prediction of 17O  |
 |    NMR Parameters in SiO2: Assignment of the    |
 |    Zeolite Ferrierite Spectrum"                 |
 |    M. Profeta, F. Mauri and C. J. Pickard       |
 |    J. Amer. Chem. Soc. 125 541 (2003)           |
 | For Spin-Spin (J) Couplings cite:               |
 |   "A first principles theory of NMR J-coupling  |
 |   in solid-state systems"                       |
 |   S.A. Joyce, J.R. Yates, C.J. Pickard, F. Mauri|
 |   J. Chem. Phys. 127 204107 (2007)              |
 |   "Relativistic NMR J-coupling with ultrasoft   |
 |   pseudopotentials and the zeroth-order regular |
 |   approximation"                                |
 |   T.F.G. Green and J.R. Yates                   |
 |   J. Chem. Phys. 140 234106 (2014)              |

 Atomic calculation performed for O: 1s2 2s2 2p4

 Converged in 44 iterations to an ae energy of -2040.855 eV

 Atomic calculation performed for O: 1s2 2s2 2p4

 Exceeded max iterations: converged to 0.000000062 eV

   | Pseudopotential Report - Date of generation 20-08-2020   |
   | Element: O Ionic charge:  6.00 Level of theory: PBE      |
   | Atomic Solver: ZORA (scalar)                             |
   |               Reference Electronic Structure             |
   |         Orbital         Occupation         Energy        |
   |            2s              2.000           -0.881        |
   |            2p              4.000           -0.332        |
   |                 Pseudopotential Definition               |
   |        Beta     l      e      Rc     scheme   norm       |
   |          1      0   -0.881   1.100     qc      0         |
   |          2      0    0.250   1.100     qc      0         |
   |          3      1   -0.332   1.100     qc      0         |
   |          4      1    0.250   1.100     qc      0         |
   |         loc     2    0.000   1.100     pn      0         |
   | Augmentation charge Rinner = 0.769                       |
   | Partial core correction Rc = 0.769                       |
   | "2|1.1|15|18|20|20:21(qc=7)"                             |
   |      Author: Chris J. Pickard, Cambridge University      |

 Atomic calculation performed for Zr: 1s2 2s2 2p6 3s2 3p6 3d10 4s2 4p6 4d2 5s2

[...]

 Atomic calculation performed for Zr: 1s2 2s2 2p6 3s2 3p6 3d10 4s2 4p6 4d2 5s2

[...]

 Warning: ion_atom_descreen_psp: negative charge density encountered
   | Pseudopotential Report - Date of generation 20-08-2020   |
   | Element: Zr Ionic charge: 12.00 Level of theory: PBE     |
   | Atomic Solver: ZORA (scalar)                             |
   |               Reference Electronic Structure             |
   |         Orbital         Occupation         Energy        |
   |            4s              2.000           -2.003        |
   |            4p              6.000           -1.193        |
   |            5s              2.000           -0.163        |
   |            4d              2.000           -0.132        |
   |                 Pseudopotential Definition               |
   |        Beta     l      e      Rc     scheme   norm       |
   |          1      0   -2.003   2.105     qc      0         |
   |          2      0   -0.163   2.105     qc      0         |
   |          3      0    0.250   2.105     qc      0         |
   |          4      1   -1.193   2.105     qc      0         |
   |          5      1    0.250   2.105     qc      0         |
   |          6      2   -0.132   2.105     qc      0         |
   |          7      2    0.250   2.105     qc      0         |
   |         loc     3    0.000   2.105     pn      0         |
   | Augmentation charge Rinner = 1.471                       |
   | Partial core correction Rc = 1.471                       |
   | "3|2.1|7|8|9|40U:50:41:42"                               |
   |      Author: Chris J. Pickard, Cambridge University      |

 Atomic calculation performed for Sn:

[...]

 Atomic calculation performed for Sn:

[...]

   | Pseudopotential Report - Date of generation 20-08-2020   |
   | Element: Sn Ionic charge: 14.00 Level of theory: PBE     |
   | Atomic Solver: ZORA (scalar)                             |
   |               Reference Electronic Structure             |
   |         Orbital         Occupation         Energy        |
   |            4d             10.000           -0.950        |
   |            5s              2.000           -0.388        |
   |            5p              2.000           -0.136        |
   |                 Pseudopotential Definition               |
   |        Beta     l      e      Rc     scheme   norm       |
   |          1      0   -0.388   2.199     qc      0         |
   |          2      0    0.250   2.199     qc      0         |
   |          3      1   -0.136   2.199     qc      0         |
   |          4      1    0.250   2.199     qc      0         |
   |          5      2   -0.950   2.199     qc      0         |
   |          6      2    0.250   2.199     qc      0         |
   |         loc     3    0.000   2.199     pn      0         |
   | Augmentation charge Rinner = 1.537                       |
   | Partial core correction Rc = 1.537                       |
   | "3|2.2|7|8|9|50:51:42"                                   |
   |      Author: Chris J. Pickard, Cambridge University      |

 Atomic calculation performed for La:

 Converged in 56 iterations to an ae energy of -230121.495 eV

 Atomic calculation performed for La:

 Exceeded max iterations: converged to 0.000000907 eV

 Warning: ion_atom_descreen_psp: negative charge density encountered
   | Pseudopotential Report - Date of generation 20-08-2020   |
   | Element: La Ionic charge: 11.00 Level of theory: PBE     |
   | Atomic Solver: ZORA (scalar)                             |
   |               Reference Electronic Structure             |
   |         Orbital         Occupation         Energy        |
   |            5s              2.000           -1.430        |
   |            5p              6.000           -0.823        |
   |            6s              2.000           -0.135        |
   |            5d              1.000           -0.114        |
   |                 Pseudopotential Definition               |
   |        Beta     l      e      Rc     scheme   norm       |
   |          1      0   -1.430   2.298     qc      0         |
   |          2      0   -0.135   2.298     qc      0         |
   |          3      0    0.250   2.298     qc      0         |
   |          4      1   -0.823   2.298     qc      0         |
   |          5      1    0.250   2.298     qc      0         |
   |          6      2   -0.114   2.298     qc      0         |
   |          7      2    0.250   2.298     qc      0         |
   |         loc     2    0.000   2.298     pn      0         |
   | Augmentation charge Rinner = 1.606                       |
   | Partial core correction Rc = 1.606                       |
   | "2|2.3|5|6|7|50U:60:51:52(qc=4.5)"                       |
   |      Author: Chris J. Pickard, Cambridge University      |

 Pseudo atomic calculation performed for O 2s2 2p4

 Converged in 39 iterations to a total energy of -432.6554 eV

 Pseudo atomic calculation performed for Zr 4s2 4p6 4d2 5s2

[...]

 Calculation parallelised over 336 processes.
 Data is distributed by G-vector(24-way) and k-point(14-way)

 ************************************ Title ************************************
 nmr testing

 ***************************** General Parameters ******************************

 output verbosity                               : normal  (1)
 write checkpoint data to                       : Zr15_01_nmr.check
 type of calculation                            : Magnetic Resonance
 stress calculation                             : on
 density difference calculation                 : off
 electron localisation func (ELF) calculation   : off
 Hirshfeld analysis                             : off
 unlimited duration calculation
 timing information                             : on
 write final potential to formatted file        : off
 write final density to formatted file          : off
 write BibTeX reference list                    : on
 write OTFG pseudopotential files               : on
 checkpoint writing                             : both castep_bin and check files

 output         length unit                     : A
 output           mass unit                     : amu
 output           time unit                     : ps
 output         charge unit                     : e
 output           spin unit                     : hbar/2
 output         energy unit                     : eV
 output          force unit                     : eV/A
 output       velocity unit                     : A/ps
 output       pressure unit                     : GPa
 output     inv_length unit                     : 1/A
 output      frequency unit                     : cm-1
 output force constant unit                     : eV/A**2
 output         volume unit                     : A**3
 output   IR intensity unit                     : (D/A)**2/amu
 output         dipole unit                     : D
 output         efield unit                     : eV/A/e
 output        entropy unit                     : J/mol/K

 wavefunctions paging                           : none
 random number generator seed                   : randomised (214415106)
 data distribution                              : optimal for this architecture
 optimization strategy                          : maximize speed(+++)

[...]
  |    O          42     -168.00     156.59      0.79   1.067E+00   0.99 |
  |    O          43     -167.10     155.59      0.79   1.083E+00   0.97 |
  |    O          44     -165.04     151.78      0.79   1.084E+00   0.90 |
  |    O          45     -167.10     155.59      0.79   1.083E+00   0.97 |
  |    O          46     -165.04     151.79      0.79   1.084E+00   0.90 |
  |    O          47     -166.93     159.34      0.82   1.081E+00   0.98 |
  |    O          48     -167.77     153.49      0.78  -1.054E+00   1.00 |
  |    O          49     -165.04     151.78      0.79   1.084E+00   0.90 |
  |    O          50     -167.10     155.60      0.79   1.083E+00   0.97 |
  |    O          51     -165.04     151.79      0.79   1.084E+00   0.90 |
  |    O          52     -167.10     155.59      0.79   1.083E+00   0.97 |
  |    O          53     -166.93     159.34      0.82   1.081E+00   0.98 |
  |    O          54     -167.77     153.49      0.78  -1.054E+00   1.00 |
  |    O          55     -165.04     151.78      0.79   1.084E+00   0.90 |
  |    O          56     -167.11     155.59      0.79   1.083E+00   0.97 |
  |    Zr          1     1625.50    -123.88      0.02  -4.156E+01   0.01 |
  |    Zr          2     1626.30    -124.65      0.06  -4.143E+01   0.05 |
  |    Zr          3     1629.32    -127.29      0.05  -4.050E+01   0.04 |
  |    Zr          4     1629.32    -127.30      0.05  -4.050E+01   0.04 |
[...]
  |    La          2     4757.40     876.72      0.05  -8.281E+01   0.06 |
  |    La          3     4802.00     967.98      0.00  -8.442E+01   0.00 |
  |    La          4     4802.00     967.98      0.00  -8.442E+01   0.00 |
  |    La          5     4757.40     876.72      0.05  -8.281E+01   0.06 |
  |    La          6     4802.00     967.98      0.00  -8.442E+01   0.00 |
  |    La          7     4802.00     967.98      0.00  -8.442E+01   0.00 |
  |    La          8     4805.49     961.08      0.01  -8.540E+01   0.02 |
  |    La          9     4802.00     967.98      0.00  -8.442E+01   0.00 |
  |    La         10     4757.40     876.72      0.05  -8.281E+01   0.06 |
  |    La         11     4802.00     967.98      0.00  -8.442E+01   0.00 |
  |    La         12     4757.40     876.72      0.05  -8.281E+01   0.06 |
  |    La         13     4805.49     961.08      0.01  -8.540E+01   0.02 |
  |    La         14     4757.40     876.72      0.05  -8.281E+01   0.06 |
  |    La         15     4757.40     876.72      0.05  -8.281E+01   0.06 |
  |    La         16     4803.71     973.35      0.00  -8.475E+01   0.00 |

 *********************** Forces ***********************
 *            Cartesian components (eV/A)             *
 *                   x            y            z      *
 * O         1      0.00235      0.00235     -0.00665 *
 * O         2     -0.00665      0.00235      0.00235 *
 * O         3      0.00235     -0.00665      0.00235 *
 * O         4     -0.00152     -0.00152     -0.00152 *
 * O         5     -0.00235      0.00665     -0.00235 *
 * O         6     -0.00235     -0.00235      0.00665 *
 * O         7      0.00152      0.00152      0.00152 *
 * O         8      0.00665     -0.00235     -0.00235 *
 * O         9      0.00320      0.00081     -0.00419 *
 * O        10     -0.00404      0.00108      0.00108 *
 * O        11      0.00256      0.00064      0.00307 *
 * O        12      0.00241      0.00208      0.00208 *
 * O        13      0.00081      0.00320     -0.00419 *
 * O        14     -0.00155      0.00297     -0.00155 *
 * O        15      0.00064      0.00256      0.00307 *
 * O        16     -0.00704     -0.00802     -0.00704 *
 * O        17     -0.00705     -0.00705     -0.00802 *
 * O        18      0.00307      0.00064      0.00256 *
 * O        19     -0.00155     -0.00155      0.00296 *
 * O        20     -0.00419      0.00081      0.00320 *
 * O        21     -0.00108      0.00404     -0.00108 *
 * O        22     -0.00081     -0.00320      0.00419 *
 * O        23     -0.00208     -0.00241     -0.00208 *
 * O        24     -0.00064     -0.00256     -0.00307 *
 * O        25     -0.00256     -0.00064     -0.00307 *
 * O        26      0.00802      0.00705      0.00705 *
 * O        27     -0.00320     -0.00081      0.00419 *
 * O        28     -0.00297      0.00155      0.00155 *
 * O        29     -0.00081      0.00419     -0.00320 *
 * O        30      0.00155      0.00155     -0.00297 *
 * O        31     -0.00064     -0.00307     -0.00256 *
 * O        32      0.00704      0.00705      0.00802 *
 * O        33      0.00404     -0.00108     -0.00108 *
 * O        34     -0.00241     -0.00208     -0.00208 *
 * O        35      0.00155     -0.00297      0.00155 *
 * O        36      0.00705      0.00802      0.00705 *
 * O        37     -0.00307     -0.00064     -0.00256 *
 * O        38      0.00419     -0.00081     -0.00320 *
 * O        39      0.00108     -0.00404      0.00108 *
 * O        40      0.00208      0.00241      0.00208 *
 * O        41     -0.00802     -0.00705     -0.00705 *
 * O        42      0.00297     -0.00155     -0.00155 *
 * O        43      0.00081     -0.00419      0.00320 *
 * O        44      0.00064      0.00307      0.00256 *
 * O        45      0.00320     -0.00419      0.00081 *
 * O        46      0.00256      0.00307      0.00064 *
 * O        47      0.00108      0.00108     -0.00404 *
 * O        48      0.00208      0.00208      0.00241 *
 * O        49     -0.00307     -0.00256     -0.00064 *
 * O        50      0.00419     -0.00320     -0.00081 *
 * O        51     -0.00256     -0.00307     -0.00064 *
 * O        52     -0.00320      0.00419     -0.00081 *
 * O        53     -0.00108     -0.00108      0.00404 *
 * O        54     -0.00208     -0.00208     -0.00241 *
 * O        55      0.00307      0.00256      0.00064 *
 * O        56     -0.00419      0.00320      0.00081 *
 * Zr        1      0.00000     -0.00000     -0.00000 *
 * Zr        2     -0.00679      0.00679      0.00000 *
 * Zr        3      0.00754      0.01074      0.00754 *
 * Zr        4     -0.01074     -0.00753     -0.00753 *
[...]
 * La        2      0.00420     -0.00420     -0.00000 *
 * La        3     -0.00397     -0.00195     -0.00397 *
 * La        4      0.00195      0.00397      0.00397 *
 * La        5     -0.00420      0.00420     -0.00000 *
 * La        6      0.00397      0.00195      0.00397 *
 * La        7     -0.00195     -0.00397     -0.00397 *
 * La        8     -0.00000     -0.00000     -0.00000 *
 * La        9      0.00397      0.00397      0.00195 *
 * La       10     -0.00420      0.00000      0.00420 *
 * La       11     -0.00397     -0.00397     -0.00195 *
 * La       12      0.00420      0.00000     -0.00420 *
 * La       13      0.00000      0.00000     -0.00000 *
 * La       14     -0.00000      0.00420     -0.00420 *
 * La       15     -0.00000     -0.00419      0.00420 *
 * La       16      0.00000     -0.00000      0.00000 *

 ***************** Stress Tensor *****************
 *          Cartesian components (GPa)           *
 *             x             y             z     *
 *  x      0.000282      0.001136      0.001140  *
 *  y      0.001136      0.000263      0.001129  *
 *  z      0.001140      0.001129      0.000270  *
 *  Pressure:   -0.0003                          *

[...]

 Pseudo atomic calculation performed for Sn 4d10 5s2 5p2

[...]

 Pseudo atomic calculation performed for La 5s2 5p6 5d1 6s2

 Converged in 34 iterations to a total energy of -968.0372 eV

Charge spilling parameter for spin component 1 = 0.21%

     Atomic Populations (Mulliken)
Species   Ion     s      p      d      f     Total  Charge (e)
  O        1     1.87   5.00   0.00   0.00   6.86    -0.86
  O        2     1.87   5.00   0.00   0.00   6.86    -0.86
  O        3     1.87   5.00   0.00   0.00   6.86    -0.86
  O        4     1.87   5.00   0.00   0.00   6.86    -0.86
  O        5     1.87   5.00   0.00   0.00   6.86    -0.86
  O        6     1.87   5.00   0.00   0.00   6.86    -0.86
  O        7     1.87   5.00   0.00   0.00   6.86    -0.86
  O        8     1.87   5.00   0.00   0.00   6.86    -0.86
  O        9     1.85   4.94   0.00   0.00   6.80    -0.80
  O       10     1.85   4.94   0.00   0.00   6.80    -0.80
  O       11     1.86   4.94   0.00   0.00   6.80    -0.80
  O       12     1.86   4.94   0.00   0.00   6.80    -0.80
  O       13     1.85   4.94   0.00   0.00   6.80    -0.80
  O       14     1.85   4.94   0.00   0.00   6.80    -0.80
  O       15     1.86   4.94   0.00   0.00   6.80    -0.80
  O       16     1.87   4.98   0.00   0.00   6.85    -0.85
  O       17     1.87   4.98   0.00   0.00   6.85    -0.85
  O       18     1.86   4.94   0.00   0.00   6.80    -0.80
  O       19     1.85   4.94   0.00   0.00   6.80    -0.80
  O       20     1.85   4.94   0.00   0.00   6.80    -0.80
  O       21     1.85   4.94   0.00   0.00   6.80    -0.80
  O       22     1.85   4.94   0.00   0.00   6.80    -0.80
  O       23     1.86   4.94   0.00   0.00   6.80    -0.80
  O       24     1.86   4.94   0.00   0.00   6.80    -0.80
  O       25     1.86   4.94   0.00   0.00   6.80    -0.80
  O       26     1.87   4.98   0.00   0.00   6.85    -0.85
  O       27     1.85   4.94   0.00   0.00   6.80    -0.80
  O       28     1.85   4.94   0.00   0.00   6.80    -0.80
  O       29     1.85   4.94   0.00   0.00   6.80    -0.80
  O       30     1.85   4.94   0.00   0.00   6.80    -0.80
  O       31     1.86   4.94   0.00   0.00   6.80    -0.80
  O       32     1.87   4.98   0.00   0.00   6.85    -0.85
  O       33     1.85   4.94   0.00   0.00   6.80    -0.80
  O       34     1.86   4.94   0.00   0.00   6.80    -0.80
  O       35     1.85   4.94   0.00   0.00   6.80    -0.80
  O       36     1.87   4.98   0.00   0.00   6.85    -0.85
  O       37     1.86   4.94   0.00   0.00   6.80    -0.80
  O       38     1.85   4.94   0.00   0.00   6.80    -0.80
  O       39     1.85   4.94   0.00   0.00   6.80    -0.80
  O       40     1.86   4.94   0.00   0.00   6.80    -0.80
  O       41     1.87   4.98   0.00   0.00   6.85    -0.85
  O       42     1.85   4.94   0.00   0.00   6.80    -0.80
  O       43     1.85   4.94   0.00   0.00   6.80    -0.80
  O       44     1.86   4.94   0.00   0.00   6.80    -0.80
  O       45     1.85   4.94   0.00   0.00   6.80    -0.80
  O       46     1.86   4.94   0.00   0.00   6.80    -0.80
  O       47     1.85   4.94   0.00   0.00   6.80    -0.80
  O       48     1.86   4.94   0.00   0.00   6.80    -0.80
  O       49     1.86   4.94   0.00   0.00   6.80    -0.80
  O       50     1.85   4.94   0.00   0.00   6.80    -0.80
  O       51     1.86   4.94   0.00   0.00   6.80    -0.80
  O       52     1.85   4.94   0.00   0.00   6.80    -0.80
  O       53     1.85   4.94   0.00   0.00   6.80    -0.80
  O       54     1.86   4.94   0.00   0.00   6.80    -0.80
  O       55     1.86   4.94   0.00   0.00   6.80    -0.80
  O       56     1.85   4.94   0.00   0.00   6.80    -0.80
  Zr       1     2.38   6.47   1.93   0.00  10.79     1.21
  Zr       2     2.38   6.47   1.93   0.00  10.78     1.22
  Zr       3     2.38   6.48   1.93   0.00  10.79     1.21
  Zr       4     2.38   6.48   1.93   0.00  10.79     1.21
[...]
  La       2     2.08   6.15   1.19   0.00   9.42     1.58
  La       3     2.06   6.13   1.19   0.00   9.38     1.62
  La       4     2.06   6.13   1.19   0.00   9.38     1.62
  La       5     2.08   6.15   1.19   0.00   9.42     1.58
  La       6     2.06   6.13   1.19   0.00   9.38     1.62
  La       7     2.06   6.13   1.19   0.00   9.38     1.62
  La       8     2.06   6.14   1.19   0.00   9.39     1.61
  La       9     2.06   6.13   1.19   0.00   9.38     1.62
  La      10     2.08   6.15   1.19   0.00   9.42     1.58
  La      11     2.06   6.13   1.19   0.00   9.38     1.62
  La      12     2.08   6.15   1.19   0.00   9.42     1.58
  La      13     2.06   6.14   1.19   0.00   9.39     1.61
  La      14     2.08   6.15   1.19   0.00   9.42     1.58
  La      15     2.08   6.15   1.19   0.00   9.42     1.58
  La      16     2.05   6.13   1.19   0.00   9.37     1.63

            Bond              Population      Length (A)
         O 41 -- Sn 1              0.35        2.10490
         O 26 -- Sn 1              0.35        2.10490
         O 32 -- Sn 1              0.35        2.10490
         O 17 -- Sn 1              0.35        2.10490
         O 16 -- Sn 1              0.35        2.10490
         O 36 -- Sn 1              0.35        2.10490
         O 53 -- Zr 3              0.43        2.11699
         O 47 -- Zr 6              0.43        2.11699
         O 21 -- Zr 11             0.43        2.11699
         O 39 -- Zr 9              0.43        2.11699
         O 10 -- Zr 6              0.43        2.11699
         O 33 -- Zr 3              0.43        2.11699
         O 39 -- Zr 4              0.43        2.11699
         O 21 -- Zr 7              0.43        2.11699
         O 33 -- Zr 11             0.43        2.11699
         O 10 -- Zr 9              0.43        2.11699
         O 53 -- Zr 7              0.43        2.11699
         O 47 -- Zr 4              0.43        2.11699
         O 27 -- Zr 15             0.44        2.11768
         O 9  -- Zr 14             0.44        2.11768
         O 45 -- Zr 15             0.44        2.11768
         O 52 -- Zr 14             0.44        2.11768
         O 20 -- Zr 5              0.44        2.11768
         O 38 -- Zr 2              0.44        2.11768
         O 43 -- Zr 2              0.44        2.11768
         O 29 -- Zr 5              0.44        2.11768
         O 56 -- Zr 10             0.44        2.11768
         O 50 -- Zr 12             0.44        2.11768
         O 22 -- Zr 10             0.44        2.11768
         O 13 -- Zr 12             0.44        2.11768
         O 30 -- Zr 12             0.44        2.11803
         O 19 -- Zr 10             0.44        2.11803
         O 35 -- Zr 2              0.44        2.11803
         O 14 -- Zr 5              0.44        2.11803
         O 42 -- Zr 12             0.44        2.11803
         O 28 -- Zr 10             0.44        2.11803
         O 14 -- Zr 14             0.44        2.11803
         O 35 -- Zr 15             0.44        2.11803
         O 28 -- Zr 5              0.44        2.11803
         O 42 -- Zr 2              0.44        2.11803
         O 30 -- Zr 14             0.44        2.11803
         O 19 -- Zr 15             0.44        2.11803
         O 52 -- Zr 1              0.44        2.11860
         O 45 -- Zr 1              0.44        2.11860
         O 27 -- Zr 8              0.44        2.11860
         O 9  -- Zr 8              0.44        2.11860
         O 43 -- Zr 13             0.44        2.11860
         O 29 -- Zr 13             0.44        2.11860
         O 38 -- Zr 8              0.44        2.11860
         O 20 -- Zr 8              0.44        2.11860
         O 22 -- Zr 13             0.44        2.11860
         O 13 -- Zr 13             0.44        2.11860
         O 50 -- Zr 1              0.44        2.11860
         O 56 -- Zr 1              0.44        2.11860
         O 26 -- Zr 7              0.46        2.11956
         O 41 -- Zr 4              0.46        2.11956
         O 32 -- Zr 11             0.46        2.11956
         O 17 -- Zr 9              0.46        2.11956
         O 36 -- Zr 3              0.46        2.11956
         O 16 -- Zr 6              0.46        2.11956
[...]
         O 17 -- O 25             -0.03        2.82237
         O 41 -- O 49             -0.03        2.82237
         O 26 -- O 55             -0.03        2.82237
         O 36 -- O 46             -0.03        2.82237
         O 16 -- O 51             -0.03        2.82237
         O 15 -- O 32             -0.03        2.82237
         O 17 -- O 24             -0.03        2.82237
         O 36 -- O 44             -0.03        2.82237
         O 16 -- O 31             -0.03        2.82237
         O 18 -- O 25             -0.03        2.82684
         O 11 -- O 37             -0.03        2.82684
         O 51 -- O 55             -0.03        2.82684
         O 46 -- O 49             -0.03        2.82684
         O 24 -- O 44             -0.03        2.82684
         O 15 -- O 31             -0.03        2.82684

Writing analysis data to Zr15_01_nmr.castep_bin

Writing model to Zr15_01_nmr.check

 A BibTeX formatted list of references used in this run has been written to
 Zr15_01_nmr.bib

Initialisation time =     73.72 s
Calculation time    =  27003.40 s
Finalisation time   =     92.97 s
Total time          =  27170.10 s

Overall parallel efficiency rating: Very good (82%)

Data was distributed by:-
G-vector (24-way); efficiency rating: Very good (83%)
k-point (14-way); efficiency rating: Excellent (99%)