 Compiled for linux_x86_64_ifort16 on Sat, 23 Jul 2016 23:44:54 +0100
 from code version
 203e84763863+ Castep161_branch Fri, 04 Mar 2016 19:21:07 +0000
 Compiler: Intel Fortran 16.0.3.210; Optimisation: fast
 MATHLIBS: Intel MKL(11.3.3) (LAPACK version 3.6.0)
 FFT Lib : mkl
 Fundamental constants values: CODATA 2010

 Run started: Sun, 10 Dec 2017 04:48:33 +0000
 |           N   N    M   M    RRRR                |
 |           NN  N    MM MM    R   R               |
 |           N N N    M M M    RRRR                |
 |           N  NN    M   M    R  R                |
 |           N   N    M   M    R   R               |
 | Welcome to Materials Studio CASTEP-NMR          |
 | Authors:                                        |
 | J.R. Yates, C.J. Pickard, F. Mauri              |
 | Contributors:                                   |
 | T.F.G. Green, S.A. Joyce                        |
 | Copyright (c) 2004 - 2015                       |
 | Please cite the appropriate publications in all |
 | work arising from your use of CASTEP NMR.       |
 | For NMR Shielding Tensors cite:                 |
 |    "All-electron magnetic response with         |
 |    pseudopotentials: NMR chemical shifts",      |
 |    C. J. Pickard, F. Mauri;                     |
 |    Physical Review B63 245101 (2001), and       |
 |    "Calculation of NMR Chemical Shifts          |
 |    for extended systems using                   |
 |    Ultrasoft Pseudopotentials",                 |
 |    J. R. Yates, C. J. Pickard and F. Mauri      |
 |    Physical Review B76 024401 (2007)            |
 | For Electric Field Gradients cite:              |
 |   "Accurate First Principles Prediction of 17O  |
 |    NMR Parameters in SiO2: Assignment of the    |
 |    Zeolite Ferrierite Spectrum"                 |
 |    M. Profeta, F. Mauri and C. J. Pickard       |
 |    J. Amer. Chem. Soc. 125 541 (2003)           |
 | For Spin-Spin (J) Couplings cite:               |
 |   "A first principles theory of NMR J-coupling  |
 |   in solid-state systems"                       |
 |   S.A. Joyce, J.R. Yates, C.J. Pickard, F. Mauri|
 |   J. Chem. Phys. 127 204107 (2007)              |
 |   "Relativistic NMR J-coupling with ultrasoft   |
 |   pseudopotentials and the zeroth-order regular |
 |   approximation"                                |
 |   T.F.G. Green and J.R. Yates                   |
 |   J. Chem. Phys. 140 234106 (2014)              |

 Atomic calculation performed for O: 1s2 2s2 2p4

 Converged in 44 iterations to an ae energy of -2040.855 eV

 Atomic calculation performed for O: 1s2 2s2 2p4

 Exceeded max iterations: converged to 0.000000062 eV

   | Pseudopotential Report - Date of generation 10-12-2017   |
   | Element: O Ionic charge:  6.00 Level of theory: PBE      |
   | Atomic Solver: ZORA (scalar)                             |
   |               Reference Electronic Structure             |
   |         Orbital         Occupation         Energy        |
   |            2s              2.000           -0.881        |
   |            2p              4.000           -0.332        |
   |                 Pseudopotential Definition               |
   |        Beta     l      e      Rc     scheme   norm       |
   |          1      0   -0.881   1.100     qc      0         |
   |          2      0    0.250   1.100     qc      0         |
   |          3      1   -0.332   1.100     qc      0         |
   |          4      1    0.250   1.100     qc      0         |
   |         loc     2    0.000   1.100     pn      0         |
   | Augmentation charge Rinner = 0.769                       |
   | Partial core correction Rc = 0.769                       |
   | "2|1.1|15|18|20|20:21(qc=7)"                             |
   |      Author: Chris J. Pickard, Cambridge University      |

 Atomic calculation performed for Zr: 1s2 2s2 2p6 3s2 3p6 3d10 4s2 4p6 4d2 5s2

[...]

 Atomic calculation performed for Zr: 1s2 2s2 2p6 3s2 3p6 3d10 4s2 4p6 4d2 5s2

[...]

 Warning: ion_atom_descreen_psp: negative charge density encountered
   | Pseudopotential Report - Date of generation 10-12-2017   |
   | Element: Zr Ionic charge: 12.00 Level of theory: PBE     |
   | Atomic Solver: ZORA (scalar)                             |
   |               Reference Electronic Structure             |
   |         Orbital         Occupation         Energy        |
   |            4s              2.000           -2.003        |
   |            4p              6.000           -1.193        |
   |            5s              2.000           -0.163        |
   |            4d              2.000           -0.132        |
   |                 Pseudopotential Definition               |
   |        Beta     l      e      Rc     scheme   norm       |
   |          1      0   -2.003   2.105     qc      0         |
   |          2      0   -0.163   2.105     qc      0         |
   |          3      0    0.250   2.105     qc      0         |
   |          4      1   -1.193   2.105     qc      0         |
   |          5      1    0.250   2.105     qc      0         |
   |          6      2   -0.132   2.105     qc      0         |
   |          7      2    0.250   2.105     qc      0         |
   |         loc     3    0.000   2.105     pn      0         |
   | Augmentation charge Rinner = 1.471                       |
   | Partial core correction Rc = 1.471                       |
   | "3|2.1|7|8|9|40U:50:41:42"                               |
   |      Author: Chris J. Pickard, Cambridge University      |

 Atomic calculation performed for Sn:

[...]

 Atomic calculation performed for Sn:

[...]

   | Pseudopotential Report - Date of generation 10-12-2017   |
   | Element: Sn Ionic charge: 14.00 Level of theory: PBE     |
   | Atomic Solver: ZORA (scalar)                             |
   |               Reference Electronic Structure             |
   |         Orbital         Occupation         Energy        |
   |            4d             10.000           -0.950        |
   |            5s              2.000           -0.388        |
   |            5p              2.000           -0.136        |
   |                 Pseudopotential Definition               |
   |        Beta     l      e      Rc     scheme   norm       |
   |          1      0   -0.388   2.199     qc      0         |
   |          2      0    0.250   2.199     qc      0         |
   |          3      1   -0.136   2.199     qc      0         |
   |          4      1    0.250   2.199     qc      0         |
   |          5      2   -0.950   2.199     qc      0         |
   |          6      2    0.250   2.199     qc      0         |
   |         loc     3    0.000   2.199     pn      0         |
   | Augmentation charge Rinner = 1.537                       |
   | Partial core correction Rc = 1.537                       |
   | "3|2.2|7|8|9|50:51:42"                                   |
   |      Author: Chris J. Pickard, Cambridge University      |

 Atomic calculation performed for La:

 Converged in 56 iterations to an ae energy of -230121.495 eV

 Atomic calculation performed for La:

 Exceeded max iterations: converged to 0.000000907 eV

 Warning: ion_atom_descreen_psp: negative charge density encountered
   | Pseudopotential Report - Date of generation 10-12-2017   |
   | Element: La Ionic charge: 11.00 Level of theory: PBE     |
   | Atomic Solver: ZORA (scalar)                             |
   |               Reference Electronic Structure             |
   |         Orbital         Occupation         Energy        |
   |            5s              2.000           -1.430        |
   |            5p              6.000           -0.823        |
   |            6s              2.000           -0.135        |
   |            5d              1.000           -0.114        |
   |                 Pseudopotential Definition               |
   |        Beta     l      e      Rc     scheme   norm       |
   |          1      0   -1.430   2.298     qc      0         |
   |          2      0   -0.135   2.298     qc      0         |
   |          3      0    0.250   2.298     qc      0         |
   |          4      1   -0.823   2.298     qc      0         |
   |          5      1    0.250   2.298     qc      0         |
   |          6      2   -0.114   2.298     qc      0         |
   |          7      2    0.250   2.298     qc      0         |
   |         loc     2    0.000   2.298     pn      0         |
   | Augmentation charge Rinner = 1.606                       |
   | Partial core correction Rc = 1.606                       |
   | "2|2.3|5|6|7|50U:60:51:52(qc=4.5)"                       |
   |      Author: Chris J. Pickard, Cambridge University      |

 Pseudo atomic calculation performed for O 2s2 2p4

 Converged in 39 iterations to a total energy of -432.6554 eV

 Pseudo atomic calculation performed for Zr 4s2 4p6 4d2 5s2

[...]

 Calculation parallelised over 56 processes.
 Data is distributed by G-vector(4-way) and k-point(14-way)

 ************************************ Title ************************************
 nmr testing

 ***************************** General Parameters ******************************

 output verbosity                               : normal  (1)
 write checkpoint data to                       : 01.check
 type of calculation                            : Magnetic Resonance
 stress calculation                             : on
 density difference calculation                 : off
 electron localisation func (ELF) calculation   : off
 Hirshfeld analysis                             : off
 unlimited duration calculation
 timing information                             : on
 write final potential to formatted file        : off
 write final density to formatted file          : off
 write structure in CIF formatted file          : on
 write structure in CELL formatted file         : on
 write BibTeX reference list                    : on
 write OTFG pseudopotential files               : on
 checkpoint writing                             : both castep_bin and check files

 output         length unit                     : A
 output           mass unit                     : amu
 output           time unit                     : ps
 output         charge unit                     : e
 output           spin unit                     : hbar/2
 output         energy unit                     : eV
 output          force unit                     : eV/A
 output       velocity unit                     : A/ps
 output       pressure unit                     : GPa
 output     inv_length unit                     : 1/A
 output      frequency unit                     : cm-1
 output force constant unit                     : eV/A**2
 output         volume unit                     : A**3
 output   IR intensity unit                     : (D/A)**2/amu
 output         dipole unit                     : D
 output         efield unit                     : eV/A/e
 output        entropy unit                     : J/mol/K

 wavefunctions paging                           : none
 random number generator seed                   : randomised (44835224)
 data distribution                              : optimal for this architecture
[...]
  |    O          41      -87.98      90.25      0.14  -3.204E+00   0.13 |
  |    O          42     -165.57     155.12      0.78   1.081E+00   0.89 |
  |    O          43     -164.74     150.67      0.79   1.085E+00   0.90 |
  |    O          44     -164.60     151.75      0.79   1.085E+00   0.89 |
  |    O          45      -87.76      86.88      0.15  -3.204E+00   0.14 |
  |    O          46     -165.58     154.45      0.78   1.078E+00   0.90 |
  |    O          47     -167.25     157.86      0.81   1.059E+00   0.99 |
  |    O          48     -167.07     157.44      0.81   1.054E+00   1.00 |
  |    O          49     -164.58     151.51      0.79   1.085E+00   0.89 |
  |    O          50     -164.57     151.77      0.79   1.091E+00   0.88 |
  |    O          51     -164.63     154.41      0.84   1.082E+00   0.91 |
  |    O          52     -167.22     154.18      0.77   1.059E+00   0.98 |
  |    O          53     -166.67     159.16      0.82   1.084E+00   0.97 |
  |    O          54     -165.47     150.04      0.78   1.058E+00   0.92 |
  |    O          55     -165.34     150.26      0.78   1.060E+00   0.91 |
  |    O          56     -166.39     159.51      0.82   1.084E+00   0.96 |
  |    Zr          1     1629.08    -126.32      0.06  -4.055E+01   0.04 |
  |    Zr          2     1629.00    -126.66      0.08  -4.048E+01   0.07 |
  |    Zr          3     1628.68    -126.59      0.08  -4.046E+01   0.05 |
  |    Zr          4     1628.53    -126.11      0.06  -4.057E+01   0.03 |
[...]
  |    La          2     4754.98     878.28      0.05  -8.316E+01   0.06 |
  |    La          3     4755.11     874.49      0.05  -8.292E+01   0.06 |
  |    La          4     4803.22     959.64      0.01  -8.535E+01   0.02 |
  |    La          5     4709.55     777.11      0.05  -8.129E+01   0.07 |
  |    La          6     4799.92     968.24      0.00  -8.473E+01   0.00 |
  |    La          7     4803.21     959.64      0.01  -8.535E+01   0.02 |
  |    La          8     4803.28     959.05      0.01  -8.524E+01   0.02 |
  |    La          9     4755.12     874.48      0.05  -8.292E+01   0.06 |
  |    La         10     4754.98     878.29      0.05  -8.316E+01   0.06 |
  |    La         11     4799.93     968.23      0.00  -8.472E+01   0.00 |
  |    La         12     4709.55     777.13      0.05  -8.129E+01   0.07 |
  |    La         13     4759.91     866.44      0.04  -8.343E+01   0.05 |
  |    La         14     4759.94     865.62      0.04  -8.347E+01   0.05 |
  |    La         15     4757.89     881.50      0.05  -8.288E+01   0.06 |
  |    La         16     4757.86     880.81      0.05  -8.280E+01   0.06 |

 *********************** Forces ***********************
 *            Cartesian components (eV/A)             *
 *                   x            y            z      *
 * O         1     -0.00316     -0.00389     -0.00290 *
 * O         2     -0.00958      0.00839     -0.00215 *
 * O         3     -0.01183     -0.00680     -0.00490 *
 * O         4     -0.00759     -0.00015      0.00859 *
 * O         5      0.00317      0.00284      0.00399 *
 * O         6      0.01178      0.00488      0.00677 *
 * O         7      0.00761     -0.00866      0.00016 *
 * O         8      0.00961      0.00216     -0.00834 *
 * O         9      0.00067     -0.00877     -0.01210 *
 * O        10     -0.00781     -0.00531      0.00828 *
 * O        11     -0.00965      0.00466     -0.01554 *
 * O        12      0.00586      0.01998      0.02888 *
 * O        13      0.00519     -0.00627      0.00091 *
 * O        14     -0.00219      0.00141      0.00687 *
 * O        15     -0.01116      0.00244      0.01111 *
 * O        16     -0.01759      0.00548     -0.02226 *
 * O        17     -0.03274     -0.03242     -0.00948 *
 * O        18     -0.01836      0.01297      0.00081 *
 * O        19     -0.02334      0.01767      0.00723 *
 * O        20     -0.01900     -0.00487      0.00132 *
 * O        21     -0.00703      0.01029      0.00766 *
 * O        22     -0.01885     -0.00654     -0.01362 *
 * O        23     -0.00822     -0.00441     -0.00438 *
 * O        24     -0.01330      0.00060      0.00481 *
 * O        25     -0.00846     -0.01275      0.01368 *
 * O        26     -0.00057      0.03343      0.02073 *
 * O        27     -0.00482     -0.01550     -0.00954 *
 * O        28     -0.01344      0.00446     -0.01424 *
 * O        29     -0.00514     -0.00088      0.00623 *
 * O        30      0.00216     -0.00685     -0.00143 *
 * O        31      0.01116     -0.01106     -0.00238 *
 * O        32      0.01761      0.02231     -0.00545 *
 * O        33      0.00782     -0.00820      0.00526 *
 * O        34     -0.00586     -0.02894     -0.02006 *
 * O        35      0.02343     -0.00722     -0.01774 *
 * O        36      0.03270      0.00951      0.03244 *
 * O        37     -0.00026     -0.00590     -0.00674 *
 * O        38      0.00985      0.00881     -0.00267 *
 * O        39     -0.00836     -0.01844     -0.00397 *
 * O        40      0.00225      0.00433      0.01136 *
 * O        41      0.00053     -0.02063     -0.03335 *
 * O        42      0.01342      0.01410     -0.00437 *
 * O        43      0.01877      0.01352      0.00651 *
 * O        44      0.01333     -0.00483     -0.00055 *
 * O        45      0.00488      0.00966      0.01565 *
 * O        46      0.00843     -0.01374      0.01281 *
 * O        47      0.00702     -0.00762     -0.01032 *
 * O        48      0.00828      0.00438      0.00441 *
 * O        49      0.01842     -0.00078     -0.01311 *
 * O        50      0.01889     -0.00136      0.00476 *
 * O        51      0.00966      0.01565     -0.00479 *
 * O        52     -0.00061      0.01200      0.00871 *
 * O        53      0.00826      0.00404      0.01845 *
 * O        54     -0.00229     -0.01143     -0.00431 *
 * O        55      0.00022      0.00673      0.00591 *
 * O        56     -0.00969      0.00259     -0.00867 *
 * Zr        1     -0.04924      0.00142     -0.00062 *
 * Zr        2     -0.01446     -0.01216     -0.01350 *
 * Zr        3     -0.01241      0.01833     -0.01230 *
 * Zr        4     -0.02423      0.01724      0.01907 *
[...]
 * La        2      0.00356     -0.01085     -0.00400 *
 * La        3      0.00460      0.01887      0.00933 *
 * La        4     -0.00277     -0.00316     -0.00259 *
 * La        5      0.00738     -0.00089      0.01564 *
 * La        6      0.00788     -0.00913     -0.02314 *
 * La        7      0.00269      0.00267      0.00314 *
 * La        8      0.00994      0.00115      0.00052 *
 * La        9     -0.00452     -0.00937     -0.01881 *
 * La       10     -0.00354      0.00390      0.01091 *
 * La       11     -0.00788      0.02311      0.00920 *
 * La       12     -0.00726     -0.01573      0.00091 *
 * La       13     -0.00006     -0.00778      0.00765 *
 * La       14     -0.00001     -0.00587      0.00590 *
 * La       15     -0.00002      0.00983     -0.00987 *
 * La       16     -0.00001      0.00660     -0.00653 *

 ***************** Stress Tensor *****************
 *          Cartesian components (GPa)           *
 *             x             y             z     *
 *  x      0.003294      0.000324      0.000009  *
 *  y      0.000324     -0.000979      0.042113  *
 *  z      0.000009      0.042113     -0.000946  *
 *  Pressure:   -0.0005                          *

[...]

 Pseudo atomic calculation performed for Sn 4d10 5s2 5p2

[...]

 Pseudo atomic calculation performed for La 5s2 5p6 5d1 6s2

 Converged in 34 iterations to a total energy of -968.0372 eV

Charge spilling parameter for spin component 1 = 0.22%

     Atomic Populations (Mulliken)
Species   Ion     s      p      d      f     Total  Charge (e)
  O        1     1.87   5.00   0.00   0.00   6.87    -0.87
  O        2     1.87   5.00   0.00   0.00   6.86    -0.86
  O        3     1.87   5.00   0.00   0.00   6.87    -0.87
  O        4     1.87   5.00   0.00   0.00   6.87    -0.87
  O        5     1.87   5.00   0.00   0.00   6.87    -0.87
  O        6     1.87   5.00   0.00   0.00   6.87    -0.87
  O        7     1.87   5.00   0.00   0.00   6.87    -0.87
  O        8     1.87   5.00   0.00   0.00   6.86    -0.86
  O        9     1.85   4.94   0.00   0.00   6.80    -0.80
  O       10     1.86   4.94   0.00   0.00   6.80    -0.80
  O       11     1.86   4.94   0.00   0.00   6.80    -0.80
  O       12     1.86   4.94   0.00   0.00   6.80    -0.80
  O       13     1.85   4.94   0.00   0.00   6.80    -0.80
  O       14     1.85   4.94   0.00   0.00   6.80    -0.80
  O       15     1.87   4.98   0.00   0.00   6.85    -0.85
  O       16     1.87   4.98   0.00   0.00   6.85    -0.85
  O       17     1.87   4.98   0.00   0.00   6.85    -0.85
  O       18     1.86   4.94   0.00   0.00   6.80    -0.80
  O       19     1.87   4.98   0.00   0.00   6.85    -0.85
  O       20     1.86   4.94   0.00   0.00   6.80    -0.80
  O       21     1.85   4.94   0.00   0.00   6.80    -0.80
  O       22     1.86   4.94   0.00   0.00   6.80    -0.80
  O       23     1.86   4.94   0.00   0.00   6.80    -0.80
  O       24     1.86   4.94   0.00   0.00   6.80    -0.80
  O       25     1.86   4.94   0.00   0.00   6.80    -0.80
  O       26     1.87   4.98   0.00   0.00   6.85    -0.85
  O       27     1.87   4.98   0.00   0.00   6.85    -0.85
  O       28     1.86   4.94   0.00   0.00   6.80    -0.80
  O       29     1.85   4.94   0.00   0.00   6.80    -0.80
  O       30     1.85   4.94   0.00   0.00   6.80    -0.80
  O       31     1.87   4.98   0.00   0.00   6.85    -0.85
  O       32     1.87   4.98   0.00   0.00   6.85    -0.85
  O       33     1.86   4.94   0.00   0.00   6.80    -0.80
  O       34     1.86   4.94   0.00   0.00   6.80    -0.80
  O       35     1.87   4.98   0.00   0.00   6.85    -0.85
  O       36     1.87   4.98   0.00   0.00   6.85    -0.85
  O       37     1.86   4.94   0.00   0.00   6.80    -0.80
  O       38     1.85   4.94   0.00   0.00   6.80    -0.80
  O       39     1.85   4.94   0.00   0.00   6.80    -0.80
  O       40     1.86   4.94   0.00   0.00   6.80    -0.80
  O       41     1.87   4.98   0.00   0.00   6.85    -0.85
  O       42     1.86   4.94   0.00   0.00   6.80    -0.80
  O       43     1.86   4.94   0.00   0.00   6.80    -0.80
  O       44     1.86   4.94   0.00   0.00   6.80    -0.80
  O       45     1.87   4.98   0.00   0.00   6.85    -0.85
  O       46     1.86   4.94   0.00   0.00   6.80    -0.80
  O       47     1.85   4.94   0.00   0.00   6.80    -0.80
  O       48     1.85   4.94   0.00   0.00   6.80    -0.80
  O       49     1.86   4.94   0.00   0.00   6.80    -0.80
  O       50     1.86   4.94   0.00   0.00   6.80    -0.80
  O       51     1.86   4.94   0.00   0.00   6.80    -0.80
  O       52     1.85   4.94   0.00   0.00   6.80    -0.80
  O       53     1.85   4.94   0.00   0.00   6.80    -0.80
  O       54     1.86   4.94   0.00   0.00   6.80    -0.80
  O       55     1.86   4.94   0.00   0.00   6.80    -0.80
  O       56     1.85   4.94   0.00   0.00   6.80    -0.80
  Zr       1     2.38   6.48   1.93   0.00  10.79     1.21
  Zr       2     2.38   6.48   1.93   0.00  10.78     1.22
  Zr       3     2.38   6.48   1.93   0.00  10.78     1.22
  Zr       4     2.38   6.48   1.93   0.00  10.79     1.21
[...]
  La       2     2.07   6.15   1.19   0.00   9.41     1.59
  La       3     2.07   6.15   1.19   0.00   9.41     1.59
  La       4     2.05   6.13   1.19   0.00   9.37     1.63
  La       5     2.09   6.17   1.19   0.00   9.45     1.55
  La       6     2.05   6.13   1.19   0.00   9.37     1.63
  La       7     2.05   6.13   1.19   0.00   9.37     1.63
  La       8     2.05   6.13   1.19   0.00   9.37     1.63
  La       9     2.07   6.15   1.19   0.00   9.41     1.59
  La      10     2.07   6.15   1.19   0.00   9.41     1.59
  La      11     2.05   6.13   1.19   0.00   9.37     1.63
  La      12     2.09   6.17   1.19   0.00   9.45     1.55
  La      13     2.07   6.16   1.19   0.00   9.42     1.58
  La      14     2.07   6.16   1.19   0.00   9.42     1.58
  La      15     2.06   6.15   1.19   0.00   9.40     1.60
  La      16     2.06   6.15   1.19   0.00   9.40     1.60

            Bond              Population      Length (A)
         O 41 -- Sn 2              0.35        2.10471
         O 26 -- Sn 2              0.35        2.10472
         O 27 -- Sn 1              0.35        2.10480
         O 45 -- Sn 1              0.35        2.10482
         O 36 -- Sn 2              0.35        2.10538
         O 17 -- Sn 2              0.35        2.10538
         O 19 -- Sn 1              0.35        2.10539
         O 35 -- Sn 1              0.35        2.10540
         O 16 -- Sn 2              0.35        2.10776
         O 32 -- Sn 2              0.35        2.10777
         O 31 -- Sn 1              0.35        2.10792
         O 15 -- Sn 1              0.35        2.10792
         O 38 -- Zr 2              0.43        2.11324
         O 56 -- Zr 10             0.43        2.11324
         O 36 -- Zr 3              0.46        2.11531
         O 17 -- Zr 9              0.46        2.11531
         O 39 -- Zr 9              0.43        2.11559
         O 53 -- Zr 3              0.43        2.11560
         O 13 -- Zr 12             0.44        2.11627
         O 29 -- Zr 5              0.44        2.11627
         O 39 -- Zr 4              0.43        2.11633
         O 53 -- Zr 7              0.43        2.11633
         O 30 -- Zr 12             0.44        2.11661
         O 14 -- Zr 5              0.44        2.11661
         O 30 -- Zr 14             0.44        2.11690
         O 14 -- Zr 14             0.44        2.11690
         O 56 -- Zr 1              0.43        2.11726
         O 38 -- Zr 8              0.43        2.11727
         O 41 -- Zr 4              0.46        2.11733
         O 26 -- Zr 7              0.46        2.11733
         O 21 -- Zr 7              0.43        2.11736
         O 47 -- Zr 4              0.43        2.11736
         O 13 -- Zr 13             0.43        2.11756
         O 29 -- Zr 13             0.43        2.11757
         O 42 -- Zr 2              0.43        2.11799
         O 28 -- Zr 10             0.43        2.11799
         O 35 -- Zr 2              0.46        2.11799
         O 19 -- Zr 10             0.46        2.11799
         O 33 -- Zr 11             0.43        2.11805
         O 10 -- Zr 6              0.43        2.11805
         O 23 -- Zr 8              0.43        2.11825
         O 48 -- Zr 1              0.43        2.11825
         O 9  -- Zr 14             0.44        2.11842
         O 52 -- Zr 14             0.44        2.11842
         O 34 -- Zr 13             0.44        2.11850
         O 12 -- Zr 13             0.44        2.11851
         O 10 -- Zr 9              0.43        2.11871
         O 33 -- Zr 3              0.43        2.11871
         O 28 -- Zr 5              0.44        2.11880
         O 42 -- Zr 12             0.44        2.11881
         O 25 -- Zr 9              0.43        2.11883
         O 46 -- Zr 3              0.44        2.11884
         O 11 -- Zr 11             0.43        2.11901
         O 51 -- Zr 6              0.43        2.11902
         O 50 -- Zr 1              0.43        2.11915
         O 20 -- Zr 8              0.43        2.11916
         O 51 -- Zr 2              0.43        2.11964
         O 47 -- Zr 6              0.44        2.11964
         O 21 -- Zr 11             0.44        2.11965
         O 11 -- Zr 10             0.43        2.11965
[...]
         O 10 -- O 54             -0.03        2.82252
         O 51 -- O 55             -0.03        2.82264
         O 11 -- O 37             -0.03        2.82264
         O 10 -- O 31             -0.03        2.82313
         O 15 -- O 33             -0.03        2.82313
         O 11 -- O 32             -0.03        2.82316
         O 16 -- O 51             -0.03        2.82316
         O 24 -- O 44             -0.03        2.82544
         O 16 -- O 31             -0.03        2.82551
         O 15 -- O 32             -0.03        2.82551
         O 22 -- O 43             -0.03        2.82557
         O 20 -- O 28             -0.03        2.82609
         O 42 -- O 50             -0.03        2.82610
         O 46 -- O 49             -0.03        2.82620
         O 18 -- O 25             -0.03        2.82620

Writing analysis data to 01.castep_bin

Writing model to 01.check

 A BibTeX formatted list of references used in this run has been written to
 01.bib

Initialisation time =     53.57 s
Calculation time    =  32109.85 s
Finalisation time   =     55.89 s
Total time          =  32219.31 s

Overall parallel efficiency rating: Good (76%)

Data was distributed by:-
G-vector (4-way); efficiency rating: Good (77%)
k-point (14-way); efficiency rating: Excellent (98%)