 Compiled for linux_x86_64_ifort2021 on Fri, 04 Feb 2022 13:31:17 +0000
 from code version
 203e84763863+ Castep161_branch Fri, 04 Mar 2016 19:21:07 +0000
 Compiler: Intel Fortran 2021.5.0; Optimisation: intermediate
 MATHLIBS: Intel MKL(2022.0-Product) (LAPACK version 3.9.0)
 FFT Lib : fftw3 version fftw-3.3.10
 Fundamental constants values: CODATA 2010

 Run started: Mon, 14 Mar 2022 13:23:09 +0000
 |           N   N    M   M    RRRR                |
 |           NN  N    MM MM    R   R               |
 |           N N N    M M M    RRRR                |
 |           N  NN    M   M    R  R                |
 |           N   N    M   M    R   R               |
 | Welcome to Materials Studio CASTEP-NMR          |
 | Authors:                                        |
 | J.R. Yates, C.J. Pickard, F. Mauri              |
 | Contributors:                                   |
 | T.F.G. Green, S.A. Joyce                        |
 | Copyright (c) 2004 - 2015                       |
 | Please cite the appropriate publications in all |
 | work arising from your use of CASTEP NMR.       |
 | For NMR Shielding Tensors cite:                 |
 |    "All-electron magnetic response with         |
 |    pseudopotentials: NMR chemical shifts",      |
 |    C. J. Pickard, F. Mauri;                     |
 |    Physical Review B63 245101 (2001), and       |
 |    "Calculation of NMR Chemical Shifts          |
 |    for extended systems using                   |
 |    Ultrasoft Pseudopotentials",                 |
 |    J. R. Yates, C. J. Pickard and F. Mauri      |
 |    Physical Review B76 024401 (2007)            |
 | For Electric Field Gradients cite:              |
 |   "Accurate First Principles Prediction of 17O  |
 |    NMR Parameters in SiO2: Assignment of the    |
 |    Zeolite Ferrierite Spectrum"                 |
 |    M. Profeta, F. Mauri and C. J. Pickard       |
 |    J. Amer. Chem. Soc. 125 541 (2003)           |
 | For Spin-Spin (J) Couplings cite:               |
 |   "A first principles theory of NMR J-coupling  |
 |   in solid-state systems"                       |
 |   S.A. Joyce, J.R. Yates, C.J. Pickard, F. Mauri|
 |   J. Chem. Phys. 127 204107 (2007)              |
 |   "Relativistic NMR J-coupling with ultrasoft   |
 |   pseudopotentials and the zeroth-order regular |
 |   approximation"                                |
 |   T.F.G. Green and J.R. Yates                   |
 |   J. Chem. Phys. 140 234106 (2014)              |

 Atomic calculation performed for O: 1s2 2s2 2p4

 Converged in 44 iterations to an ae energy of -2040.855 eV

 Atomic calculation performed for O: 1s2 2s2 2p4

 Exceeded max iterations: converged to 0.000000062 eV

   | Pseudopotential Report - Date of generation 14-03-2022   |
   | Element: O Ionic charge:  6.00 Level of theory: PBE      |
   | Atomic Solver: ZORA (scalar)                             |
   |               Reference Electronic Structure             |
   |         Orbital         Occupation         Energy        |
   |            2s              2.000           -0.881        |
   |            2p              4.000           -0.332        |
   |                 Pseudopotential Definition               |
   |        Beta     l      e      Rc     scheme   norm       |
   |          1      0   -0.881   1.100     qc      0         |
   |          2      0    0.250   1.100     qc      0         |
   |          3      1   -0.332   1.100     qc      0         |
   |          4      1    0.250   1.100     qc      0         |
   |         loc     2    0.000   1.100     pn      0         |
   | Augmentation charge Rinner = 0.769                       |
   | Partial core correction Rc = 0.769                       |
   | "2|1.1|15|18|20|20:21(qc=7)"                             |
   |      Author: Chris J. Pickard, Cambridge University      |

 Atomic calculation performed for Zr: 1s2 2s2 2p6 3s2 3p6 3d10 4s2 4p6 4d2 5s2

[...]

 Atomic calculation performed for Zr: 1s2 2s2 2p6 3s2 3p6 3d10 4s2 4p6 4d2 5s2

[...]

 Warning: ion_atom_descreen_psp: negative charge density encountered
   | Pseudopotential Report - Date of generation 14-03-2022   |
   | Element: Zr Ionic charge: 12.00 Level of theory: PBE     |
   | Atomic Solver: ZORA (scalar)                             |
   |               Reference Electronic Structure             |
   |         Orbital         Occupation         Energy        |
   |            4s              2.000           -2.003        |
   |            4p              6.000           -1.193        |
   |            5s              2.000           -0.163        |
   |            4d              2.000           -0.132        |
   |                 Pseudopotential Definition               |
   |        Beta     l      e      Rc     scheme   norm       |
   |          1      0   -2.003   2.105     qc      0         |
   |          2      0   -0.163   2.105     qc      0         |
   |          3      0    0.250   2.105     qc      0         |
   |          4      1   -1.193   2.105     qc      0         |
   |          5      1    0.250   2.105     qc      0         |
   |          6      2   -0.132   2.105     qc      0         |
   |          7      2    0.250   2.105     qc      0         |
   |         loc     3    0.000   2.105     pn      0         |
   | Augmentation charge Rinner = 1.471                       |
   | Partial core correction Rc = 1.471                       |
   | "3|2.1|7|8|9|40U:50:41:42"                               |
   |      Author: Chris J. Pickard, Cambridge University      |

 Atomic calculation performed for Sn:

[...]

 Atomic calculation performed for Sn:

[...]

   | Pseudopotential Report - Date of generation 14-03-2022   |
   | Element: Sn Ionic charge: 14.00 Level of theory: PBE     |
   | Atomic Solver: ZORA (scalar)                             |
   |               Reference Electronic Structure             |
   |         Orbital         Occupation         Energy        |
   |            4d             10.000           -0.950        |
   |            5s              2.000           -0.388        |
   |            5p              2.000           -0.136        |
   |                 Pseudopotential Definition               |
   |        Beta     l      e      Rc     scheme   norm       |
   |          1      0   -0.388   2.199     qc      0         |
   |          2      0    0.250   2.199     qc      0         |
   |          3      1   -0.136   2.199     qc      0         |
   |          4      1    0.250   2.199     qc      0         |
   |          5      2   -0.950   2.199     qc      0         |
   |          6      2    0.250   2.199     qc      0         |
   |         loc     3    0.000   2.199     pn      0         |
   | Augmentation charge Rinner = 1.537                       |
   | Partial core correction Rc = 1.537                       |
   | "3|2.2|7|8|9|50:51:42"                                   |
   |      Author: Chris J. Pickard, Cambridge University      |

 Atomic calculation performed for La:

 Converged in 55 iterations to an ae energy of -230121.495 eV

 Atomic calculation performed for La:

 Exceeded max iterations: converged to 0.000001291 eV

 Warning: ion_atom_descreen_psp: negative charge density encountered
   | Pseudopotential Report - Date of generation 14-03-2022   |
   | Element: La Ionic charge: 11.00 Level of theory: PBE     |
   | Atomic Solver: ZORA (scalar)                             |
   |               Reference Electronic Structure             |
   |         Orbital         Occupation         Energy        |
   |            5s              2.000           -1.430        |
   |            5p              6.000           -0.823        |
   |            6s              2.000           -0.135        |
   |            5d              1.000           -0.114        |
   |                 Pseudopotential Definition               |
   |        Beta     l      e      Rc     scheme   norm       |
   |          1      0   -1.430   2.298     qc      0         |
   |          2      0   -0.135   2.298     qc      0         |
   |          3      0    0.250   2.298     qc      0         |
   |          4      1   -0.823   2.298     qc      0         |
   |          5      1    0.250   2.298     qc      0         |
   |          6      2   -0.114   2.298     qc      0         |
   |          7      2    0.250   2.298     qc      0         |
   |         loc     2    0.000   2.298     pn      0         |
   | Augmentation charge Rinner = 1.606                       |
   | Partial core correction Rc = 1.606                       |
   | "2|2.3|5|6|7|50U:60:51:52(qc=4.5)"                       |
   |      Author: Chris J. Pickard, Cambridge University      |

 Pseudo atomic calculation performed for O 2s2 2p4

 Converged in 39 iterations to a total energy of -432.6554 eV

 Pseudo atomic calculation performed for Zr 4s2 4p6 4d2 5s2

[...]

 Calculation parallelised over 182 processes.
 Data is distributed by G-vector(13-way) and k-point(14-way)

 ************************************ Title ************************************
 nmr testing

 ***************************** General Parameters ******************************

 output verbosity                               : normal  (1)
 write checkpoint data to                       : Zr3_1.check
 type of calculation                            : Magnetic Resonance
 stress calculation                             : on
 density difference calculation                 : off
 electron localisation func (ELF) calculation   : off
 Hirshfeld analysis                             : off
 unlimited duration calculation
 timing information                             : on
 write final potential to formatted file        : off
 write final density to formatted file          : off
 write BibTeX reference list                    : on
 write OTFG pseudopotential files               : on
 checkpoint writing                             : both castep_bin and check files

 output         length unit                     : A
 output           mass unit                     : amu
 output           time unit                     : ps
 output         charge unit                     : e
 output           spin unit                     : hbar/2
 output         energy unit                     : eV
 output          force unit                     : eV/A
 output       velocity unit                     : A/ps
 output       pressure unit                     : GPa
 output     inv_length unit                     : 1/A
 output      frequency unit                     : cm-1
 output force constant unit                     : eV/A**2
 output         volume unit                     : A**3
 output   IR intensity unit                     : (D/A)**2/amu
 output         dipole unit                     : D
 output         efield unit                     : eV/A/e
 output        entropy unit                     : J/mol/K

 wavefunctions paging                           : none
 random number generator seed                   : randomised (132309799)
 data distribution                              : optimal for this architecture
[...]
  |    O          42      -88.31      84.82      0.20  -3.172E+00   0.07 |
  |    O          43      -86.58      85.34      0.09  -3.176E+00   0.04 |
  |    O          44      -87.09      86.51      0.19  -3.179E+00   0.06 |
  |    O          45      -86.98      86.27      0.19  -3.180E+00   0.06 |
  |    O          46      -86.61      85.38      0.09  -3.176E+00   0.04 |
  |    O          47      -16.19     -42.02      0.63   3.838E+00   0.94 |
  |    O          48      -88.19      84.62      0.20  -3.173E+00   0.07 |
  |    O          49      -16.19     -42.02      0.63   3.838E+00   0.94 |
  |    O          50      -88.19      84.62      0.20  -3.173E+00   0.07 |
  |    O          51      -86.61      85.37      0.09  -3.176E+00   0.04 |
  |    O          52      -86.98      86.27      0.19  -3.180E+00   0.06 |
  |    O          53      -87.04      86.05      0.19  -3.180E+00   0.06 |
  |    O          54      -86.57      85.53      0.09  -3.176E+00   0.04 |
  |    O          55      -87.04      86.05      0.19  -3.180E+00   0.06 |
  |    O          56      -86.57      85.52      0.09  -3.176E+00   0.04 |
  |    Zr          1     1599.71    -109.94      0.03  -3.448E+01   0.05 |
  |    Zr          2     1599.51    -109.97      0.03  -3.452E+01   0.04 |
  |    Zr          3     1599.51    -109.97      0.03  -3.452E+01   0.04 |
  |    Sn          1     3233.85     -67.21      0.00   1.132E+02   0.00 |
[...]
  |    La          2     4604.39     520.89      0.06  -8.086E+01   0.09 |
  |    La          3     4604.39     520.88      0.06  -8.086E+01   0.09 |
  |    La          4     4652.14     649.73      0.00  -8.424E+01   0.00 |
  |    La          5     4549.10     391.28      0.06  -7.720E+01   0.09 |
  |    La          6     4549.10     391.28      0.06  -7.720E+01   0.09 |
  |    La          7     4556.06     385.92      0.05  -7.877E+01   0.11 |
  |    La          8     4498.82     241.78      0.01  -7.443E+01   0.00 |
  |    La          9     4549.12     391.38      0.06  -7.720E+01   0.09 |
  |    La         10     4549.12     391.37      0.06  -7.720E+01   0.09 |
  |    La         11     4498.81     242.09      0.01  -7.452E+01   0.00 |
  |    La         12     4498.81     242.09      0.01  -7.452E+01   0.00 |
  |    La         13     4549.16     391.25      0.06  -7.712E+01   0.09 |
  |    La         14     4556.08     385.79      0.05  -7.877E+01   0.11 |
  |    La         15     4556.08     385.79      0.05  -7.877E+01   0.11 |
  |    La         16     4549.16     391.25      0.06  -7.712E+01   0.09 |

 *********************** Forces ***********************
 *            Cartesian components (eV/A)             *
 *                   x            y            z      *
 * O         1     -0.01089     -0.00428     -0.00029 *
 * O         2     -0.00067      0.01034     -0.00448 *
 * O         3      0.00367     -0.00038      0.01017 *
 * O         4     -0.00810      0.00704      0.00684 *
 * O         5     -0.00367     -0.01017      0.00038 *
 * O         6      0.01089      0.00029      0.00428 *
 * O         7      0.00067      0.00448     -0.01034 *
 * O         8      0.00810     -0.00684     -0.00704 *
 * O         9     -0.01646     -0.00297     -0.01631 *
 * O        10      0.01215     -0.00167     -0.00942 *
 * O        11      0.02958     -0.00795      0.00429 *
 * O        12     -0.01335     -0.01416     -0.00155 *
 * O        13     -0.00383     -0.03043     -0.00784 *
 * O        14      0.00148      0.01243     -0.01365 *
 * O        15      0.01643      0.01621     -0.00260 *
 * O        16      0.00952     -0.01259     -0.00206 *
 * O        17      0.00212     -0.00952     -0.01261 *
 * O        18      0.00289     -0.01622      0.01625 *
 * O        19      0.01368     -0.00131      0.01243 *
 * O        20      0.00772      0.00390     -0.03036 *
 * O        21     -0.00289     -0.01625      0.01622 *
 * O        22     -0.00212      0.01261      0.00952 *
 * O        23     -0.00772      0.03036     -0.00390 *
 * O        24     -0.01368     -0.01244      0.00131 *
 * O        25     -0.02958     -0.00429      0.00795 *
 * O        26      0.01335      0.00155      0.01416 *
 * O        27      0.01646      0.01631      0.00297 *
 * O        28     -0.01215      0.00942      0.00167 *
 * O        29     -0.00952      0.00206      0.01259 *
 * O        30     -0.01643      0.00260     -0.01621 *
 * O        31     -0.00148      0.01365     -0.01243 *
 * O        32      0.00383      0.00784      0.03043 *
 * O        33      0.02128     -0.01886      0.03975 *
 * O        34      0.00698     -0.00443      0.01284 *
 * O        35      0.03690      0.02161     -0.01801 *
 * O        36      0.03345     -0.01144      0.03133 *
 * O        37      0.00404      0.01271     -0.00651 *
 * O        38      0.01989      0.04028     -0.02129 *
 * O        39     -0.00404      0.00651     -0.01271 *
 * O        40     -0.01989      0.02129     -0.04028 *
 * O        41     -0.00698     -0.01284      0.00443 *
 * O        42     -0.02128     -0.03975      0.01886 *
 * O        43     -0.03345     -0.03133      0.01144 *
 * O        44     -0.03690      0.01801     -0.02161 *
 * O        45      0.02117      0.03601      0.01785 *
 * O        46     -0.01273      0.03456     -0.03140 *
 * O        47      0.01324      0.00459      0.00632 *
 * O        48      0.03952      0.01846      0.02161 *
 * O        49     -0.01324     -0.00632     -0.00459 *
 * O        50     -0.03952     -0.02161     -0.01846 *
 * O        51      0.01273      0.03140     -0.03456 *
 * O        52     -0.02117     -0.01785     -0.03601 *
 * O        53      0.01611     -0.03565      0.02216 *
 * O        54     -0.03158     -0.03453     -0.01127 *
 * O        55     -0.01611     -0.02216      0.03565 *
 * O        56      0.03158      0.01127      0.03453 *
 * Zr        1      0.00000      0.00926     -0.00926 *
 * Zr        2      0.00426      0.00039      0.00808 *
 * Zr        3     -0.00426     -0.00808     -0.00039 *
 * Sn        1     -0.00000     -0.00016      0.00016 *
[...]
 * La        2      0.00380     -0.00019      0.00301 *
 * La        3     -0.00380     -0.00301      0.00019 *
 * La        4      0.00000     -0.00090      0.00090 *
 * La        5      0.00979      0.01459     -0.01182 *
 * La        6     -0.00979      0.01182     -0.01459 *
 * La        7      0.00000     -0.00494      0.00494 *
 * La        8     -0.00000     -0.00009      0.00009 *
 * La        9     -0.01062     -0.01476      0.01026 *
 * La       10      0.01062     -0.01026      0.01476 *
 * La       11     -0.00074      0.00005     -0.00018 *
 * La       12      0.00074      0.00018     -0.00005 *
 * La       13     -0.01509     -0.01175     -0.00944 *
 * La       14     -0.00432      0.00005     -0.00406 *
 * La       15      0.00432      0.00406     -0.00005 *
 * La       16      0.01509      0.00944      0.01175 *

 ***************** Stress Tensor *****************
 *          Cartesian components (GPa)           *
 *             x             y             z     *
 *  x      0.014441      0.003411      0.003411  *
 *  y      0.003411      0.006161     -0.003461  *
 *  z      0.003411     -0.003461      0.006158  *
 *  Pressure:   -0.0089                          *

[...]

 Pseudo atomic calculation performed for Sn 4d10 5s2 5p2

[...]

 Pseudo atomic calculation performed for La 5s2 5p6 5d1 6s2

 Converged in 34 iterations to a total energy of -968.0371 eV

Charge spilling parameter for spin component 1 = 0.26%

     Atomic Populations (Mulliken)
Species   Ion     s      p      d      f     Total  Charge (e)
  O        1     1.87   5.00   0.00   0.00   6.87    -0.87
  O        2     1.87   5.00   0.00   0.00   6.87    -0.87
  O        3     1.87   5.00   0.00   0.00   6.87    -0.87
  O        4     1.87   5.00   0.00   0.00   6.87    -0.87
  O        5     1.87   5.00   0.00   0.00   6.87    -0.87
  O        6     1.87   5.00   0.00   0.00   6.87    -0.87
  O        7     1.87   5.00   0.00   0.00   6.87    -0.87
  O        8     1.87   5.00   0.00   0.00   6.87    -0.87
  O        9     1.88   5.03   0.00   0.00   6.91    -0.91
  O       10     1.88   5.03   0.00   0.00   6.91    -0.91
  O       11     1.88   5.03   0.00   0.00   6.91    -0.91
  O       12     1.88   5.03   0.00   0.00   6.91    -0.91
  O       13     1.88   5.03   0.00   0.00   6.91    -0.91
  O       14     1.88   5.03   0.00   0.00   6.91    -0.91
  O       15     1.88   5.03   0.00   0.00   6.91    -0.91
  O       16     1.88   5.03   0.00   0.00   6.91    -0.91
  O       17     1.88   5.03   0.00   0.00   6.91    -0.91
  O       18     1.88   5.03   0.00   0.00   6.91    -0.91
  O       19     1.88   5.03   0.00   0.00   6.91    -0.91
  O       20     1.88   5.03   0.00   0.00   6.91    -0.91
  O       21     1.88   5.03   0.00   0.00   6.91    -0.91
  O       22     1.88   5.03   0.00   0.00   6.91    -0.91
  O       23     1.88   5.03   0.00   0.00   6.91    -0.91
  O       24     1.88   5.03   0.00   0.00   6.91    -0.91
  O       25     1.88   5.03   0.00   0.00   6.91    -0.91
  O       26     1.88   5.03   0.00   0.00   6.91    -0.91
  O       27     1.88   5.03   0.00   0.00   6.91    -0.91
  O       28     1.88   5.03   0.00   0.00   6.91    -0.91
  O       29     1.88   5.03   0.00   0.00   6.91    -0.91
  O       30     1.88   5.03   0.00   0.00   6.91    -0.91
  O       31     1.88   5.03   0.00   0.00   6.91    -0.91
  O       32     1.88   5.03   0.00   0.00   6.91    -0.91
  O       33     1.87   4.99   0.00   0.00   6.86    -0.86
  O       34     1.89   5.03   0.00   0.00   6.91    -0.91
  O       35     1.87   4.99   0.00   0.00   6.86    -0.86
  O       36     1.87   4.99   0.00   0.00   6.86    -0.86
  O       37     1.89   5.03   0.00   0.00   6.91    -0.91
  O       38     1.87   4.99   0.00   0.00   6.86    -0.86
  O       39     1.89   5.03   0.00   0.00   6.91    -0.91
  O       40     1.87   4.99   0.00   0.00   6.86    -0.86
  O       41     1.89   5.03   0.00   0.00   6.91    -0.91
  O       42     1.87   4.99   0.00   0.00   6.86    -0.86
  O       43     1.87   4.99   0.00   0.00   6.86    -0.86
  O       44     1.87   4.99   0.00   0.00   6.86    -0.86
  O       45     1.87   4.99   0.00   0.00   6.86    -0.86
  O       46     1.87   4.99   0.00   0.00   6.86    -0.86
  O       47     1.89   5.03   0.00   0.00   6.91    -0.91
  O       48     1.87   4.99   0.00   0.00   6.86    -0.86
  O       49     1.89   5.03   0.00   0.00   6.91    -0.91
  O       50     1.87   4.99   0.00   0.00   6.86    -0.86
  O       51     1.87   4.99   0.00   0.00   6.86    -0.86
  O       52     1.87   4.99   0.00   0.00   6.86    -0.86
  O       53     1.87   4.99   0.00   0.00   6.86    -0.86
  O       54     1.87   4.99   0.00   0.00   6.86    -0.86
  O       55     1.87   4.99   0.00   0.00   6.86    -0.86
  O       56     1.87   4.99   0.00   0.00   6.86    -0.86
  Zr       1     2.36   6.49   1.92   0.00  10.77     1.23
  Zr       2     2.36   6.49   1.92   0.00  10.77     1.23
  Zr       3     2.36   6.49   1.92   0.00  10.77     1.23
  Sn       1     1.04   1.31  10.00   0.00  12.34     1.66
[...]
  La       2     2.06   6.18   1.20   0.00   9.44     1.56
  La       3     2.06   6.18   1.20   0.00   9.44     1.56
  La       4     2.02   6.17   1.20   0.00   9.38     1.62
  La       5     2.08   6.19   1.19   0.00   9.46     1.54
  La       6     2.08   6.19   1.19   0.00   9.46     1.54
  La       7     2.07   6.19   1.19   0.00   9.46     1.54
  La       8     2.10   6.20   1.19   0.00   9.49     1.51
  La       9     2.08   6.19   1.19   0.00   9.46     1.54
  La      10     2.08   6.19   1.19   0.00   9.46     1.54
  La      11     2.10   6.20   1.19   0.00   9.49     1.51
  La      12     2.10   6.20   1.19   0.00   9.49     1.51
  La      13     2.08   6.19   1.19   0.00   9.46     1.54
  La      14     2.07   6.19   1.19   0.00   9.46     1.54
  La      15     2.07   6.19   1.19   0.00   9.46     1.54
  La      16     2.08   6.19   1.19   0.00   9.46     1.54

            Bond              Population      Length (A)
         O 45 -- Sn 12             0.34        2.10468
         O 52 -- Sn 11             0.34        2.10468
         O 35 -- Sn 12             0.34        2.10479
         O 44 -- Sn 11             0.34        2.10479
         O 55 -- Sn 4              0.34        2.10479
         O 53 -- Sn 4              0.34        2.10479
         O 50 -- Sn 9              0.34        2.10584
         O 48 -- Sn 8              0.34        2.10584
         O 40 -- Sn 5              0.34        2.10588
         O 38 -- Sn 5              0.34        2.10588
         O 42 -- Sn 9              0.34        2.10593
         O 33 -- Sn 8              0.34        2.10593
         O 56 -- Sn 7              0.34        2.10693
         O 54 -- Sn 6              0.34        2.10693
         O 36 -- Sn 13             0.34        2.10696
         O 43 -- Sn 10             0.34        2.10696
         O 51 -- Sn 3              0.34        2.10700
         O 46 -- Sn 2              0.34        2.10700
         O 22 -- Sn 7              0.34        2.10756
         O 17 -- Sn 6              0.34        2.10756
         O 16 -- Sn 13             0.34        2.10762
         O 29 -- Sn 10             0.34        2.10762
         O 10 -- Sn 3              0.34        2.10766
         O 28 -- Sn 2              0.34        2.10766
         O 9  -- Sn 11             0.34        2.10954
         O 27 -- Sn 12             0.34        2.10954
         O 15 -- Sn 12             0.34        2.10965
         O 30 -- Sn 11             0.34        2.10965
         O 21 -- Sn 4              0.34        2.10968
         O 18 -- Sn 4              0.34        2.10968
         O 41 -- Sn 13             0.33        2.11133
         O 34 -- Sn 10             0.33        2.11133
         O 49 -- Sn 2              0.33        2.11140
         O 47 -- Sn 3              0.33        2.11140
         O 39 -- Sn 6              0.33        2.11140
         O 37 -- Sn 7              0.33        2.11140
         O 34 -- Sn 1              0.33        2.11156
         O 41 -- Sn 1              0.33        2.11156
         O 49 -- Sn 1              0.33        2.11169
         O 47 -- Sn 1              0.33        2.11169
         O 39 -- Sn 1              0.33        2.11169
         O 37 -- Sn 1              0.33        2.11169
         O 16 -- Sn 3              0.33        2.11233
         O 29 -- Sn 2              0.33        2.11233
         O 22 -- Sn 10             0.33        2.11239
         O 17 -- Sn 13             0.33        2.11239
         O 28 -- Sn 7              0.33        2.11243
         O 10 -- Sn 6              0.33        2.11243
         O 13 -- Sn 9              0.34        2.11269
         O 32 -- Sn 8              0.34        2.11269
         O 23 -- Sn 5              0.34        2.11271
         O 20 -- Sn 5              0.34        2.11271
         O 25 -- Sn 9              0.34        2.11276
         O 11 -- Sn 8              0.34        2.11276
         O 12 -- Sn 10             0.34        2.11321
         O 26 -- Sn 13             0.34        2.11321
         O 27 -- Sn 5              0.33        2.11324
         O 9  -- Sn 5              0.33        2.11324
         O 24 -- Sn 6              0.34        2.11330
         O 19 -- Sn 7              0.34        2.11330
[...]
         O 48 -- O 52             -0.03        2.81870
         O 40 -- O 53             -0.03        2.81874
         O 38 -- O 55             -0.03        2.81874
         O 33 -- O 40             -0.03        2.82492
         O 38 -- O 42             -0.03        2.82492
         O 48 -- O 50             -0.03        2.82508
         O 51 -- O 55             -0.03        2.82642
         O 46 -- O 53             -0.03        2.82642
         O 52 -- O 56             -0.03        2.82646
         O 45 -- O 54             -0.03        2.82646
         O 36 -- O 44             -0.03        2.82652
         O 35 -- O 43             -0.03        2.82652
         O 36 -- O 46             -0.03        2.82769
         O 43 -- O 51             -0.03        2.82769
         O 54 -- O 56             -0.03        2.82786

Writing analysis data to Zr3_1.castep_bin

Writing model to Zr3_1.check

 A BibTeX formatted list of references used in this run has been written to
 Zr3_1.bib

Initialisation time =     45.33 s
Calculation time    =   9780.68 s
Finalisation time   =     31.34 s
Total time          =   9857.35 s

Overall parallel efficiency rating: Good (77%)

Data was distributed by:-
G-vector (13-way); efficiency rating: Very good (81%)
k-point (14-way); efficiency rating: Excellent (94%)