 Compiled for linux_x86_64_ifort2021 on Fri, 04 Feb 2022 13:31:17 +0000
 from code version
 203e84763863+ Castep161_branch Fri, 04 Mar 2016 19:21:07 +0000
 Compiler: Intel Fortran 2021.5.0; Optimisation: intermediate
 MATHLIBS: Intel MKL(2022.0-Product) (LAPACK version 3.9.0)
 FFT Lib : fftw3 version fftw-3.3.10
 Fundamental constants values: CODATA 2010

 Run started: Fri, 18 Mar 2022 13:07:53 +0000
 |           N   N    M   M    RRRR                |
 |           NN  N    MM MM    R   R               |
 |           N N N    M M M    RRRR                |
 |           N  NN    M   M    R  R                |
 |           N   N    M   M    R   R               |
 | Welcome to Materials Studio CASTEP-NMR          |
 | Authors:                                        |
 | J.R. Yates, C.J. Pickard, F. Mauri              |
 | Contributors:                                   |
 | T.F.G. Green, S.A. Joyce                        |
 | Copyright (c) 2004 - 2015                       |
 | Please cite the appropriate publications in all |
 | work arising from your use of CASTEP NMR.       |
 | For NMR Shielding Tensors cite:                 |
 |    "All-electron magnetic response with         |
 |    pseudopotentials: NMR chemical shifts",      |
 |    C. J. Pickard, F. Mauri;                     |
 |    Physical Review B63 245101 (2001), and       |
 |    "Calculation of NMR Chemical Shifts          |
 |    for extended systems using                   |
 |    Ultrasoft Pseudopotentials",                 |
 |    J. R. Yates, C. J. Pickard and F. Mauri      |
 |    Physical Review B76 024401 (2007)            |
 | For Electric Field Gradients cite:              |
 |   "Accurate First Principles Prediction of 17O  |
 |    NMR Parameters in SiO2: Assignment of the    |
 |    Zeolite Ferrierite Spectrum"                 |
 |    M. Profeta, F. Mauri and C. J. Pickard       |
 |    J. Amer. Chem. Soc. 125 541 (2003)           |
 | For Spin-Spin (J) Couplings cite:               |
 |   "A first principles theory of NMR J-coupling  |
 |   in solid-state systems"                       |
 |   S.A. Joyce, J.R. Yates, C.J. Pickard, F. Mauri|
 |   J. Chem. Phys. 127 204107 (2007)              |
 |   "Relativistic NMR J-coupling with ultrasoft   |
 |   pseudopotentials and the zeroth-order regular |
 |   approximation"                                |
 |   T.F.G. Green and J.R. Yates                   |
 |   J. Chem. Phys. 140 234106 (2014)              |

 Atomic calculation performed for O: 1s2 2s2 2p4

 Converged in 44 iterations to an ae energy of -2040.855 eV

 Atomic calculation performed for O: 1s2 2s2 2p4

 Exceeded max iterations: converged to 0.000000062 eV

   | Pseudopotential Report - Date of generation 18-03-2022   |
   | Element: O Ionic charge:  6.00 Level of theory: PBE      |
   | Atomic Solver: ZORA (scalar)                             |
   |               Reference Electronic Structure             |
   |         Orbital         Occupation         Energy        |
   |            2s              2.000           -0.881        |
   |            2p              4.000           -0.332        |
   |                 Pseudopotential Definition               |
   |        Beta     l      e      Rc     scheme   norm       |
   |          1      0   -0.881   1.100     qc      0         |
   |          2      0    0.250   1.100     qc      0         |
   |          3      1   -0.332   1.100     qc      0         |
   |          4      1    0.250   1.100     qc      0         |
   |         loc     2    0.000   1.100     pn      0         |
   | Augmentation charge Rinner = 0.769                       |
   | Partial core correction Rc = 0.769                       |
   | "2|1.1|15|18|20|20:21(qc=7)"                             |
   |      Author: Chris J. Pickard, Cambridge University      |

 Atomic calculation performed for Zr: 1s2 2s2 2p6 3s2 3p6 3d10 4s2 4p6 4d2 5s2

[...]

 Atomic calculation performed for Zr: 1s2 2s2 2p6 3s2 3p6 3d10 4s2 4p6 4d2 5s2

[...]

 Warning: ion_atom_descreen_psp: negative charge density encountered
   | Pseudopotential Report - Date of generation 18-03-2022   |
   | Element: Zr Ionic charge: 12.00 Level of theory: PBE     |
   | Atomic Solver: ZORA (scalar)                             |
   |               Reference Electronic Structure             |
   |         Orbital         Occupation         Energy        |
   |            4s              2.000           -2.003        |
   |            4p              6.000           -1.193        |
   |            5s              2.000           -0.163        |
   |            4d              2.000           -0.132        |
   |                 Pseudopotential Definition               |
   |        Beta     l      e      Rc     scheme   norm       |
   |          1      0   -2.003   2.105     qc      0         |
   |          2      0   -0.163   2.105     qc      0         |
   |          3      0    0.250   2.105     qc      0         |
   |          4      1   -1.193   2.105     qc      0         |
   |          5      1    0.250   2.105     qc      0         |
   |          6      2   -0.132   2.105     qc      0         |
   |          7      2    0.250   2.105     qc      0         |
   |         loc     3    0.000   2.105     pn      0         |
   | Augmentation charge Rinner = 1.471                       |
   | Partial core correction Rc = 1.471                       |
   | "3|2.1|7|8|9|40U:50:41:42"                               |
   |      Author: Chris J. Pickard, Cambridge University      |

 Atomic calculation performed for Sn:

[...]

 Atomic calculation performed for Sn:

[...]

   | Pseudopotential Report - Date of generation 18-03-2022   |
   | Element: Sn Ionic charge: 14.00 Level of theory: PBE     |
   | Atomic Solver: ZORA (scalar)                             |
   |               Reference Electronic Structure             |
   |         Orbital         Occupation         Energy        |
   |            4d             10.000           -0.950        |
   |            5s              2.000           -0.388        |
   |            5p              2.000           -0.136        |
   |                 Pseudopotential Definition               |
   |        Beta     l      e      Rc     scheme   norm       |
   |          1      0   -0.388   2.199     qc      0         |
   |          2      0    0.250   2.199     qc      0         |
   |          3      1   -0.136   2.199     qc      0         |
   |          4      1    0.250   2.199     qc      0         |
   |          5      2   -0.950   2.199     qc      0         |
   |          6      2    0.250   2.199     qc      0         |
   |         loc     3    0.000   2.199     pn      0         |
   | Augmentation charge Rinner = 1.537                       |
   | Partial core correction Rc = 1.537                       |
   | "3|2.2|7|8|9|50:51:42"                                   |
   |      Author: Chris J. Pickard, Cambridge University      |

 Atomic calculation performed for La:

 Converged in 55 iterations to an ae energy of -230121.495 eV

 Atomic calculation performed for La:

 Exceeded max iterations: converged to 0.000001291 eV

 Warning: ion_atom_descreen_psp: negative charge density encountered
   | Pseudopotential Report - Date of generation 18-03-2022   |
   | Element: La Ionic charge: 11.00 Level of theory: PBE     |
   | Atomic Solver: ZORA (scalar)                             |
   |               Reference Electronic Structure             |
   |         Orbital         Occupation         Energy        |
   |            5s              2.000           -1.430        |
   |            5p              6.000           -0.823        |
   |            6s              2.000           -0.135        |
   |            5d              1.000           -0.114        |
   |                 Pseudopotential Definition               |
   |        Beta     l      e      Rc     scheme   norm       |
   |          1      0   -1.430   2.298     qc      0         |
   |          2      0   -0.135   2.298     qc      0         |
   |          3      0    0.250   2.298     qc      0         |
   |          4      1   -0.823   2.298     qc      0         |
   |          5      1    0.250   2.298     qc      0         |
   |          6      2   -0.114   2.298     qc      0         |
   |          7      2    0.250   2.298     qc      0         |
   |         loc     2    0.000   2.298     pn      0         |
   | Augmentation charge Rinner = 1.606                       |
   | Partial core correction Rc = 1.606                       |
   | "2|2.3|5|6|7|50U:60:51:52(qc=4.5)"                       |
   |      Author: Chris J. Pickard, Cambridge University      |

 Pseudo atomic calculation performed for O 2s2 2p4

 Converged in 39 iterations to a total energy of -432.6554 eV

 Pseudo atomic calculation performed for Zr 4s2 4p6 4d2 5s2

[...]

 Calculation parallelised over 182 processes.
 Data is distributed by G-vector(13-way) and k-point(14-way)

 ************************************ Title ************************************
 nmr testing

 ***************************** General Parameters ******************************

 output verbosity                               : normal  (1)
 write checkpoint data to                       : Zr3_2.check
 type of calculation                            : Magnetic Resonance
 stress calculation                             : on
 density difference calculation                 : off
 electron localisation func (ELF) calculation   : off
 Hirshfeld analysis                             : off
 unlimited duration calculation
 timing information                             : on
 write final potential to formatted file        : off
 write final density to formatted file          : off
 write BibTeX reference list                    : on
 write OTFG pseudopotential files               : on
 checkpoint writing                             : both castep_bin and check files

 output         length unit                     : A
 output           mass unit                     : amu
 output           time unit                     : ps
 output         charge unit                     : e
 output           spin unit                     : hbar/2
 output         energy unit                     : eV
 output          force unit                     : eV/A
 output       velocity unit                     : A/ps
 output       pressure unit                     : GPa
 output     inv_length unit                     : 1/A
 output      frequency unit                     : cm-1
 output force constant unit                     : eV/A**2
 output         volume unit                     : A**3
 output   IR intensity unit                     : (D/A)**2/amu
 output         dipole unit                     : D
 output         efield unit                     : eV/A/e
 output        entropy unit                     : J/mol/K

 wavefunctions paging                           : none
 random number generator seed                   : randomised (130754162)
 data distribution                              : optimal for this architecture
[...]
  |    O          42      -89.11      87.40      0.18  -3.156E+00   0.06 |
  |    O          43      -85.76      85.44      0.11  -3.192E+00   0.04 |
  |    O          44       -5.66      60.65      0.75   3.830E+00   0.96 |
  |    O          45      -87.07      86.59      0.20  -3.182E+00   0.06 |
  |    O          46      -87.36      87.72      0.11  -3.162E+00   0.03 |
  |    O          47      -16.15     -38.86      0.87   3.892E+00   0.90 |
  |    O          48      -87.79      84.30      0.06  -3.169E+00   0.05 |
  |    O          49      -87.36      87.72      0.11  -3.162E+00   0.03 |
  |    O          50      -87.07      86.60      0.20  -3.182E+00   0.06 |
  |    O          51      -87.36      87.73      0.11  -3.162E+00   0.03 |
  |    O          52      -87.07      86.59      0.20  -3.182E+00   0.06 |
  |    O          53      -16.15     -38.85      0.87   3.892E+00   0.90 |
  |    O          54      -87.79      84.30      0.06  -3.169E+00   0.05 |
  |    O          55      -87.36      87.72      0.11  -3.162E+00   0.03 |
  |    O          56      -87.07      86.59      0.20  -3.182E+00   0.06 |
  |    Zr          1     1599.63    -109.70      0.05  -3.456E+01   0.08 |
  |    Zr          2     1599.64    -107.06      0.08  -3.402E+01   0.03 |
  |    Zr          3     1599.64    -107.06      0.08  -3.402E+01   0.03 |
  |    Sn          1     3242.89     -64.02      0.34   1.167E+02   0.08 |
[...]
  |    La          2     4548.87     389.98      0.06  -7.658E+01   0.09 |
  |    La          3     4604.56     521.62      0.06  -8.141E+01   0.09 |
  |    La          4     4604.56     521.62      0.06  -8.141E+01   0.09 |
  |    La          5     4548.87     389.98      0.06  -7.658E+01   0.09 |
  |    La          6     4604.56     521.62      0.06  -8.141E+01   0.09 |
  |    La          7     4604.56     521.62      0.06  -8.141E+01   0.09 |
  |    La          8     4498.43     242.25      0.01  -7.464E+01   0.02 |
  |    La          9     4489.57     246.64      0.00  -7.285E+01   0.01 |
  |    La         10     4556.36     386.12      0.04  -7.865E+01   0.09 |
  |    La         11     4489.57     246.64      0.00  -7.285E+01   0.01 |
  |    La         12     4556.36     386.12      0.04  -7.865E+01   0.09 |
  |    La         13     4498.43     242.25      0.01  -7.464E+01   0.02 |
  |    La         14     4556.36     386.11      0.04  -7.865E+01   0.09 |
  |    La         15     4556.36     386.11      0.04  -7.865E+01   0.09 |
  |    La         16     4599.57     549.75      0.07  -8.011E+01   0.17 |

 *********************** Forces ***********************
 *            Cartesian components (eV/A)             *
 *                   x            y            z      *
 * O         1     -0.00725     -0.00725      0.00922 *
 * O         2      0.00015      0.00397      0.01409 *
 * O         3      0.00397      0.00015      0.01409 *
 * O         4     -0.00500     -0.00500      0.01569 *
 * O         5     -0.00397     -0.00015     -0.01409 *
 * O         6      0.00725      0.00725     -0.00922 *
 * O         7      0.00500      0.00500     -0.01569 *
 * O         8     -0.00015     -0.00397     -0.01409 *
 * O         9     -0.01719     -0.00554     -0.01909 *
 * O        10      0.01096      0.00838     -0.02375 *
 * O        11      0.02924      0.01518     -0.01742 *
 * O        12     -0.01333      0.00097     -0.01596 *
 * O        13     -0.00554     -0.01719     -0.01909 *
 * O        14     -0.02433     -0.02228      0.00899 *
 * O        15      0.01518      0.02924     -0.01742 *
 * O        16     -0.00151     -0.00622     -0.01396 *
 * O        17      0.00043      0.00043     -0.02605 *
 * O        18     -0.00931     -0.00717      0.00952 *
 * O        19      0.01631      0.01631     -0.00265 *
 * O        20     -0.01947     -0.02159      0.00596 *
 * O        21     -0.00838     -0.01096      0.02375 *
 * O        22      0.00554      0.01719      0.01909 *
 * O        23     -0.00097      0.01333      0.01596 *
 * O        24     -0.01518     -0.02924      0.01742 *
 * O        25     -0.02924     -0.01518      0.01742 *
 * O        26      0.00622      0.00151      0.01396 *
 * O        27      0.01719      0.00554      0.01909 *
 * O        28      0.02228      0.02433     -0.00899 *
 * O        29      0.02159      0.01947     -0.00596 *
 * O        30     -0.01631     -0.01631      0.00265 *
 * O        31      0.00717      0.00931     -0.00951 *
 * O        32     -0.00043     -0.00043      0.02605 *
 * O        33     -0.01096     -0.00838      0.02375 *
 * O        34      0.01333     -0.00097      0.01596 *
 * O        35      0.02433      0.02228     -0.00899 *
 * O        36      0.00151      0.00622      0.01396 *
 * O        37      0.00931      0.00717     -0.00952 *
 * O        38      0.01947      0.02159     -0.00596 *
 * O        39      0.00838      0.01096     -0.02375 *
 * O        40      0.00097     -0.01333     -0.01596 *
 * O        41     -0.00622     -0.00151     -0.01396 *
 * O        42     -0.02228     -0.02433      0.00899 *
 * O        43     -0.02159     -0.01947      0.00596 *
 * O        44     -0.00717     -0.00931      0.00952 *
 * O        45      0.02206      0.03412      0.01553 *
 * O        46     -0.01360     -0.01604      0.02099 *
 * O        47      0.01571      0.01571     -0.00852 *
 * O        48      0.03287      0.03287      0.01102 *
 * O        49      0.01604      0.01360     -0.02099 *
 * O        50     -0.03412     -0.02207     -0.01553 *
 * O        51      0.01360      0.01604     -0.02099 *
 * O        52     -0.02207     -0.03412     -0.01553 *
 * O        53     -0.01571     -0.01571      0.00852 *
 * O        54     -0.03287     -0.03287     -0.01102 *
 * O        55     -0.01604     -0.01360      0.02099 *
 * O        56      0.03412      0.02207      0.01553 *
 * Zr        1     -0.00000      0.00000      0.00000 *
 * Zr        2      0.00460     -0.00460      0.00000 *
 * Zr        3     -0.00460      0.00460      0.00000 *
 * Sn        1      0.00641     -0.00666      0.00410 *
[...]
 * La        2      0.00192     -0.00192      0.00000 *
 * La        3      0.00884     -0.01319      0.01053 *
 * La        4      0.01319     -0.00883     -0.01053 *
 * La        5     -0.00192      0.00192      0.00000 *
 * La        6     -0.00884      0.01319     -0.01054 *
 * La        7     -0.01319      0.00883      0.01053 *
 * La        8      0.00000     -0.00000     -0.00000 *
 * La        9     -0.01025     -0.01025      0.01243 *
 * La       10     -0.00260      0.00094      0.00438 *
 * La       11      0.01025      0.01025     -0.01242 *
 * La       12      0.00260     -0.00094     -0.00438 *
 * La       13     -0.00000     -0.00000     -0.00000 *
 * La       14     -0.00094      0.00260     -0.00438 *
 * La       15      0.00094     -0.00260      0.00438 *
 * La       16     -0.00000      0.00000      0.00000 *

 ***************** Stress Tensor *****************
 *          Cartesian components (GPa)           *
 *             x             y             z     *
 *  x     -0.025202     -0.020113     -0.014434  *
 *  y     -0.020113     -0.025202     -0.014434  *
 *  z     -0.014434     -0.014434     -0.024921  *
 *  Pressure:    0.0251                          *

[...]

 Pseudo atomic calculation performed for Sn 4d10 5s2 5p2

[...]

 Pseudo atomic calculation performed for La 5s2 5p6 5d1 6s2

 Converged in 34 iterations to a total energy of -968.0371 eV

Charge spilling parameter for spin component 1 = 0.26%

     Atomic Populations (Mulliken)
Species   Ion     s      p      d      f     Total  Charge (e)
  O        1     1.87   5.00   0.00   0.00   6.87    -0.87
  O        2     1.87   5.00   0.00   0.00   6.87    -0.87
  O        3     1.87   5.00   0.00   0.00   6.87    -0.87
  O        4     1.87   5.00   0.00   0.00   6.87    -0.87
  O        5     1.87   5.00   0.00   0.00   6.87    -0.87
  O        6     1.87   5.00   0.00   0.00   6.87    -0.87
  O        7     1.87   5.00   0.00   0.00   6.87    -0.87
  O        8     1.87   5.00   0.00   0.00   6.87    -0.87
  O        9     1.88   5.03   0.00   0.00   6.91    -0.91
  O       10     1.88   5.03   0.00   0.00   6.91    -0.91
  O       11     1.88   5.03   0.00   0.00   6.91    -0.91
  O       12     1.88   5.03   0.00   0.00   6.91    -0.91
  O       13     1.88   5.03   0.00   0.00   6.91    -0.91
  O       14     1.87   4.99   0.00   0.00   6.86    -0.86
  O       15     1.88   5.03   0.00   0.00   6.91    -0.91
  O       16     1.89   5.03   0.00   0.00   6.91    -0.91
  O       17     1.89   5.03   0.00   0.00   6.91    -0.91
  O       18     1.88   5.03   0.00   0.00   6.91    -0.91
  O       19     1.88   5.03   0.00   0.00   6.91    -0.91
  O       20     1.87   4.99   0.00   0.00   6.86    -0.86
  O       21     1.88   5.03   0.00   0.00   6.91    -0.91
  O       22     1.88   5.03   0.00   0.00   6.91    -0.91
  O       23     1.88   5.03   0.00   0.00   6.91    -0.91
  O       24     1.88   5.03   0.00   0.00   6.91    -0.91
  O       25     1.88   5.03   0.00   0.00   6.91    -0.91
  O       26     1.89   5.03   0.00   0.00   6.91    -0.91
  O       27     1.88   5.03   0.00   0.00   6.91    -0.91
  O       28     1.87   4.99   0.00   0.00   6.86    -0.86
  O       29     1.87   4.99   0.00   0.00   6.86    -0.86
  O       30     1.88   5.03   0.00   0.00   6.91    -0.91
  O       31     1.88   5.03   0.00   0.00   6.91    -0.91
  O       32     1.89   5.03   0.00   0.00   6.91    -0.91
  O       33     1.88   5.03   0.00   0.00   6.91    -0.91
  O       34     1.88   5.03   0.00   0.00   6.91    -0.91
  O       35     1.87   4.99   0.00   0.00   6.86    -0.86
  O       36     1.89   5.03   0.00   0.00   6.91    -0.91
  O       37     1.88   5.03   0.00   0.00   6.91    -0.91
  O       38     1.87   4.99   0.00   0.00   6.86    -0.86
  O       39     1.88   5.03   0.00   0.00   6.91    -0.91
  O       40     1.88   5.03   0.00   0.00   6.91    -0.91
  O       41     1.89   5.03   0.00   0.00   6.91    -0.91
  O       42     1.87   4.99   0.00   0.00   6.86    -0.86
  O       43     1.87   4.99   0.00   0.00   6.86    -0.86
  O       44     1.88   5.03   0.00   0.00   6.91    -0.91
  O       45     1.87   4.99   0.00   0.00   6.86    -0.86
  O       46     1.87   4.99   0.00   0.00   6.86    -0.86
  O       47     1.88   5.03   0.00   0.00   6.91    -0.91
  O       48     1.87   4.99   0.00   0.00   6.86    -0.86
  O       49     1.87   4.99   0.00   0.00   6.86    -0.86
  O       50     1.87   4.99   0.00   0.00   6.86    -0.86
  O       51     1.87   4.99   0.00   0.00   6.86    -0.86
  O       52     1.87   4.99   0.00   0.00   6.86    -0.86
  O       53     1.88   5.03   0.00   0.00   6.92    -0.92
  O       54     1.87   4.99   0.00   0.00   6.86    -0.86
  O       55     1.87   4.99   0.00   0.00   6.86    -0.86
  O       56     1.87   4.99   0.00   0.00   6.86    -0.86
  Zr       1     2.36   6.49   1.92   0.00  10.77     1.23
  Zr       2     2.36   6.49   1.92   0.00  10.77     1.23
  Zr       3     2.36   6.49   1.92   0.00  10.77     1.23
  Sn       1     1.04   1.30  10.00   0.00  12.34     1.66
[...]
  La       2     2.10   6.19   1.20   0.00   9.48     1.52
  La       3     2.04   6.18   1.20   0.00   9.42     1.58
  La       4     2.04   6.18   1.20   0.00   9.42     1.58
  La       5     2.10   6.19   1.20   0.00   9.48     1.52
  La       6     2.04   6.18   1.20   0.00   9.42     1.58
  La       7     2.04   6.18   1.20   0.00   9.42     1.58
  La       8     2.10   6.20   1.19   0.00   9.49     1.51
  La       9     2.11   6.19   1.19   0.00   9.50     1.50
  La      10     2.07   6.19   1.19   0.00   9.46     1.54
  La      11     2.11   6.19   1.19   0.00   9.50     1.50
  La      12     2.07   6.19   1.19   0.00   9.46     1.54
  La      13     2.10   6.20   1.19   0.00   9.49     1.51
  La      14     2.07   6.19   1.19   0.00   9.46     1.54
  La      15     2.07   6.19   1.19   0.00   9.46     1.54
  La      16     2.05   6.18   1.20   0.00   9.43     1.57

            Bond              Population      Length (A)
         O 43 -- Sn 10             0.35        2.10414
         O 20 -- Sn 5              0.35        2.10414
         O 38 -- Sn 5              0.35        2.10414
         O 29 -- Sn 10             0.35        2.10414
         O 52 -- Sn 11             0.34        2.10430
         O 50 -- Sn 9              0.34        2.10430
         O 56 -- Sn 7              0.34        2.10430
         O 45 -- Sn 12             0.34        2.10430
         O 35 -- Sn 12             0.34        2.10700
         O 28 -- Sn 7              0.34        2.10700
         O 42 -- Sn 9              0.34        2.10700
         O 14 -- Sn 11             0.34        2.10700
         O 54 -- Sn 6              0.34        2.10759
         O 48 -- Sn 8              0.34        2.10759
         O 51 -- Sn 3              0.34        2.10786
         O 49 -- Sn 2              0.34        2.10786
         O 55 -- Sn 4              0.34        2.10786
         O 46 -- Sn 1              0.34        2.10786
         O 53 -- Sn 4              0.33        2.10819
         O 53 -- Sn 1              0.33        2.10819
         O 47 -- Sn 3              0.33        2.10819
         O 47 -- Sn 2              0.33        2.10819
         O 27 -- Sn 12             0.34        2.10882
         O 22 -- Sn 7              0.34        2.10882
         O 13 -- Sn 9              0.34        2.10882
         O 9  -- Sn 11             0.34        2.10882
         O 33 -- Sn 1              0.34        2.10888
         O 21 -- Sn 4              0.34        2.10888
         O 39 -- Sn 2              0.34        2.10888
         O 10 -- Sn 3              0.34        2.10888
         O 41 -- Sn 13             0.34        2.11023
         O 16 -- Sn 13             0.34        2.11023
         O 36 -- Sn 13             0.34        2.11023
         O 26 -- Sn 13             0.34        2.11023
         O 32 -- Sn 8              0.34        2.11025
         O 17 -- Sn 6              0.34        2.11025
         O 19 -- Sn 12             0.33        2.11098
         O 19 -- Sn 7              0.33        2.11098
         O 30 -- Sn 11             0.33        2.11098
         O 30 -- Sn 9              0.33        2.11098
         O 39 -- Sn 6              0.33        2.11137
         O 10 -- Sn 6              0.33        2.11137
         O 33 -- Sn 8              0.33        2.11137
         O 21 -- Sn 8              0.33        2.11137
         O 41 -- Sn 2              0.33        2.11219
         O 36 -- Sn 1              0.33        2.11219
         O 26 -- Sn 4              0.33        2.11219
         O 16 -- Sn 3              0.33        2.11219
         O 44 -- Sn 1              0.33        2.11257
         O 37 -- Sn 2              0.33        2.11257
         O 31 -- Sn 3              0.33        2.11257
         O 18 -- Sn 4              0.33        2.11257
         O 13 -- Sn 10             0.33        2.11329
         O 9  -- Sn 5              0.33        2.11329
         O 27 -- Sn 5              0.33        2.11329
         O 22 -- Sn 10             0.33        2.11329
         O 44 -- Sn 11             0.33        2.11357
         O 18 -- Sn 9              0.33        2.11357
         O 37 -- Sn 7              0.33        2.11357
         O 31 -- Sn 12             0.33        2.11357
[...]
         O 45 -- O 50             -0.03        2.81868
         O 48 -- O 52             -0.03        2.82621
         O 48 -- O 50             -0.03        2.82621
         O 54 -- O 56             -0.03        2.82621
         O 45 -- O 54             -0.03        2.82621
         O 35 -- O 43             -0.03        2.82709
         O 20 -- O 28             -0.03        2.82709
         O 38 -- O 42             -0.03        2.82709
         O 14 -- O 29             -0.03        2.82709
         O 51 -- O 55             -0.03        2.82816
         O 46 -- O 49             -0.03        2.82816
         O 38 -- O 55             -0.03        2.82848
         O 29 -- O 46             -0.03        2.82848
         O 43 -- O 51             -0.03        2.82848
         O 20 -- O 49             -0.03        2.82848

Writing analysis data to Zr3_2.castep_bin

Writing model to Zr3_2.check

 A BibTeX formatted list of references used in this run has been written to
 Zr3_2.bib

Initialisation time =     44.18 s
Calculation time    =   9853.56 s
Finalisation time   =     26.56 s
Total time          =   9924.30 s

Overall parallel efficiency rating: Good (79%)

Data was distributed by:-
G-vector (13-way); efficiency rating: Very good (82%)
k-point (14-way); efficiency rating: Excellent (95%)