 Compiled for linux_x86_64_ifort2021 on Fri, 04 Feb 2022 13:31:17 +0000
 from code version
 203e84763863+ Castep161_branch Fri, 04 Mar 2016 19:21:07 +0000
 Compiler: Intel Fortran 2021.5.0; Optimisation: intermediate
 MATHLIBS: Intel MKL(2022.0-Product) (LAPACK version 3.9.0)
 FFT Lib : fftw3 version fftw-3.3.10
 Fundamental constants values: CODATA 2010

 Run started: Wed, 16 Mar 2022 11:39:06 +0000
 |           N   N    M   M    RRRR                |
 |           NN  N    MM MM    R   R               |
 |           N N N    M M M    RRRR                |
 |           N  NN    M   M    R  R                |
 |           N   N    M   M    R   R               |
 | Welcome to Materials Studio CASTEP-NMR          |
 | Authors:                                        |
 | J.R. Yates, C.J. Pickard, F. Mauri              |
 | Contributors:                                   |
 | T.F.G. Green, S.A. Joyce                        |
 | Copyright (c) 2004 - 2015                       |
 | Please cite the appropriate publications in all |
 | work arising from your use of CASTEP NMR.       |
 | For NMR Shielding Tensors cite:                 |
 |    "All-electron magnetic response with         |
 |    pseudopotentials: NMR chemical shifts",      |
 |    C. J. Pickard, F. Mauri;                     |
 |    Physical Review B63 245101 (2001), and       |
 |    "Calculation of NMR Chemical Shifts          |
 |    for extended systems using                   |
 |    Ultrasoft Pseudopotentials",                 |
 |    J. R. Yates, C. J. Pickard and F. Mauri      |
 |    Physical Review B76 024401 (2007)            |
 | For Electric Field Gradients cite:              |
 |   "Accurate First Principles Prediction of 17O  |
 |    NMR Parameters in SiO2: Assignment of the    |
 |    Zeolite Ferrierite Spectrum"                 |
 |    M. Profeta, F. Mauri and C. J. Pickard       |
 |    J. Amer. Chem. Soc. 125 541 (2003)           |
 | For Spin-Spin (J) Couplings cite:               |
 |   "A first principles theory of NMR J-coupling  |
 |   in solid-state systems"                       |
 |   S.A. Joyce, J.R. Yates, C.J. Pickard, F. Mauri|
 |   J. Chem. Phys. 127 204107 (2007)              |
 |   "Relativistic NMR J-coupling with ultrasoft   |
 |   pseudopotentials and the zeroth-order regular |
 |   approximation"                                |
 |   T.F.G. Green and J.R. Yates                   |
 |   J. Chem. Phys. 140 234106 (2014)              |

 Atomic calculation performed for O: 1s2 2s2 2p4

 Converged in 44 iterations to an ae energy of -2040.855 eV

 Atomic calculation performed for O: 1s2 2s2 2p4

 Exceeded max iterations: converged to 0.000000062 eV

   | Pseudopotential Report - Date of generation 16-03-2022   |
   | Element: O Ionic charge:  6.00 Level of theory: PBE      |
   | Atomic Solver: ZORA (scalar)                             |
   |               Reference Electronic Structure             |
   |         Orbital         Occupation         Energy        |
   |            2s              2.000           -0.881        |
   |            2p              4.000           -0.332        |
   |                 Pseudopotential Definition               |
   |        Beta     l      e      Rc     scheme   norm       |
   |          1      0   -0.881   1.100     qc      0         |
   |          2      0    0.250   1.100     qc      0         |
   |          3      1   -0.332   1.100     qc      0         |
   |          4      1    0.250   1.100     qc      0         |
   |         loc     2    0.000   1.100     pn      0         |
   | Augmentation charge Rinner = 0.769                       |
   | Partial core correction Rc = 0.769                       |
   | "2|1.1|15|18|20|20:21(qc=7)"                             |
   |      Author: Chris J. Pickard, Cambridge University      |

 Atomic calculation performed for Zr: 1s2 2s2 2p6 3s2 3p6 3d10 4s2 4p6 4d2 5s2

[...]

 Atomic calculation performed for Zr: 1s2 2s2 2p6 3s2 3p6 3d10 4s2 4p6 4d2 5s2

[...]

 Warning: ion_atom_descreen_psp: negative charge density encountered
   | Pseudopotential Report - Date of generation 16-03-2022   |
   | Element: Zr Ionic charge: 12.00 Level of theory: PBE     |
   | Atomic Solver: ZORA (scalar)                             |
   |               Reference Electronic Structure             |
   |         Orbital         Occupation         Energy        |
   |            4s              2.000           -2.003        |
   |            4p              6.000           -1.193        |
   |            5s              2.000           -0.163        |
   |            4d              2.000           -0.132        |
   |                 Pseudopotential Definition               |
   |        Beta     l      e      Rc     scheme   norm       |
   |          1      0   -2.003   2.105     qc      0         |
   |          2      0   -0.163   2.105     qc      0         |
   |          3      0    0.250   2.105     qc      0         |
   |          4      1   -1.193   2.105     qc      0         |
   |          5      1    0.250   2.105     qc      0         |
   |          6      2   -0.132   2.105     qc      0         |
   |          7      2    0.250   2.105     qc      0         |
   |         loc     3    0.000   2.105     pn      0         |
   | Augmentation charge Rinner = 1.471                       |
   | Partial core correction Rc = 1.471                       |
   | "3|2.1|7|8|9|40U:50:41:42"                               |
   |      Author: Chris J. Pickard, Cambridge University      |

 Atomic calculation performed for Sn:

[...]

 Atomic calculation performed for Sn:

[...]

   | Pseudopotential Report - Date of generation 16-03-2022   |
   | Element: Sn Ionic charge: 14.00 Level of theory: PBE     |
   | Atomic Solver: ZORA (scalar)                             |
   |               Reference Electronic Structure             |
   |         Orbital         Occupation         Energy        |
   |            4d             10.000           -0.950        |
   |            5s              2.000           -0.388        |
   |            5p              2.000           -0.136        |
   |                 Pseudopotential Definition               |
   |        Beta     l      e      Rc     scheme   norm       |
   |          1      0   -0.388   2.199     qc      0         |
   |          2      0    0.250   2.199     qc      0         |
   |          3      1   -0.136   2.199     qc      0         |
   |          4      1    0.250   2.199     qc      0         |
   |          5      2   -0.950   2.199     qc      0         |
   |          6      2    0.250   2.199     qc      0         |
   |         loc     3    0.000   2.199     pn      0         |
   | Augmentation charge Rinner = 1.537                       |
   | Partial core correction Rc = 1.537                       |
   | "3|2.2|7|8|9|50:51:42"                                   |
   |      Author: Chris J. Pickard, Cambridge University      |

 Atomic calculation performed for La:

 Converged in 55 iterations to an ae energy of -230121.495 eV

 Atomic calculation performed for La:

 Exceeded max iterations: converged to 0.000001291 eV

 Warning: ion_atom_descreen_psp: negative charge density encountered
   | Pseudopotential Report - Date of generation 16-03-2022   |
   | Element: La Ionic charge: 11.00 Level of theory: PBE     |
   | Atomic Solver: ZORA (scalar)                             |
   |               Reference Electronic Structure             |
   |         Orbital         Occupation         Energy        |
   |            5s              2.000           -1.430        |
   |            5p              6.000           -0.823        |
   |            6s              2.000           -0.135        |
   |            5d              1.000           -0.114        |
   |                 Pseudopotential Definition               |
   |        Beta     l      e      Rc     scheme   norm       |
   |          1      0   -1.430   2.298     qc      0         |
   |          2      0   -0.135   2.298     qc      0         |
   |          3      0    0.250   2.298     qc      0         |
   |          4      1   -0.823   2.298     qc      0         |
   |          5      1    0.250   2.298     qc      0         |
   |          6      2   -0.114   2.298     qc      0         |
   |          7      2    0.250   2.298     qc      0         |
   |         loc     2    0.000   2.298     pn      0         |
   | Augmentation charge Rinner = 1.606                       |
   | Partial core correction Rc = 1.606                       |
   | "2|2.3|5|6|7|50U:60:51:52(qc=4.5)"                       |
   |      Author: Chris J. Pickard, Cambridge University      |

 Pseudo atomic calculation performed for O 2s2 2p4

 Converged in 39 iterations to a total energy of -432.6554 eV

 Pseudo atomic calculation performed for Zr 4s2 4p6 4d2 5s2

[...]

 Calculation parallelised over 182 processes.
 Data is distributed by G-vector(13-way) and k-point(14-way)

 ************************************ Title ************************************
 nmr testing

 ***************************** General Parameters ******************************

 output verbosity                               : normal  (1)
 write checkpoint data to                       : Zr3_3.check
 type of calculation                            : Magnetic Resonance
 stress calculation                             : on
 density difference calculation                 : off
 electron localisation func (ELF) calculation   : off
 Hirshfeld analysis                             : off
 unlimited duration calculation
 timing information                             : on
 write final potential to formatted file        : off
 write final density to formatted file          : off
 write BibTeX reference list                    : on
 write OTFG pseudopotential files               : on
 checkpoint writing                             : both castep_bin and check files

 output         length unit                     : A
 output           mass unit                     : amu
 output           time unit                     : ps
 output         charge unit                     : e
 output           spin unit                     : hbar/2
 output         energy unit                     : eV
 output          force unit                     : eV/A
 output       velocity unit                     : A/ps
 output       pressure unit                     : GPa
 output     inv_length unit                     : 1/A
 output      frequency unit                     : cm-1
 output force constant unit                     : eV/A**2
 output         volume unit                     : A**3
 output   IR intensity unit                     : (D/A)**2/amu
 output         dipole unit                     : D
 output         efield unit                     : eV/A/e
 output        entropy unit                     : J/mol/K

 wavefunctions paging                           : none
 random number generator seed                   : randomised (113907203)
 data distribution                              : optimal for this architecture
[...]
  |    O          42      -86.90      86.55      0.20  -3.162E+00   0.06 |
  |    O          43      -87.57      87.71      0.14  -3.210E+00   0.06 |
  |    O          44      -15.94     -41.45      0.66   3.836E+00   0.94 |
  |    O          45      -91.25      94.55      0.27  -3.166E+00   0.08 |
  |    O          46      -15.97     -45.98      0.43   3.780E+00   0.98 |
  |    O          47      -86.23      87.19      0.13  -3.218E+00   0.06 |
  |    O          48      -86.27      85.69      0.10  -3.180E+00   0.04 |
  |    O          49      -15.69     -42.96      0.61   3.834E+00   0.95 |
  |    O          50      -88.79      85.34      0.18  -3.170E+00   0.07 |
  |    O          51     -160.36     151.12      0.84   1.075E+00   0.59 |
  |    O          52      -85.02      86.42      0.12  -3.186E+00   0.03 |
  |    O          53      -15.69     -42.96      0.61   3.834E+00   0.95 |
  |    O          54      -88.79      85.34      0.18  -3.170E+00   0.07 |
  |    O          55      -86.23      87.20      0.13  -3.218E+00   0.06 |
  |    O          56      -86.27      85.68      0.10  -3.180E+00   0.04 |
  |    Zr          1     1600.04    -108.35      0.04  -3.444E+01   0.05 |
  |    Zr          2     1613.82    -113.84      0.06  -3.509E+01   0.12 |
  |    Zr          3     1613.82    -113.84      0.06  -3.509E+01   0.12 |
  |    Sn          1     3235.06     -65.32      0.12   1.124E+02   0.06 |
[...]
  |    La          2     4555.61     385.17      0.04  -7.833E+01   0.10 |
  |    La          3     4599.08     527.07      0.08  -8.014E+01   0.09 |
  |    La          4     4605.77     523.48      0.07  -8.128E+01   0.10 |
  |    La          5     4599.08     527.08      0.08  -8.014E+01   0.09 |
  |    La          6     4555.61     385.17      0.04  -7.833E+01   0.10 |
  |    La          7     4605.77     523.48      0.07  -8.128E+01   0.10 |
  |    La          8     4498.65     241.34      0.01  -7.426E+01   0.01 |
  |    La          9     4498.13     242.24      0.02  -7.448E+01   0.02 |
  |    La         10     4548.60     391.36      0.07  -7.733E+01   0.11 |
  |    La         11     4548.60     391.37      0.07  -7.733E+01   0.11 |
  |    La         12     4498.13     242.24      0.02  -7.448E+01   0.02 |
  |    La         13     4550.48     394.82      0.06  -7.709E+01   0.09 |
  |    La         14     4603.81     514.65      0.07  -8.124E+01   0.10 |
  |    La         15     4507.91     234.64      0.01  -7.567E+01   0.00 |
  |    La         16     4550.48     394.82      0.06  -7.709E+01   0.09 |

 *********************** Forces ***********************
 *            Cartesian components (eV/A)             *
 *                   x            y            z      *
 * O         1     -0.00173      0.00154      0.00154 *
 * O         2     -0.00774      0.00897      0.00389 *
 * O         3      0.00164      0.00638      0.00638 *
 * O         4     -0.00774      0.00390      0.00897 *
 * O         5     -0.00122     -0.00331     -0.00331 *
 * O         6      0.00641     -0.00328     -0.00328 *
 * O         7      0.00584     -0.00371     -0.00748 *
 * O         8      0.00583     -0.00748     -0.00371 *
 * O         9      0.00542     -0.00921     -0.00920 *
 * O        10     -0.01897      0.02211     -0.03940 *
 * O        11      0.02302     -0.00227     -0.00227 *
 * O        12     -0.02174     -0.00575     -0.00631 *
 * O        13     -0.00522     -0.02862     -0.00167 *
 * O        14     -0.00016      0.00437     -0.01153 *
 * O        15      0.02082      0.01425     -0.00197 *
 * O        16     -0.01678      0.02088     -0.02837 *
 * O        17     -0.00522     -0.00167     -0.02863 *
 * O        18     -0.00220     -0.01593      0.01072 *
 * O        19      0.02083     -0.00198      0.01424 *
 * O        20      0.01278     -0.00503     -0.00984 *
 * O        21     -0.00273     -0.00703      0.01684 *
 * O        22     -0.00303      0.00937      0.01304 *
 * O        23      0.02213     -0.01477      0.02067 *
 * O        24     -0.01366     -0.01081      0.00066 *
 * O        25     -0.02902     -0.00050     -0.00050 *
 * O        26     -0.00672      0.00823      0.00687 *
 * O        27      0.03396      0.01041      0.01042 *
 * O        28     -0.00585      0.00849      0.00675 *
 * O        29     -0.00133     -0.00369      0.02205 *
 * O        30     -0.01366      0.00065     -0.01081 *
 * O        31      0.02808     -0.00480      0.02720 *
 * O        32     -0.00304      0.01304      0.00937 *
 * O        33     -0.00585      0.00674      0.00849 *
 * O        34     -0.00673      0.00686      0.00822 *
 * O        35      0.02808      0.02720     -0.00480 *
 * O        36     -0.00133      0.02206     -0.00369 *
 * O        37     -0.00274      0.01685     -0.00704 *
 * O        38      0.02213      0.02067     -0.01476 *
 * O        39     -0.00221      0.01072     -0.01594 *
 * O        40      0.01277     -0.00985     -0.00504 *
 * O        41     -0.02174     -0.00630     -0.00574 *
 * O        42     -0.01897     -0.03941      0.02211 *
 * O        43     -0.01678     -0.02837      0.02089 *
 * O        44     -0.00016     -0.01153      0.00436 *
 * O        45      0.03586      0.01857      0.01857 *
 * O        46      0.01584      0.00384      0.00384 *
 * O        47     -0.01071      0.02471     -0.02340 *
 * O        48      0.02857      0.02421      0.01260 *
 * O        49     -0.01440     -0.00145     -0.00352 *
 * O        50     -0.03265     -0.02178     -0.01827 *
 * O        51     -0.01776     -0.00115     -0.00115 *
 * O        52     -0.01276     -0.02388     -0.02389 *
 * O        53     -0.01441     -0.00352     -0.00144 *
 * O        54     -0.03265     -0.01827     -0.02178 *
 * O        55     -0.01071     -0.02340      0.02471 *
 * O        56      0.02857      0.01259      0.02421 *
 * Zr        1     -0.01600      0.00945      0.00945 *
 * Zr        2      0.00090     -0.00917     -0.00990 *
 * Zr        3      0.00089     -0.00990     -0.00916 *
 * Sn        1     -0.00156     -0.00223      0.00138 *
[...]
 * La        2     -0.00647     -0.01212      0.00765 *
 * La        3     -0.00217     -0.00383     -0.00553 *
 * La        4     -0.00665      0.01161      0.01029 *
 * La        5     -0.00217     -0.00553     -0.00383 *
 * La        6     -0.00647      0.00765     -0.01212 *
 * La        7     -0.00665      0.01028      0.01161 *
 * La        8      0.01832      0.01808      0.01808 *
 * La        9      0.00442      0.00222      0.00182 *
 * La       10      0.00619     -0.00525      0.01169 *
 * La       11      0.00618      0.01169     -0.00525 *
 * La       12      0.00442      0.00182      0.00222 *
 * La       13     -0.00699     -0.00628     -0.01305 *
 * La       14      0.00041     -0.00992     -0.00992 *
 * La       15      0.00723     -0.00971     -0.00971 *
 * La       16     -0.00699     -0.01304     -0.00628 *

 ***************** Stress Tensor *****************
 *          Cartesian components (GPa)           *
 *             x             y             z     *
 *  x      0.031032     -0.012792     -0.012792  *
 *  y     -0.012792     -0.044977      0.016267  *
 *  z     -0.012792      0.016267     -0.044978  *
 *  Pressure:    0.0196                          *

[...]

 Pseudo atomic calculation performed for Sn 4d10 5s2 5p2

[...]

 Pseudo atomic calculation performed for La 5s2 5p6 5d1 6s2

 Converged in 34 iterations to a total energy of -968.0371 eV

Charge spilling parameter for spin component 1 = 0.26%

     Atomic Populations (Mulliken)
Species   Ion     s      p      d      f     Total  Charge (e)
  O        1     1.87   5.00   0.00   0.00   6.87    -0.87
  O        2     1.87   5.00   0.00   0.00   6.87    -0.87
  O        3     1.87   5.00   0.00   0.00   6.87    -0.87
  O        4     1.87   5.00   0.00   0.00   6.87    -0.87
  O        5     1.87   5.00   0.00   0.00   6.87    -0.87
  O        6     1.87   5.00   0.00   0.00   6.87    -0.87
  O        7     1.87   5.00   0.00   0.00   6.87    -0.87
  O        8     1.87   5.00   0.00   0.00   6.87    -0.87
  O        9     1.88   5.03   0.00   0.00   6.91    -0.91
  O       10     1.87   4.99   0.00   0.00   6.86    -0.86
  O       11     1.88   5.03   0.00   0.00   6.91    -0.91
  O       12     1.88   5.03   0.00   0.00   6.91    -0.91
  O       13     1.88   5.03   0.00   0.00   6.91    -0.91
  O       14     1.88   5.03   0.00   0.00   6.91    -0.91
  O       15     1.88   5.03   0.00   0.00   6.91    -0.91
  O       16     1.87   4.99   0.00   0.00   6.86    -0.86
  O       17     1.88   5.03   0.00   0.00   6.91    -0.91
  O       18     1.88   5.03   0.00   0.00   6.91    -0.91
  O       19     1.88   5.03   0.00   0.00   6.91    -0.91
  O       20     1.88   5.03   0.00   0.00   6.91    -0.91
  O       21     1.88   5.03   0.00   0.00   6.91    -0.91
  O       22     1.88   5.03   0.00   0.00   6.91    -0.91
  O       23     1.87   4.99   0.00   0.00   6.86    -0.86
  O       24     1.88   5.03   0.00   0.00   6.91    -0.91
  O       25     1.88   5.03   0.00   0.00   6.91    -0.91
  O       26     1.88   5.03   0.00   0.00   6.91    -0.91
  O       27     1.88   5.03   0.00   0.00   6.91    -0.91
  O       28     1.88   5.03   0.00   0.00   6.91    -0.91
  O       29     1.88   5.03   0.00   0.00   6.91    -0.91
  O       30     1.88   5.03   0.00   0.00   6.91    -0.91
  O       31     1.87   4.99   0.00   0.00   6.86    -0.86
  O       32     1.88   5.03   0.00   0.00   6.91    -0.91
  O       33     1.88   5.03   0.00   0.00   6.91    -0.91
  O       34     1.88   5.03   0.00   0.00   6.91    -0.91
  O       35     1.87   4.99   0.00   0.00   6.86    -0.86
  O       36     1.88   5.03   0.00   0.00   6.91    -0.91
  O       37     1.88   5.03   0.00   0.00   6.91    -0.91
  O       38     1.87   4.99   0.00   0.00   6.86    -0.86
  O       39     1.88   5.03   0.00   0.00   6.91    -0.91
  O       40     1.88   5.03   0.00   0.00   6.91    -0.91
  O       41     1.88   5.03   0.00   0.00   6.91    -0.91
  O       42     1.87   4.99   0.00   0.00   6.86    -0.86
  O       43     1.87   4.99   0.00   0.00   6.86    -0.86
  O       44     1.88   5.03   0.00   0.00   6.91    -0.91
  O       45     1.87   4.99   0.00   0.00   6.86    -0.86
  O       46     1.89   5.03   0.00   0.00   6.91    -0.91
  O       47     1.87   4.99   0.00   0.00   6.86    -0.86
  O       48     1.87   4.99   0.00   0.00   6.86    -0.86
  O       49     1.88   5.03   0.00   0.00   6.91    -0.91
  O       50     1.87   4.99   0.00   0.00   6.86    -0.86
  O       51     1.86   4.95   0.00   0.00   6.81    -0.81
  O       52     1.87   4.99   0.00   0.00   6.86    -0.86
  O       53     1.88   5.03   0.00   0.00   6.91    -0.91
  O       54     1.87   4.99   0.00   0.00   6.86    -0.86
  O       55     1.87   4.99   0.00   0.00   6.86    -0.86
  O       56     1.87   4.99   0.00   0.00   6.86    -0.86
  Zr       1     2.36   6.49   1.92   0.00  10.77     1.23
  Zr       2     2.36   6.48   1.92   0.00  10.76     1.24
  Zr       3     2.36   6.48   1.92   0.00  10.76     1.24
  Sn       1     1.04   1.31  10.00   0.00  12.35     1.65
[...]
  La       2     2.09   6.19   1.19   0.00   9.47     1.53
  La       3     2.05   6.18   1.20   0.00   9.42     1.58
  La       4     2.05   6.18   1.20   0.00   9.42     1.58
  La       5     2.05   6.18   1.20   0.00   9.42     1.58
  La       6     2.09   6.19   1.19   0.00   9.47     1.53
  La       7     2.05   6.18   1.20   0.00   9.42     1.58
  La       8     2.11   6.20   1.19   0.00   9.50     1.50
  La       9     2.10   6.20   1.19   0.00   9.50     1.50
  La      10     2.08   6.19   1.19   0.00   9.46     1.54
  La      11     2.08   6.19   1.19   0.00   9.46     1.54
  La      12     2.10   6.20   1.19   0.00   9.50     1.50
  La      13     2.08   6.19   1.20   0.00   9.46     1.54
  La      14     2.05   6.18   1.20   0.00   9.43     1.57
  La      15     2.10   6.21   1.19   0.00   9.50     1.50
  La      16     2.08   6.19   1.20   0.00   9.46     1.54

            Bond              Population      Length (A)
         O 42 -- Sn 9              0.34        2.10328
         O 10 -- Sn 6              0.34        2.10328
         O 9  -- Sn 11             0.34        2.10342
         O 45 -- Sn 12             0.34        2.10408
         O 55 -- Sn 4              0.34        2.10410
         O 47 -- Sn 2              0.34        2.10410
         O 16 -- Sn 13             0.34        2.10518
         O 43 -- Sn 10             0.34        2.10518
         O 52 -- Sn 11             0.34        2.10518
         O 54 -- Sn 6              0.34        2.10595
         O 50 -- Sn 9              0.34        2.10595
         O 48 -- Sn 8              0.34        2.10638
         O 56 -- Sn 7              0.34        2.10638
         O 37 -- Sn 2              0.34        2.10666
         O 21 -- Sn 4              0.34        2.10666
         O 35 -- Sn 12             0.34        2.10671
         O 31 -- Sn 12             0.34        2.10671
         O 32 -- Sn 8              0.34        2.10764
         O 22 -- Sn 7              0.34        2.10764
         O 40 -- Sn 5              0.34        2.10850
         O 20 -- Sn 5              0.34        2.10850
         O 38 -- Sn 5              0.34        2.10863
         O 23 -- Sn 5              0.34        2.10863
         O 34 -- Sn 10             0.33        2.10917
         O 26 -- Sn 13             0.33        2.10917
         O 9  -- Sn 5              0.33        2.10944
         O 36 -- Sn 13             0.34        2.10982
         O 29 -- Sn 10             0.34        2.10982
         O 34 -- Sn 2              0.33        2.11018
         O 26 -- Sn 4              0.33        2.11018
         O 19 -- Sn 12             0.34        2.11028
         O 15 -- Sn 12             0.34        2.11028
         O 44 -- Sn 1              0.34        2.11042
         O 14 -- Sn 3              0.34        2.11042
         O 53 -- Sn 1              0.34        2.11089
         O 49 -- Sn 3              0.34        2.11089
         O 37 -- Sn 7              0.33        2.11101
         O 21 -- Sn 8              0.33        2.11101
         O 40 -- Sn 1              0.33        2.11112
         O 20 -- Sn 3              0.33        2.11112
         O 28 -- Sn 3              0.34        2.11156
         O 33 -- Sn 1              0.34        2.11156
         O 25 -- Sn 6              0.34        2.11181
         O 25 -- Sn 9              0.34        2.11181
         O 51 -- Zr 3              0.41        2.11202
         O 51 -- Zr 2              0.41        2.11202
         O 19 -- Sn 7              0.33        2.11241
         O 15 -- Sn 8              0.33        2.11241
         O 32 -- Sn 13             0.33        2.11243
         O 22 -- Sn 10             0.33        2.11243
         O 17 -- Sn 6              0.34        2.11273
         O 13 -- Sn 9              0.34        2.11273
         O 28 -- Sn 7              0.33        2.11280
         O 33 -- Sn 8              0.33        2.11280
         O 53 -- Sn 4              0.33        2.11291
         O 49 -- Sn 2              0.33        2.11291
         O 44 -- Sn 11             0.33        2.11299
         O 14 -- Sn 11             0.33        2.11299
         O 36 -- Sn 1              0.33        2.11400
         O 29 -- Sn 3              0.33        2.11400
[...]
         O 10 -- O 31             -0.03        2.82093
         O 43 -- O 51             -0.03        2.82129
         O 16 -- O 51             -0.03        2.82129
         O 51 -- O 55             -0.03        2.82154
         O 47 -- O 51             -0.03        2.82154
         O 35 -- O 43             -0.03        2.82746
         O 16 -- O 31             -0.03        2.82746
         O 54 -- O 56             -0.03        2.82812
         O 48 -- O 50             -0.03        2.82812
         O 52 -- O 56             -0.03        2.82828
         O 48 -- O 52             -0.03        2.82828
         O 10 -- O 23             -0.03        2.82867
         O 38 -- O 42             -0.03        2.82867
         O 38 -- O 55             -0.03        2.82875
         O 23 -- O 47             -0.03        2.82875

Writing analysis data to Zr3_3.castep_bin

Writing model to Zr3_3.check

 A BibTeX formatted list of references used in this run has been written to
 Zr3_3.bib

Initialisation time =     43.90 s
Calculation time    =   9937.24 s
Finalisation time   =    105.98 s
Total time          =  10087.13 s

Overall parallel efficiency rating: Good (77%)

Data was distributed by:-
G-vector (13-way); efficiency rating: Very good (82%)
k-point (14-way); efficiency rating: Excellent (93%)