 Compiled for linux_x86_64_ifort2021 on Fri, 04 Feb 2022 13:31:17 +0000
 from code version
 203e84763863+ Castep161_branch Fri, 04 Mar 2016 19:21:07 +0000
 Compiler: Intel Fortran 2021.5.0; Optimisation: intermediate
 MATHLIBS: Intel MKL(2022.0-Product) (LAPACK version 3.9.0)
 FFT Lib : fftw3 version fftw-3.3.10
 Fundamental constants values: CODATA 2010

 Run started: Wed, 16 Mar 2022 14:06:07 +0000
 |           N   N    M   M    RRRR                |
 |           NN  N    MM MM    R   R               |
 |           N N N    M M M    RRRR                |
 |           N  NN    M   M    R  R                |
 |           N   N    M   M    R   R               |
 | Welcome to Materials Studio CASTEP-NMR          |
 | Authors:                                        |
 | J.R. Yates, C.J. Pickard, F. Mauri              |
 | Contributors:                                   |
 | T.F.G. Green, S.A. Joyce                        |
 | Copyright (c) 2004 - 2015                       |
 | Please cite the appropriate publications in all |
 | work arising from your use of CASTEP NMR.       |
 | For NMR Shielding Tensors cite:                 |
 |    "All-electron magnetic response with         |
 |    pseudopotentials: NMR chemical shifts",      |
 |    C. J. Pickard, F. Mauri;                     |
 |    Physical Review B63 245101 (2001), and       |
 |    "Calculation of NMR Chemical Shifts          |
 |    for extended systems using                   |
 |    Ultrasoft Pseudopotentials",                 |
 |    J. R. Yates, C. J. Pickard and F. Mauri      |
 |    Physical Review B76 024401 (2007)            |
 | For Electric Field Gradients cite:              |
 |   "Accurate First Principles Prediction of 17O  |
 |    NMR Parameters in SiO2: Assignment of the    |
 |    Zeolite Ferrierite Spectrum"                 |
 |    M. Profeta, F. Mauri and C. J. Pickard       |
 |    J. Amer. Chem. Soc. 125 541 (2003)           |
 | For Spin-Spin (J) Couplings cite:               |
 |   "A first principles theory of NMR J-coupling  |
 |   in solid-state systems"                       |
 |   S.A. Joyce, J.R. Yates, C.J. Pickard, F. Mauri|
 |   J. Chem. Phys. 127 204107 (2007)              |
 |   "Relativistic NMR J-coupling with ultrasoft   |
 |   pseudopotentials and the zeroth-order regular |
 |   approximation"                                |
 |   T.F.G. Green and J.R. Yates                   |
 |   J. Chem. Phys. 140 234106 (2014)              |

 Atomic calculation performed for O: 1s2 2s2 2p4

 Converged in 44 iterations to an ae energy of -2040.855 eV

 Atomic calculation performed for O: 1s2 2s2 2p4

 Exceeded max iterations: converged to 0.000000062 eV

   | Pseudopotential Report - Date of generation 16-03-2022   |
   | Element: O Ionic charge:  6.00 Level of theory: PBE      |
   | Atomic Solver: ZORA (scalar)                             |
   |               Reference Electronic Structure             |
   |         Orbital         Occupation         Energy        |
   |            2s              2.000           -0.881        |
   |            2p              4.000           -0.332        |
   |                 Pseudopotential Definition               |
   |        Beta     l      e      Rc     scheme   norm       |
   |          1      0   -0.881   1.100     qc      0         |
   |          2      0    0.250   1.100     qc      0         |
   |          3      1   -0.332   1.100     qc      0         |
   |          4      1    0.250   1.100     qc      0         |
   |         loc     2    0.000   1.100     pn      0         |
   | Augmentation charge Rinner = 0.769                       |
   | Partial core correction Rc = 0.769                       |
   | "2|1.1|15|18|20|20:21(qc=7)"                             |
   |      Author: Chris J. Pickard, Cambridge University      |

 Atomic calculation performed for Zr: 1s2 2s2 2p6 3s2 3p6 3d10 4s2 4p6 4d2 5s2

[...]

 Atomic calculation performed for Zr: 1s2 2s2 2p6 3s2 3p6 3d10 4s2 4p6 4d2 5s2

[...]

 Warning: ion_atom_descreen_psp: negative charge density encountered
   | Pseudopotential Report - Date of generation 16-03-2022   |
   | Element: Zr Ionic charge: 12.00 Level of theory: PBE     |
   | Atomic Solver: ZORA (scalar)                             |
   |               Reference Electronic Structure             |
   |         Orbital         Occupation         Energy        |
   |            4s              2.000           -2.003        |
   |            4p              6.000           -1.193        |
   |            5s              2.000           -0.163        |
   |            4d              2.000           -0.132        |
   |                 Pseudopotential Definition               |
   |        Beta     l      e      Rc     scheme   norm       |
   |          1      0   -2.003   2.105     qc      0         |
   |          2      0   -0.163   2.105     qc      0         |
   |          3      0    0.250   2.105     qc      0         |
   |          4      1   -1.193   2.105     qc      0         |
   |          5      1    0.250   2.105     qc      0         |
   |          6      2   -0.132   2.105     qc      0         |
   |          7      2    0.250   2.105     qc      0         |
   |         loc     3    0.000   2.105     pn      0         |
   | Augmentation charge Rinner = 1.471                       |
   | Partial core correction Rc = 1.471                       |
   | "3|2.1|7|8|9|40U:50:41:42"                               |
   |      Author: Chris J. Pickard, Cambridge University      |

 Atomic calculation performed for Sn:

[...]

 Atomic calculation performed for Sn:

[...]

   | Pseudopotential Report - Date of generation 16-03-2022   |
   | Element: Sn Ionic charge: 14.00 Level of theory: PBE     |
   | Atomic Solver: ZORA (scalar)                             |
   |               Reference Electronic Structure             |
   |         Orbital         Occupation         Energy        |
   |            4d             10.000           -0.950        |
   |            5s              2.000           -0.388        |
   |            5p              2.000           -0.136        |
   |                 Pseudopotential Definition               |
   |        Beta     l      e      Rc     scheme   norm       |
   |          1      0   -0.388   2.199     qc      0         |
   |          2      0    0.250   2.199     qc      0         |
   |          3      1   -0.136   2.199     qc      0         |
   |          4      1    0.250   2.199     qc      0         |
   |          5      2   -0.950   2.199     qc      0         |
   |          6      2    0.250   2.199     qc      0         |
   |         loc     3    0.000   2.199     pn      0         |
   | Augmentation charge Rinner = 1.537                       |
   | Partial core correction Rc = 1.537                       |
   | "3|2.2|7|8|9|50:51:42"                                   |
   |      Author: Chris J. Pickard, Cambridge University      |

 Atomic calculation performed for La:

 Converged in 55 iterations to an ae energy of -230121.495 eV

 Atomic calculation performed for La:

 Exceeded max iterations: converged to 0.000001291 eV

 Warning: ion_atom_descreen_psp: negative charge density encountered
   | Pseudopotential Report - Date of generation 16-03-2022   |
   | Element: La Ionic charge: 11.00 Level of theory: PBE     |
   | Atomic Solver: ZORA (scalar)                             |
   |               Reference Electronic Structure             |
   |         Orbital         Occupation         Energy        |
   |            5s              2.000           -1.430        |
   |            5p              6.000           -0.823        |
   |            6s              2.000           -0.135        |
   |            5d              1.000           -0.114        |
   |                 Pseudopotential Definition               |
   |        Beta     l      e      Rc     scheme   norm       |
   |          1      0   -1.430   2.298     qc      0         |
   |          2      0   -0.135   2.298     qc      0         |
   |          3      0    0.250   2.298     qc      0         |
   |          4      1   -0.823   2.298     qc      0         |
   |          5      1    0.250   2.298     qc      0         |
   |          6      2   -0.114   2.298     qc      0         |
   |          7      2    0.250   2.298     qc      0         |
   |         loc     2    0.000   2.298     pn      0         |
   | Augmentation charge Rinner = 1.606                       |
   | Partial core correction Rc = 1.606                       |
   | "2|2.3|5|6|7|50U:60:51:52(qc=4.5)"                       |
   |      Author: Chris J. Pickard, Cambridge University      |

 Pseudo atomic calculation performed for O 2s2 2p4

 Converged in 39 iterations to a total energy of -432.6554 eV

 Pseudo atomic calculation performed for Zr 4s2 4p6 4d2 5s2

[...]

 Calculation parallelised over 182 processes.
 Data is distributed by G-vector(13-way) and k-point(14-way)

 ************************************ Title ************************************
 nmr testing

 ***************************** General Parameters ******************************

 output verbosity                               : normal  (1)
 write checkpoint data to                       : Zr3_4.check
 type of calculation                            : Magnetic Resonance
 stress calculation                             : on
 density difference calculation                 : off
 electron localisation func (ELF) calculation   : off
 Hirshfeld analysis                             : off
 unlimited duration calculation
 timing information                             : on
 write final potential to formatted file        : off
 write final density to formatted file          : off
 write BibTeX reference list                    : on
 write OTFG pseudopotential files               : on
 checkpoint writing                             : both castep_bin and check files

 output         length unit                     : A
 output           mass unit                     : amu
 output           time unit                     : ps
 output         charge unit                     : e
 output           spin unit                     : hbar/2
 output         energy unit                     : eV
 output          force unit                     : eV/A
 output       velocity unit                     : A/ps
 output       pressure unit                     : GPa
 output     inv_length unit                     : 1/A
 output      frequency unit                     : cm-1
 output force constant unit                     : eV/A**2
 output         volume unit                     : A**3
 output   IR intensity unit                     : (D/A)**2/amu
 output         dipole unit                     : D
 output         efield unit                     : eV/A/e
 output        entropy unit                     : J/mol/K

 wavefunctions paging                           : none
 random number generator seed                   : randomised (140607570)
 data distribution                              : optimal for this architecture
[...]
  |    O          42      -87.84      86.66      0.06  -3.215E+00   0.08 |
  |    O          43      -86.80      85.91      0.11  -3.153E+00   0.05 |
  |    O          44       -5.33      55.96      0.93   3.835E+00   0.95 |
  |    O          45      -86.20      86.31      0.20  -3.195E+00   0.06 |
  |    O          46       -5.95      58.10      0.96   3.771E+00   1.00 |
  |    O          47      -18.39      37.14      0.81   3.894E+00   0.89 |
  |    O          48      -89.04      86.72      0.11  -3.158E+00   0.04 |
  |    O          49      -16.92     -41.06      0.65   3.838E+00   0.94 |
  |    O          50      -88.57      86.90      0.20  -3.161E+00   0.06 |
  |    O          51      -82.42      86.99      0.16  -3.175E+00   0.04 |
  |    O          52      -84.52      86.36      0.13  -3.200E+00   0.03 |
  |    O          53      -16.97     -36.59      0.95   3.903E+00   0.90 |
  |    O          54      -88.91      87.64      0.08  -3.159E+00   0.04 |
  |    O          55      -86.21      86.28      0.12  -3.223E+00   0.06 |
  |    O          56      -87.46      88.58      0.11  -3.160E+00   0.03 |
  |    Zr          1     1600.03    -106.66      0.04  -3.393E+01   0.03 |
  |    Zr          2     1613.90    -115.11      0.09  -3.503E+01   0.06 |
  |    Zr          3     1614.97    -111.55      0.07  -3.445E+01   0.10 |
  |    Sn          1     3243.92     -65.24      0.38   1.167E+02   0.08 |
[...]
  |    La          2     4556.43     386.09      0.05  -7.834E+01   0.08 |
  |    La          3     4606.29     525.55      0.06  -8.154E+01   0.09 |
  |    La          4     4652.11     659.14      0.08  -8.416E+01   0.15 |
  |    La          5     4549.24     392.38      0.06  -7.727E+01   0.07 |
  |    La          6     4556.83     385.94      0.04  -7.863E+01   0.09 |
  |    La          7     4606.26     545.48      0.05  -8.148E+01   0.19 |
  |    La          8     4498.48     238.71      0.01  -7.355E+01   0.02 |
  |    La          9     4549.38     392.39      0.06  -7.736E+01   0.09 |
  |    La         10     4604.08     514.42      0.07  -8.138E+01   0.09 |
  |    La         11     4549.41     392.53      0.06  -7.736E+01   0.09 |
  |    La         12     4558.40     390.83      0.04  -7.873E+01   0.09 |
  |    La         13     4489.55     245.94      0.01  -7.245E+01   0.03 |
  |    La         14     4557.93     389.55      0.05  -7.869E+01   0.11 |
  |    La         15     4508.20     235.10      0.02  -7.584E+01   0.02 |
  |    La         16     4542.35     395.27      0.08  -7.531E+01   0.10 |

 *********************** Forces ***********************
 *            Cartesian components (eV/A)             *
 *                   x            y            z      *
 * O         1      0.00120     -0.00237      0.00166 *
 * O         2     -0.00060      0.00468      0.01012 *
 * O         3      0.00363     -0.00029      0.01059 *
 * O         4     -0.00217      0.00191      0.00663 *
 * O         5     -0.00399      0.00073     -0.00307 *
 * O         6      0.00124      0.00085     -0.00572 *
 * O         7      0.00078      0.00041     -0.01089 *
 * O         8      0.00120     -0.00331     -0.00550 *
 * O         9      0.01887      0.01419     -0.00158 *
 * O        10     -0.00373     -0.00372     -0.02420 *
 * O        11      0.02318      0.00434     -0.00475 *
 * O        12     -0.02464     -0.00957     -0.00922 *
 * O        13     -0.01423     -0.02776     -0.01174 *
 * O        14      0.00003      0.01205     -0.01107 *
 * O        15      0.00387      0.01507     -0.01642 *
 * O        16     -0.00646     -0.00865     -0.01963 *
 * O        17     -0.00970     -0.00342     -0.02001 *
 * O        18     -0.00860     -0.00889      0.00896 *
 * O        19      0.00238      0.00095     -0.00427 *
 * O        20      0.02568      0.02215      0.00666 *
 * O        21     -0.00170     -0.00678      0.01551 *
 * O        22      0.00960      0.01032      0.01903 *
 * O        23     -0.01505     -0.01525     -0.01726 *
 * O        24      0.00387     -0.00904      0.01355 *
 * O        25     -0.02580     -0.00884      0.00797 *
 * O        26      0.00429      0.00101      0.01750 *
 * O        27     -0.01076     -0.00982     -0.01593 *
 * O        28      0.00709      0.00667      0.01963 *
 * O        29      0.00498      0.00291      0.02326 *
 * O        30     -0.00077     -0.00137      0.00218 *
 * O        31      0.00783      0.00804     -0.01242 *
 * O        32      0.00693      0.00712      0.02403 *
 * O        33      0.00945      0.01091      0.02246 *
 * O        34      0.00653      0.00519      0.01737 *
 * O        35      0.02752      0.02597     -0.01450 *
 * O        36      0.01239      0.02048      0.01032 *
 * O        37      0.00720      0.00785     -0.00023 *
 * O        38      0.00069      0.00355      0.00598 *
 * O        39     -0.00225      0.00437     -0.01335 *
 * O        40      0.01881      0.02354     -0.00094 *
 * O        41     -0.01727     -0.00816     -0.00798 *
 * O        42     -0.03320     -0.03255     -0.00262 *
 * O        43     -0.03217     -0.03033      0.00695 *
 * O        44     -0.00595     -0.00515      0.00988 *
 * O        45      0.01982      0.02054      0.00236 *
 * O        46      0.02335      0.00794     -0.00354 *
 * O        47      0.00026      0.00138     -0.01119 *
 * O        48      0.02375      0.01598      0.01519 *
 * O        49     -0.00155     -0.00391      0.01181 *
 * O        50     -0.02546     -0.02600     -0.00317 *
 * O        51      0.01693      0.01871     -0.02475 *
 * O        52     -0.00983     -0.01461     -0.01441 *
 * O        53     -0.00062      0.00016      0.00913 *
 * O        54     -0.02001     -0.01910     -0.01222 *
 * O        55     -0.02342     -0.02441      0.00757 *
 * O        56      0.01939      0.01416      0.01579 *
 * Zr        1     -0.00763      0.00687     -0.00225 *
 * Zr        2      0.00083     -0.00760      0.02110 *
 * Zr        3     -0.01428     -0.01408      0.02343 *
 * Sn        1     -0.00545     -0.01644     -0.00189 *
[...]
 * La        2     -0.00340     -0.01174      0.00935 *
 * La        3      0.00349     -0.01701      0.00607 *
 * La        4     -0.00000      0.00377      0.00332 *
 * La        5      0.00737      0.01110     -0.01315 *
 * La        6     -0.01303      0.01766     -0.02191 *
 * La        7     -0.00554      0.01370      0.00824 *
 * La        8      0.00789      0.00858      0.00946 *
 * La        9     -0.00230     -0.01257      0.01701 *
 * La       10      0.00809     -0.01063      0.01429 *
 * La       11      0.00314      0.01267     -0.00475 *
 * La       12      0.01033      0.00544     -0.00417 *
 * La       13     -0.00903     -0.00849     -0.01322 *
 * La       14     -0.00660     -0.00074     -0.00535 *
 * La       15      0.00661     -0.00966     -0.00983 *
 * La       16      0.00456     -0.00383      0.00573 *

 ***************** Stress Tensor *****************
 *          Cartesian components (GPa)           *
 *             x             y             z     *
 *  x      0.030326      0.006998      0.016067  *
 *  y      0.006998      0.025149      0.016340  *
 *  z      0.016067      0.016340      0.081098  *
 *  Pressure:   -0.0455                          *

[...]

 Pseudo atomic calculation performed for Sn 4d10 5s2 5p2

[...]

 Pseudo atomic calculation performed for La 5s2 5p6 5d1 6s2

 Converged in 34 iterations to a total energy of -968.0371 eV

Charge spilling parameter for spin component 1 = 0.26%

     Atomic Populations (Mulliken)
Species   Ion     s      p      d      f     Total  Charge (e)
  O        1     1.87   5.00   0.00   0.00   6.87    -0.87
  O        2     1.87   5.00   0.00   0.00   6.87    -0.87
  O        3     1.87   5.00   0.00   0.00   6.87    -0.87
  O        4     1.87   5.00   0.00   0.00   6.87    -0.87
  O        5     1.87   5.00   0.00   0.00   6.87    -0.87
  O        6     1.87   5.00   0.00   0.00   6.87    -0.87
  O        7     1.87   5.00   0.00   0.00   6.87    -0.87
  O        8     1.87   5.00   0.00   0.00   6.87    -0.87
  O        9     1.87   4.99   0.00   0.00   6.86    -0.86
  O       10     1.88   5.03   0.00   0.00   6.91    -0.91
  O       11     1.88   5.03   0.00   0.00   6.91    -0.91
  O       12     1.88   5.03   0.00   0.00   6.91    -0.91
  O       13     1.88   5.03   0.00   0.00   6.91    -0.91
  O       14     1.88   5.03   0.00   0.00   6.91    -0.91
  O       15     1.88   5.03   0.00   0.00   6.91    -0.91
  O       16     1.88   5.03   0.00   0.00   6.91    -0.91
  O       17     1.88   5.03   0.00   0.00   6.91    -0.91
  O       18     1.88   5.03   0.00   0.00   6.91    -0.91
  O       19     1.88   5.03   0.00   0.00   6.91    -0.91
  O       20     1.87   4.99   0.00   0.00   6.86    -0.86
  O       21     1.88   5.03   0.00   0.00   6.91    -0.91
  O       22     1.88   5.03   0.00   0.00   6.91    -0.91
  O       23     1.87   4.99   0.00   0.00   6.86    -0.86
  O       24     1.88   5.03   0.00   0.00   6.91    -0.91
  O       25     1.88   5.03   0.00   0.00   6.91    -0.91
  O       26     1.89   5.03   0.00   0.00   6.91    -0.91
  O       27     1.87   4.99   0.00   0.00   6.86    -0.86
  O       28     1.88   5.03   0.00   0.00   6.91    -0.91
  O       29     1.88   5.03   0.00   0.00   6.91    -0.91
  O       30     1.88   5.03   0.00   0.00   6.91    -0.91
  O       31     1.88   5.03   0.00   0.00   6.91    -0.91
  O       32     1.88   5.03   0.00   0.00   6.91    -0.91
  O       33     1.88   5.03   0.00   0.00   6.91    -0.91
  O       34     1.89   5.03   0.00   0.00   6.91    -0.91
  O       35     1.87   4.99   0.00   0.00   6.86    -0.86
  O       36     1.88   5.03   0.00   0.00   6.91    -0.91
  O       37     1.88   5.03   0.00   0.00   6.91    -0.91
  O       38     1.86   4.95   0.00   0.00   6.81    -0.81
  O       39     1.88   5.03   0.00   0.00   6.91    -0.91
  O       40     1.87   4.99   0.00   0.00   6.86    -0.86
  O       41     1.89   5.03   0.00   0.00   6.91    -0.91
  O       42     1.87   4.99   0.00   0.00   6.86    -0.86
  O       43     1.87   4.99   0.00   0.00   6.86    -0.86
  O       44     1.88   5.03   0.00   0.00   6.91    -0.91
  O       45     1.87   4.99   0.00   0.00   6.86    -0.86
  O       46     1.88   5.03   0.00   0.00   6.91    -0.91
  O       47     1.88   5.03   0.00   0.00   6.91    -0.91
  O       48     1.87   4.99   0.00   0.00   6.86    -0.86
  O       49     1.88   5.03   0.00   0.00   6.91    -0.91
  O       50     1.87   4.99   0.00   0.00   6.86    -0.86
  O       51     1.87   4.99   0.00   0.00   6.86    -0.86
  O       52     1.87   4.99   0.00   0.00   6.86    -0.86
  O       53     1.88   5.03   0.00   0.00   6.91    -0.91
  O       54     1.87   4.99   0.00   0.00   6.86    -0.86
  O       55     1.87   4.99   0.00   0.00   6.86    -0.86
  O       56     1.87   4.99   0.00   0.00   6.86    -0.86
  Zr       1     2.36   6.49   1.92   0.00  10.77     1.23
  Zr       2     2.36   6.48   1.92   0.00  10.76     1.24
  Zr       3     2.36   6.48   1.92   0.00  10.76     1.24
  Sn       1     1.04   1.30  10.00   0.00  12.34     1.66
[...]
  La       2     2.09   6.19   1.19   0.00   9.47     1.53
  La       3     2.04   6.18   1.20   0.00   9.42     1.58
  La       4     2.03   6.17   1.20   0.00   9.39     1.61
  La       5     2.08   6.19   1.20   0.00   9.46     1.54
  La       6     2.07   6.19   1.19   0.00   9.46     1.54
  La       7     2.05   6.18   1.20   0.00   9.42     1.58
  La       8     2.12   6.20   1.19   0.00   9.51     1.49
  La       9     2.08   6.19   1.19   0.00   9.46     1.54
  La      10     2.05   6.18   1.20   0.00   9.43     1.57
  La      11     2.08   6.19   1.19   0.00   9.46     1.54
  La      12     2.07   6.19   1.19   0.00   9.46     1.54
  La      13     2.11   6.19   1.19   0.00   9.50     1.50
  La      14     2.07   6.19   1.19   0.00   9.46     1.54
  La      15     2.10   6.21   1.19   0.00   9.50     1.50
  La      16     2.09   6.18   1.20   0.00   9.46     1.54

            Bond              Population      Length (A)
         O 9  -- Sn 11             0.35        2.10218
         O 45 -- Sn 12             0.34        2.10245
         O 42 -- Sn 9              0.34        2.10348
         O 52 -- Sn 11             0.35        2.10350
         O 55 -- Sn 5              0.34        2.10416
         O 27 -- Sn 12             0.35        2.10525
         O 10 -- Sn 4              0.34        2.10536
         O 43 -- Sn 10             0.34        2.10567
         O 47 -- Sn 2              0.34        2.10648
         O 35 -- Sn 12             0.34        2.10689
         O 40 -- Sn 1              0.34        2.10694
         O 21 -- Sn 5              0.34        2.10704
         O 20 -- Sn 3              0.34        2.10716
         O 50 -- Sn 9              0.34        2.10746
         O 51 -- Sn 4              0.34        2.10763
         O 10 -- Sn 6              0.33        2.10806
         O 56 -- Sn 7              0.34        2.10836
         O 53 -- Sn 1              0.33        2.10852
         O 53 -- Sn 5              0.33        2.10856
         O 54 -- Sn 6              0.34        2.10888
         O 22 -- Sn 7              0.34        2.10917
         O 48 -- Sn 8              0.34        2.10919
         O 28 -- Sn 3              0.33        2.10921
         O 33 -- Sn 8              0.33        2.10932
         O 19 -- Sn 7              0.34        2.10938
         O 47 -- Sn 4              0.33        2.10977
         O 37 -- Sn 2              0.34        2.10979
         O 28 -- Sn 7              0.33        2.11011
         O 16 -- Sn 13             0.34        2.11025
         O 16 -- Sn 4              0.34        2.11026
         O 29 -- Sn 10             0.34        2.11027
         O 15 -- Sn 12             0.34        2.11029
         O 33 -- Sn 1              0.33        2.11031
         O 23 -- Sn 4              0.34        2.11051
         O 21 -- Sn 8              0.33        2.11087
         O 37 -- Sn 7              0.33        2.11117
         O 30 -- Sn 9              0.33        2.11123
         O 30 -- Sn 11             0.33        2.11132
         O 26 -- Sn 13             0.34        2.11147
         O 49 -- Sn 2              0.33        2.11161
         O 22 -- Sn 10             0.33        2.11168
         O 39 -- Sn 6              0.33        2.11178
         O 39 -- Sn 2              0.33        2.11185
         O 29 -- Sn 3              0.34        2.11194
         O 49 -- Sn 3              0.33        2.11197
         O 32 -- Sn 8              0.34        2.11200
         O 36 -- Sn 1              0.34        2.11205
         O 25 -- Sn 9              0.34        2.11205
         O 19 -- Sn 12             0.33        2.11232
         O 17 -- Sn 6              0.34        2.11233
         O 15 -- Sn 8              0.33        2.11239
         O 44 -- Sn 1              0.33        2.11243
         O 18 -- Sn 5              0.33        2.11253
         O 34 -- Sn 10             0.33        2.11269
         O 36 -- Sn 13             0.33        2.11307
         O 38 -- Zr 3              0.41        2.11352
         O 24 -- Sn 6              0.34        2.11356
         O 14 -- Sn 3              0.34        2.11356
         O 18 -- Sn 9              0.33        2.11367
         O 44 -- Sn 11             0.33        2.11373
[...]
         O 38 -- O 55             -0.03        2.82200
         O 38 -- O 40             -0.03        2.82232
         O 9  -- O 38             -0.03        2.82298
         O 48 -- O 50             -0.03        2.82662
         O 45 -- O 54             -0.03        2.82744
         O 54 -- O 56             -0.03        2.82825
         O 48 -- O 52             -0.03        2.82893
         O 51 -- O 55             -0.03        2.82897
         O 35 -- O 43             -0.03        2.82942
         O 9  -- O 23             -0.03        2.82970
         O 27 -- O 40             -0.03        2.82970
         O 52 -- O 56             -0.03        2.83029
         O 43 -- O 51             -0.03        2.83068
         O 20 -- O 23             -0.03        2.83083
         O 20 -- O 27             -0.03        2.83144

Writing analysis data to Zr3_4.castep_bin

Writing model to Zr3_4.check

 A BibTeX formatted list of references used in this run has been written to
 Zr3_4.bib

Initialisation time =     44.64 s
Calculation time    =   9779.42 s
Finalisation time   =     30.34 s
Total time          =   9854.39 s

Overall parallel efficiency rating: Very good (80%)

Data was distributed by:-
G-vector (13-way); efficiency rating: Very good (82%)
k-point (14-way); efficiency rating: Excellent (96%)