 Compiled for linux_x86_64_ifort2021 on Fri, 04 Feb 2022 13:31:17 +0000
 from code version
 203e84763863+ Castep161_branch Fri, 04 Mar 2016 19:21:07 +0000
 Compiler: Intel Fortran 2021.5.0; Optimisation: intermediate
 MATHLIBS: Intel MKL(2022.0-Product) (LAPACK version 3.9.0)
 FFT Lib : fftw3 version fftw-3.3.10
 Fundamental constants values: CODATA 2010

 Run started: Wed, 16 Mar 2022 17:15:18 +0000
 |           N   N    M   M    RRRR                |
 |           NN  N    MM MM    R   R               |
 |           N N N    M M M    RRRR                |
 |           N  NN    M   M    R  R                |
 |           N   N    M   M    R   R               |
 | Welcome to Materials Studio CASTEP-NMR          |
 | Authors:                                        |
 | J.R. Yates, C.J. Pickard, F. Mauri              |
 | Contributors:                                   |
 | T.F.G. Green, S.A. Joyce                        |
 | Copyright (c) 2004 - 2015                       |
 | Please cite the appropriate publications in all |
 | work arising from your use of CASTEP NMR.       |
 | For NMR Shielding Tensors cite:                 |
 |    "All-electron magnetic response with         |
 |    pseudopotentials: NMR chemical shifts",      |
 |    C. J. Pickard, F. Mauri;                     |
 |    Physical Review B63 245101 (2001), and       |
 |    "Calculation of NMR Chemical Shifts          |
 |    for extended systems using                   |
 |    Ultrasoft Pseudopotentials",                 |
 |    J. R. Yates, C. J. Pickard and F. Mauri      |
 |    Physical Review B76 024401 (2007)            |
 | For Electric Field Gradients cite:              |
 |   "Accurate First Principles Prediction of 17O  |
 |    NMR Parameters in SiO2: Assignment of the    |
 |    Zeolite Ferrierite Spectrum"                 |
 |    M. Profeta, F. Mauri and C. J. Pickard       |
 |    J. Amer. Chem. Soc. 125 541 (2003)           |
 | For Spin-Spin (J) Couplings cite:               |
 |   "A first principles theory of NMR J-coupling  |
 |   in solid-state systems"                       |
 |   S.A. Joyce, J.R. Yates, C.J. Pickard, F. Mauri|
 |   J. Chem. Phys. 127 204107 (2007)              |
 |   "Relativistic NMR J-coupling with ultrasoft   |
 |   pseudopotentials and the zeroth-order regular |
 |   approximation"                                |
 |   T.F.G. Green and J.R. Yates                   |
 |   J. Chem. Phys. 140 234106 (2014)              |

 Atomic calculation performed for O: 1s2 2s2 2p4

 Converged in 44 iterations to an ae energy of -2040.855 eV

 Atomic calculation performed for O: 1s2 2s2 2p4

 Exceeded max iterations: converged to 0.000000062 eV

   | Pseudopotential Report - Date of generation 16-03-2022   |
   | Element: O Ionic charge:  6.00 Level of theory: PBE      |
   | Atomic Solver: ZORA (scalar)                             |
   |               Reference Electronic Structure             |
   |         Orbital         Occupation         Energy        |
   |            2s              2.000           -0.881        |
   |            2p              4.000           -0.332        |
   |                 Pseudopotential Definition               |
   |        Beta     l      e      Rc     scheme   norm       |
   |          1      0   -0.881   1.100     qc      0         |
   |          2      0    0.250   1.100     qc      0         |
   |          3      1   -0.332   1.100     qc      0         |
   |          4      1    0.250   1.100     qc      0         |
   |         loc     2    0.000   1.100     pn      0         |
   | Augmentation charge Rinner = 0.769                       |
   | Partial core correction Rc = 0.769                       |
   | "2|1.1|15|18|20|20:21(qc=7)"                             |
   |      Author: Chris J. Pickard, Cambridge University      |

 Atomic calculation performed for Zr: 1s2 2s2 2p6 3s2 3p6 3d10 4s2 4p6 4d2 5s2

[...]

 Atomic calculation performed for Zr: 1s2 2s2 2p6 3s2 3p6 3d10 4s2 4p6 4d2 5s2

[...]

 Warning: ion_atom_descreen_psp: negative charge density encountered
   | Pseudopotential Report - Date of generation 16-03-2022   |
   | Element: Zr Ionic charge: 12.00 Level of theory: PBE     |
   | Atomic Solver: ZORA (scalar)                             |
   |               Reference Electronic Structure             |
   |         Orbital         Occupation         Energy        |
   |            4s              2.000           -2.003        |
   |            4p              6.000           -1.193        |
   |            5s              2.000           -0.163        |
   |            4d              2.000           -0.132        |
   |                 Pseudopotential Definition               |
   |        Beta     l      e      Rc     scheme   norm       |
   |          1      0   -2.003   2.105     qc      0         |
   |          2      0   -0.163   2.105     qc      0         |
   |          3      0    0.250   2.105     qc      0         |
   |          4      1   -1.193   2.105     qc      0         |
   |          5      1    0.250   2.105     qc      0         |
   |          6      2   -0.132   2.105     qc      0         |
   |          7      2    0.250   2.105     qc      0         |
   |         loc     3    0.000   2.105     pn      0         |
   | Augmentation charge Rinner = 1.471                       |
   | Partial core correction Rc = 1.471                       |
   | "3|2.1|7|8|9|40U:50:41:42"                               |
   |      Author: Chris J. Pickard, Cambridge University      |

 Atomic calculation performed for Sn:

[...]

 Atomic calculation performed for Sn:

[...]

   | Pseudopotential Report - Date of generation 16-03-2022   |
   | Element: Sn Ionic charge: 14.00 Level of theory: PBE     |
   | Atomic Solver: ZORA (scalar)                             |
   |               Reference Electronic Structure             |
   |         Orbital         Occupation         Energy        |
   |            4d             10.000           -0.950        |
   |            5s              2.000           -0.388        |
   |            5p              2.000           -0.136        |
   |                 Pseudopotential Definition               |
   |        Beta     l      e      Rc     scheme   norm       |
   |          1      0   -0.388   2.199     qc      0         |
   |          2      0    0.250   2.199     qc      0         |
   |          3      1   -0.136   2.199     qc      0         |
   |          4      1    0.250   2.199     qc      0         |
   |          5      2   -0.950   2.199     qc      0         |
   |          6      2    0.250   2.199     qc      0         |
   |         loc     3    0.000   2.199     pn      0         |
   | Augmentation charge Rinner = 1.537                       |
   | Partial core correction Rc = 1.537                       |
   | "3|2.2|7|8|9|50:51:42"                                   |
   |      Author: Chris J. Pickard, Cambridge University      |

 Atomic calculation performed for La:

 Converged in 55 iterations to an ae energy of -230121.495 eV

 Atomic calculation performed for La:

 Exceeded max iterations: converged to 0.000001291 eV

 Warning: ion_atom_descreen_psp: negative charge density encountered
   | Pseudopotential Report - Date of generation 16-03-2022   |
   | Element: La Ionic charge: 11.00 Level of theory: PBE     |
   | Atomic Solver: ZORA (scalar)                             |
   |               Reference Electronic Structure             |
   |         Orbital         Occupation         Energy        |
   |            5s              2.000           -1.430        |
   |            5p              6.000           -0.823        |
   |            6s              2.000           -0.135        |
   |            5d              1.000           -0.114        |
   |                 Pseudopotential Definition               |
   |        Beta     l      e      Rc     scheme   norm       |
   |          1      0   -1.430   2.298     qc      0         |
   |          2      0   -0.135   2.298     qc      0         |
   |          3      0    0.250   2.298     qc      0         |
   |          4      1   -0.823   2.298     qc      0         |
   |          5      1    0.250   2.298     qc      0         |
   |          6      2   -0.114   2.298     qc      0         |
   |          7      2    0.250   2.298     qc      0         |
   |         loc     2    0.000   2.298     pn      0         |
   | Augmentation charge Rinner = 1.606                       |
   | Partial core correction Rc = 1.606                       |
   | "2|2.3|5|6|7|50U:60:51:52(qc=4.5)"                       |
   |      Author: Chris J. Pickard, Cambridge University      |

 Pseudo atomic calculation performed for O 2s2 2p4

 Converged in 39 iterations to a total energy of -432.6554 eV

 Pseudo atomic calculation performed for Zr 4s2 4p6 4d2 5s2

[...]

 Calculation parallelised over 182 processes.
 Data is distributed by G-vector(13-way) and k-point(14-way)

 ************************************ Title ************************************
 nmr testing

 ***************************** General Parameters ******************************

 output verbosity                               : normal  (1)
 write checkpoint data to                       : Zr3_6.check
 type of calculation                            : Magnetic Resonance
 stress calculation                             : on
 density difference calculation                 : off
 electron localisation func (ELF) calculation   : off
 Hirshfeld analysis                             : off
 unlimited duration calculation
 timing information                             : on
 write final potential to formatted file        : off
 write final density to formatted file          : off
 write BibTeX reference list                    : on
 write OTFG pseudopotential files               : on
 checkpoint writing                             : both castep_bin and check files

 output         length unit                     : A
 output           mass unit                     : amu
 output           time unit                     : ps
 output         charge unit                     : e
 output           spin unit                     : hbar/2
 output         energy unit                     : eV
 output          force unit                     : eV/A
 output       velocity unit                     : A/ps
 output       pressure unit                     : GPa
 output     inv_length unit                     : 1/A
 output      frequency unit                     : cm-1
 output force constant unit                     : eV/A**2
 output         volume unit                     : A**3
 output   IR intensity unit                     : (D/A)**2/amu
 output         dipole unit                     : D
 output         efield unit                     : eV/A/e
 output        entropy unit                     : J/mol/K

 wavefunctions paging                           : none
 random number generator seed                   : randomised (171518326)
 data distribution                              : optimal for this architecture
[...]
  |    O          42       -6.76      56.41      0.83   3.874E+00   0.91 |
  |    O          43      -86.74      87.79      0.13  -3.178E+00   0.03 |
  |    O          44       -5.41      57.03      0.90   3.830E+00   0.95 |
  |    O          45      -86.74      87.79      0.13  -3.178E+00   0.03 |
  |    O          46       -5.41      57.03      0.90   3.830E+00   0.95 |
  |    O          47      -16.55     -38.75      0.81   3.895E+00   0.90 |
  |    O          48      -89.83      89.65      0.10  -3.142E+00   0.03 |
  |    O          49       -5.41      57.04      0.90   3.830E+00   0.95 |
  |    O          50      -86.74      87.80      0.13  -3.178E+00   0.03 |
  |    O          51       -5.41      57.04      0.90   3.830E+00   0.95 |
  |    O          52      -86.75      87.78      0.13  -3.178E+00   0.03 |
  |    O          53      -16.54     -38.75      0.81   3.895E+00   0.90 |
  |    O          54      -89.83      89.65      0.10  -3.142E+00   0.03 |
  |    O          55       -5.41      57.04      0.90   3.830E+00   0.95 |
  |    O          56      -86.75      87.79      0.13  -3.178E+00   0.03 |
  |    Zr          1     1600.34    -103.75      0.06  -3.347E+01   0.00 |
  |    Zr          2     1600.34    -103.75      0.06  -3.347E+01   0.00 |
  |    Zr          3     1600.34    -103.75      0.06  -3.347E+01   0.00 |
  |    Sn          1     3253.44     -62.16      0.69   1.198E+02   0.12 |
[...]
  |    La          2     4556.72     387.11      0.04  -7.875E+01   0.07 |
  |    La          3     4605.31     542.65      0.05  -8.149E+01   0.17 |
  |    La          4     4605.31     542.64      0.05  -8.149E+01   0.17 |
  |    La          5     4556.72     387.10      0.04  -7.875E+01   0.07 |
  |    La          6     4605.31     542.65      0.05  -8.149E+01   0.17 |
  |    La          7     4605.31     542.64      0.05  -8.149E+01   0.17 |
  |    La          8     4489.28     243.32      0.00  -7.211E+01   0.02 |
  |    La          9     4605.31     542.64      0.05  -8.149E+01   0.17 |
  |    La         10     4556.73     387.11      0.04  -7.875E+01   0.07 |
  |    La         11     4605.31     542.64      0.05  -8.149E+01   0.17 |
  |    La         12     4556.72     387.11      0.04  -7.875E+01   0.07 |
  |    La         13     4489.28     243.32      0.00  -7.211E+01   0.02 |
  |    La         14     4556.72     387.10      0.04  -7.875E+01   0.07 |
  |    La         15     4556.72     387.10      0.04  -7.875E+01   0.07 |
  |    La         16     4480.81     249.92      0.00  -7.104E+01   0.00 |

 *********************** Forces ***********************
 *            Cartesian components (eV/A)             *
 *                   x            y            z      *
 * O         1      0.00975      0.00975      0.00790 *
 * O         2      0.00790      0.00975      0.00976 *
 * O         3      0.00975      0.00791      0.00976 *
 * O         4      0.01144      0.01145      0.01144 *
 * O         5     -0.00976     -0.00791     -0.00975 *
 * O         6     -0.00976     -0.00975     -0.00792 *
 * O         7     -0.01143     -0.01144     -0.01145 *
 * O         8     -0.00790     -0.00975     -0.00975 *
 * O         9      0.00681      0.00472      0.00977 *
 * O        10     -0.00904     -0.01576     -0.01576 *
 * O        11      0.01171     -0.00829     -0.00437 *
 * O        12      0.01324      0.00932      0.00932 *
 * O        13      0.00471      0.00680      0.00978 *
 * O        14     -0.01413     -0.00221     -0.01412 *
 * O        15     -0.00831      0.01172     -0.00436 *
 * O        16     -0.02305     -0.02667     -0.02303 *
 * O        17     -0.02306     -0.02305     -0.02666 *
 * O        18     -0.00443     -0.00837      0.01173 *
 * O        19     -0.01412     -0.01412     -0.00222 *
 * O        20      0.00981      0.00472      0.00679 *
 * O        21      0.01577      0.00913      0.01575 *
 * O        22     -0.00471     -0.00678     -0.00980 *
 * O        23     -0.00930     -0.01323     -0.00933 *
 * O        24      0.00836     -0.01172      0.00444 *
 * O        25     -0.01173      0.00837      0.00443 *
 * O        26      0.02665      0.02305      0.02305 *
 * O        27     -0.00679     -0.00471     -0.00981 *
 * O        28      0.00213      0.01411      0.01412 *
 * O        29     -0.00471     -0.00978     -0.00680 *
 * O        30      0.01412      0.01413      0.00213 *
 * O        31      0.00836      0.00444     -0.01172 *
 * O        32      0.02302      0.02303      0.02668 *
 * O        33      0.00913      0.01576      0.01576 *
 * O        34     -0.01323     -0.00931     -0.00932 *
 * O        35      0.01412      0.00214      0.01412 *
 * O        36      0.02303      0.02666      0.02305 *
 * O        37      0.00449      0.00823     -0.01172 *
 * O        38     -0.00977     -0.00471     -0.00680 *
 * O        39     -0.01577     -0.00911     -0.01576 *
 * O        40      0.00932      0.01324      0.00931 *
 * O        41     -0.02667     -0.02302     -0.02302 *
 * O        42     -0.00213     -0.01413     -0.01413 *
 * O        43      0.00471      0.00980      0.00678 *
 * O        44     -0.00832     -0.00437      0.01173 *
 * O        45      0.00680      0.00978      0.00472 *
 * O        46      0.01170     -0.00442     -0.00835 *
 * O        47     -0.01576     -0.01575     -0.00913 *
 * O        48      0.00931      0.00931      0.01323 *
 * O        49      0.00437     -0.01173      0.00831 *
 * O        50     -0.00978     -0.00680     -0.00471 *
 * O        51     -0.01173      0.00437      0.00832 *
 * O        52     -0.00679     -0.00981     -0.00471 *
 * O        53      0.01576      0.01576      0.00912 *
 * O        54     -0.00932     -0.00933     -0.01323 *
 * O        55     -0.00443      0.01172     -0.00836 *
 * O        56      0.00977      0.00679      0.00472 *
 * Zr        1      0.00000      0.00001     -0.00002 *
 * Zr        2     -0.00002     -0.00001      0.00002 *
 * Zr        3     -0.00000     -0.00001      0.00001 *
 * Sn        1      0.00380     -0.00379      0.00002 *
[...]
 * La        2      0.00273     -0.00272     -0.00001 *
 * La        3      0.01053     -0.01546      0.01053 *
 * La        4      0.01545     -0.01053     -0.01053 *
 * La        5     -0.00273      0.00273     -0.00001 *
 * La        6     -0.01054      0.01546     -0.01054 *
 * La        7     -0.01547      0.01054      0.01054 *
 * La        8      0.00000      0.00000     -0.00001 *
 * La        9     -0.01054     -0.01054      0.01548 *
 * La       10     -0.00273     -0.00000      0.00273 *
 * La       11      0.01052      0.01053     -0.01545 *
 * La       12      0.00273     -0.00000     -0.00272 *
 * La       13     -0.00002     -0.00001     -0.00003 *
 * La       14      0.00001      0.00273     -0.00273 *
 * La       15      0.00001     -0.00273      0.00273 *
 * La       16      0.00000      0.00001      0.00002 *

 ***************** Stress Tensor *****************
 *          Cartesian components (GPa)           *
 *             x             y             z     *
 *  x     -0.001532      0.001411      0.001422  *
 *  y      0.001411     -0.001544      0.001425  *
 *  z      0.001422      0.001425     -0.001548  *
 *  Pressure:    0.0015                          *

[...]

 Pseudo atomic calculation performed for Sn 4d10 5s2 5p2

[...]

 Pseudo atomic calculation performed for La 5s2 5p6 5d1 6s2

 Converged in 34 iterations to a total energy of -968.0371 eV

Charge spilling parameter for spin component 1 = 0.26%

     Atomic Populations (Mulliken)
Species   Ion     s      p      d      f     Total  Charge (e)
  O        1     1.87   5.00   0.00   0.00   6.87    -0.87
  O        2     1.87   5.00   0.00   0.00   6.87    -0.87
  O        3     1.87   5.00   0.00   0.00   6.87    -0.87
  O        4     1.87   5.00   0.00   0.00   6.87    -0.87
  O        5     1.87   5.00   0.00   0.00   6.87    -0.87
  O        6     1.87   5.00   0.00   0.00   6.87    -0.87
  O        7     1.87   5.00   0.00   0.00   6.87    -0.87
  O        8     1.87   5.00   0.00   0.00   6.87    -0.87
  O        9     1.87   4.99   0.00   0.00   6.86    -0.86
  O       10     1.88   5.03   0.00   0.00   6.91    -0.91
  O       11     1.88   5.03   0.00   0.00   6.91    -0.91
  O       12     1.87   4.99   0.00   0.00   6.86    -0.86
  O       13     1.87   4.99   0.00   0.00   6.86    -0.86
  O       14     1.88   5.03   0.00   0.00   6.91    -0.91
  O       15     1.88   5.03   0.00   0.00   6.91    -0.91
  O       16     1.89   5.03   0.00   0.00   6.91    -0.91
  O       17     1.89   5.03   0.00   0.00   6.91    -0.91
  O       18     1.88   5.03   0.00   0.00   6.91    -0.91
  O       19     1.88   5.03   0.00   0.00   6.91    -0.91
  O       20     1.87   4.99   0.00   0.00   6.86    -0.86
  O       21     1.88   5.03   0.00   0.00   6.91    -0.91
  O       22     1.87   4.99   0.00   0.00   6.86    -0.86
  O       23     1.87   4.99   0.00   0.00   6.86    -0.86
  O       24     1.88   5.03   0.00   0.00   6.91    -0.91
  O       25     1.88   5.03   0.00   0.00   6.91    -0.91
  O       26     1.89   5.03   0.00   0.00   6.91    -0.91
  O       27     1.87   4.99   0.00   0.00   6.86    -0.86
  O       28     1.88   5.03   0.00   0.00   6.91    -0.91
  O       29     1.87   4.99   0.00   0.00   6.86    -0.86
  O       30     1.88   5.03   0.00   0.00   6.91    -0.91
  O       31     1.88   5.03   0.00   0.00   6.91    -0.91
  O       32     1.89   5.03   0.00   0.00   6.91    -0.91
  O       33     1.88   5.03   0.00   0.00   6.91    -0.91
  O       34     1.87   4.99   0.00   0.00   6.86    -0.86
  O       35     1.88   5.03   0.00   0.00   6.91    -0.91
  O       36     1.89   5.03   0.00   0.00   6.91    -0.91
  O       37     1.88   5.03   0.00   0.00   6.91    -0.91
  O       38     1.87   4.99   0.00   0.00   6.86    -0.86
  O       39     1.88   5.03   0.00   0.00   6.91    -0.91
  O       40     1.87   4.99   0.00   0.00   6.86    -0.86
  O       41     1.89   5.03   0.00   0.00   6.91    -0.91
  O       42     1.88   5.03   0.00   0.00   6.91    -0.91
  O       43     1.87   4.99   0.00   0.00   6.86    -0.86
  O       44     1.88   5.03   0.00   0.00   6.91    -0.91
  O       45     1.87   4.99   0.00   0.00   6.86    -0.86
  O       46     1.88   5.03   0.00   0.00   6.91    -0.91
  O       47     1.88   5.03   0.00   0.00   6.91    -0.91
  O       48     1.87   4.99   0.00   0.00   6.86    -0.86
  O       49     1.88   5.03   0.00   0.00   6.91    -0.91
  O       50     1.87   4.99   0.00   0.00   6.86    -0.86
  O       51     1.88   5.03   0.00   0.00   6.91    -0.91
  O       52     1.87   4.99   0.00   0.00   6.86    -0.86
  O       53     1.88   5.03   0.00   0.00   6.91    -0.91
  O       54     1.87   4.99   0.00   0.00   6.86    -0.86
  O       55     1.88   5.03   0.00   0.00   6.91    -0.91
  O       56     1.87   4.99   0.00   0.00   6.86    -0.86
  Zr       1     2.36   6.49   1.92   0.00  10.77     1.23
  Zr       2     2.36   6.49   1.92   0.00  10.77     1.23
  Zr       3     2.36   6.49   1.92   0.00  10.77     1.23
  Sn       1     1.04   1.30  10.00   0.00  12.34     1.66
[...]
  La       2     2.07   6.19   1.19   0.00   9.46     1.54
  La       3     2.05   6.18   1.20   0.00   9.42     1.58
  La       4     2.05   6.18   1.20   0.00   9.42     1.58
  La       5     2.07   6.19   1.19   0.00   9.46     1.54
  La       6     2.05   6.18   1.20   0.00   9.42     1.58
  La       7     2.05   6.18   1.20   0.00   9.42     1.58
  La       8     2.13   6.19   1.19   0.00   9.52     1.48
  La       9     2.05   6.18   1.20   0.00   9.42     1.58
  La      10     2.07   6.19   1.19   0.00   9.46     1.54
  La      11     2.05   6.18   1.20   0.00   9.42     1.58
  La      12     2.07   6.19   1.19   0.00   9.46     1.54
  La      13     2.13   6.19   1.19   0.00   9.52     1.48
  La      14     2.07   6.19   1.19   0.00   9.46     1.54
  La      15     2.07   6.19   1.19   0.00   9.46     1.54
  La      16     2.12   6.19   1.19   0.00   9.50     1.50

            Bond              Population      Length (A)
         O 27 -- Sn 12             0.35        2.10531
         O 9  -- Sn 11             0.35        2.10531
         O 45 -- Sn 12             0.35        2.10531
         O 52 -- Sn 11             0.35        2.10531
         O 29 -- Sn 4              0.35        2.10531
         O 43 -- Sn 1              0.35        2.10531
         O 38 -- Sn 1              0.35        2.10531
         O 20 -- Sn 4              0.35        2.10531
         O 22 -- Sn 8              0.35        2.10531
         O 13 -- Sn 10             0.35        2.10531
         O 56 -- Sn 8              0.35        2.10531
         O 50 -- Sn 10             0.35        2.10531
         O 10 -- Sn 5              0.33        2.10833
         O 10 -- Sn 7              0.33        2.10833
         O 33 -- Sn 2              0.33        2.10833
         O 33 -- Sn 9              0.33        2.10833
         O 39 -- Sn 3              0.33        2.10833
         O 21 -- Sn 6              0.33        2.10833
         O 53 -- Sn 6              0.33        2.10833
         O 47 -- Sn 3              0.33        2.10833
         O 21 -- Sn 9              0.33        2.10833
         O 39 -- Sn 7              0.33        2.10833
         O 53 -- Sn 2              0.33        2.10833
         O 47 -- Sn 5              0.33        2.10833
         O 12 -- Sn 6              0.34        2.11030
         O 34 -- Sn 3              0.34        2.11030
         O 54 -- Sn 7              0.34        2.11030
         O 48 -- Sn 9              0.34        2.11030
         O 40 -- Sn 2              0.34        2.11030
         O 23 -- Sn 5              0.34        2.11030
         O 42 -- Sn 10             0.33        2.11092
         O 28 -- Sn 8              0.33        2.11092
         O 28 -- Sn 4              0.33        2.11092
         O 42 -- Sn 1              0.33        2.11092
         O 35 -- Sn 12             0.33        2.11092
         O 30 -- Sn 11             0.33        2.11092
         O 35 -- Sn 1              0.33        2.11092
         O 30 -- Sn 10             0.33        2.11092
         O 14 -- Sn 11             0.33        2.11092
         O 19 -- Sn 12             0.33        2.11092
         O 14 -- Sn 4              0.33        2.11092
         O 19 -- Sn 8              0.33        2.11092
         O 46 -- Sn 2              0.33        2.11212
         O 51 -- Sn 5              0.33        2.11212
         O 25 -- Sn 7              0.33        2.11212
         O 55 -- Sn 6              0.33        2.11212
         O 11 -- Sn 9              0.33        2.11212
         O 49 -- Sn 3              0.33        2.11212
         O 18 -- Sn 6              0.33        2.11212
         O 24 -- Sn 7              0.33        2.11212
         O 15 -- Sn 9              0.33        2.11212
         O 31 -- Sn 5              0.33        2.11212
         O 44 -- Sn 2              0.33        2.11212
         O 37 -- Sn 3              0.33        2.11213
         O 41 -- Sn 3              0.34        2.11302
         O 26 -- Sn 6              0.34        2.11302
         O 32 -- Sn 9              0.34        2.11302
         O 17 -- Sn 7              0.34        2.11302
         O 36 -- Sn 2              0.34        2.11302
         O 16 -- Sn 5              0.34        2.11302
[...]
         O 12 -- O 22             -0.03        2.82890
         O 48 -- O 52             -0.03        2.82890
         O 45 -- O 54             -0.03        2.82890
         O 34 -- O 43             -0.03        2.82890
         O 12 -- O 29             -0.03        2.82890
         O 48 -- O 50             -0.03        2.82890
         O 54 -- O 56             -0.03        2.82890
         O 38 -- O 40             -0.03        2.82890
         O 20 -- O 23             -0.03        2.82890
         O 52 -- O 56             -0.03        2.82968
         O 45 -- O 50             -0.03        2.82968
         O 20 -- O 27             -0.03        2.82968
         O 9  -- O 38             -0.03        2.82968
         O 22 -- O 43             -0.03        2.82968
         O 13 -- O 29             -0.03        2.82968

Writing analysis data to Zr3_6.castep_bin

Writing model to Zr3_6.check

 A BibTeX formatted list of references used in this run has been written to
 Zr3_6.bib

Initialisation time =     44.46 s
Calculation time    =   9906.43 s
Finalisation time   =     39.79 s
Total time          =   9990.67 s

Overall parallel efficiency rating: Good (78%)

Data was distributed by:-
G-vector (13-way); efficiency rating: Very good (82%)
k-point (14-way); efficiency rating: Excellent (93%)