 Compiled for linux_x86_64_ifort16 on Sat, 23 Jul 2016 23:44:54 +0100
 from code version
 203e84763863+ Castep161_branch Fri, 04 Mar 2016 19:21:07 +0000
 Compiler: Intel Fortran 16.0.3.210; Optimisation: fast
 MATHLIBS: Intel MKL(11.3.3) (LAPACK version 3.6.0)
 FFT Lib : mkl
 Fundamental constants values: CODATA 2010

 Run started: Thu, 21 Dec 2017 22:16:35 +0000
 |           N   N    M   M    RRRR                |
 |           NN  N    MM MM    R   R               |
 |           N N N    M M M    RRRR                |
 |           N  NN    M   M    R  R                |
 |           N   N    M   M    R   R               |
 | Welcome to Materials Studio CASTEP-NMR          |
 | Authors:                                        |
 | J.R. Yates, C.J. Pickard, F. Mauri              |
 | Contributors:                                   |
 | T.F.G. Green, S.A. Joyce                        |
 | Copyright (c) 2004 - 2015                       |
 | Please cite the appropriate publications in all |
 | work arising from your use of CASTEP NMR.       |
 | For NMR Shielding Tensors cite:                 |
 |    "All-electron magnetic response with         |
 |    pseudopotentials: NMR chemical shifts",      |
 |    C. J. Pickard, F. Mauri;                     |
 |    Physical Review B63 245101 (2001), and       |
 |    "Calculation of NMR Chemical Shifts          |
 |    for extended systems using                   |
 |    Ultrasoft Pseudopotentials",                 |
 |    J. R. Yates, C. J. Pickard and F. Mauri      |
 |    Physical Review B76 024401 (2007)            |
 | For Electric Field Gradients cite:              |
 |   "Accurate First Principles Prediction of 17O  |
 |    NMR Parameters in SiO2: Assignment of the    |
 |    Zeolite Ferrierite Spectrum"                 |
 |    M. Profeta, F. Mauri and C. J. Pickard       |
 |    J. Amer. Chem. Soc. 125 541 (2003)           |
 | For Spin-Spin (J) Couplings cite:               |
 |   "A first principles theory of NMR J-coupling  |
 |   in solid-state systems"                       |
 |   S.A. Joyce, J.R. Yates, C.J. Pickard, F. Mauri|
 |   J. Chem. Phys. 127 204107 (2007)              |
 |   "Relativistic NMR J-coupling with ultrasoft   |
 |   pseudopotentials and the zeroth-order regular |
 |   approximation"                                |
 |   T.F.G. Green and J.R. Yates                   |
 |   J. Chem. Phys. 140 234106 (2014)              |

 Atomic calculation performed for O: 1s2 2s2 2p4

 Converged in 44 iterations to an ae energy of -2040.855 eV

 Atomic calculation performed for O: 1s2 2s2 2p4

 Exceeded max iterations: converged to 0.000000062 eV

   | Pseudopotential Report - Date of generation 21-12-2017   |
   | Element: O Ionic charge:  6.00 Level of theory: PBE      |
   | Atomic Solver: ZORA (scalar)                             |
   |               Reference Electronic Structure             |
   |         Orbital         Occupation         Energy        |
   |            2s              2.000           -0.881        |
   |            2p              4.000           -0.332        |
   |                 Pseudopotential Definition               |
   |        Beta     l      e      Rc     scheme   norm       |
   |          1      0   -0.881   1.100     qc      0         |
   |          2      0    0.250   1.100     qc      0         |
   |          3      1   -0.332   1.100     qc      0         |
   |          4      1    0.250   1.100     qc      0         |
   |         loc     2    0.000   1.100     pn      0         |
   | Augmentation charge Rinner = 0.769                       |
   | Partial core correction Rc = 0.769                       |
   | "2|1.1|15|18|20|20:21(qc=7)"                             |
   |      Author: Chris J. Pickard, Cambridge University      |

 Atomic calculation performed for Zr: 1s2 2s2 2p6 3s2 3p6 3d10 4s2 4p6 4d2 5s2

[...]

 Atomic calculation performed for Zr: 1s2 2s2 2p6 3s2 3p6 3d10 4s2 4p6 4d2 5s2

[...]

 Warning: ion_atom_descreen_psp: negative charge density encountered
   | Pseudopotential Report - Date of generation 21-12-2017   |
   | Element: Zr Ionic charge: 12.00 Level of theory: PBE     |
   | Atomic Solver: ZORA (scalar)                             |
   |               Reference Electronic Structure             |
   |         Orbital         Occupation         Energy        |
   |            4s              2.000           -2.003        |
   |            4p              6.000           -1.193        |
   |            5s              2.000           -0.163        |
   |            4d              2.000           -0.132        |
   |                 Pseudopotential Definition               |
   |        Beta     l      e      Rc     scheme   norm       |
   |          1      0   -2.003   2.105     qc      0         |
   |          2      0   -0.163   2.105     qc      0         |
   |          3      0    0.250   2.105     qc      0         |
   |          4      1   -1.193   2.105     qc      0         |
   |          5      1    0.250   2.105     qc      0         |
   |          6      2   -0.132   2.105     qc      0         |
   |          7      2    0.250   2.105     qc      0         |
   |         loc     3    0.000   2.105     pn      0         |
   | Augmentation charge Rinner = 1.471                       |
   | Partial core correction Rc = 1.471                       |
   | "3|2.1|7|8|9|40U:50:41:42"                               |
   |      Author: Chris J. Pickard, Cambridge University      |

 Atomic calculation performed for Sn:

[...]

 Atomic calculation performed for Sn:

[...]

   | Pseudopotential Report - Date of generation 21-12-2017   |
   | Element: Sn Ionic charge: 14.00 Level of theory: PBE     |
   | Atomic Solver: ZORA (scalar)                             |
   |               Reference Electronic Structure             |
   |         Orbital         Occupation         Energy        |
   |            4d             10.000           -0.950        |
   |            5s              2.000           -0.388        |
   |            5p              2.000           -0.136        |
   |                 Pseudopotential Definition               |
   |        Beta     l      e      Rc     scheme   norm       |
   |          1      0   -0.388   2.199     qc      0         |
   |          2      0    0.250   2.199     qc      0         |
   |          3      1   -0.136   2.199     qc      0         |
   |          4      1    0.250   2.199     qc      0         |
   |          5      2   -0.950   2.199     qc      0         |
   |          6      2    0.250   2.199     qc      0         |
   |         loc     3    0.000   2.199     pn      0         |
   | Augmentation charge Rinner = 1.537                       |
   | Partial core correction Rc = 1.537                       |
   | "3|2.2|7|8|9|50:51:42"                                   |
   |      Author: Chris J. Pickard, Cambridge University      |

 Atomic calculation performed for La:

 Converged in 56 iterations to an ae energy of -230121.495 eV

 Atomic calculation performed for La:

 Exceeded max iterations: converged to 0.000000907 eV

 Warning: ion_atom_descreen_psp: negative charge density encountered
   | Pseudopotential Report - Date of generation 21-12-2017   |
   | Element: La Ionic charge: 11.00 Level of theory: PBE     |
   | Atomic Solver: ZORA (scalar)                             |
   |               Reference Electronic Structure             |
   |         Orbital         Occupation         Energy        |
   |            5s              2.000           -1.430        |
   |            5p              6.000           -0.823        |
   |            6s              2.000           -0.135        |
   |            5d              1.000           -0.114        |
   |                 Pseudopotential Definition               |
   |        Beta     l      e      Rc     scheme   norm       |
   |          1      0   -1.430   2.298     qc      0         |
   |          2      0   -0.135   2.298     qc      0         |
   |          3      0    0.250   2.298     qc      0         |
   |          4      1   -0.823   2.298     qc      0         |
   |          5      1    0.250   2.298     qc      0         |
   |          6      2   -0.114   2.298     qc      0         |
   |          7      2    0.250   2.298     qc      0         |
   |         loc     2    0.000   2.298     pn      0         |
   | Augmentation charge Rinner = 1.606                       |
   | Partial core correction Rc = 1.606                       |
   | "2|2.3|5|6|7|50U:60:51:52(qc=4.5)"                       |
   |      Author: Chris J. Pickard, Cambridge University      |

 Pseudo atomic calculation performed for O 2s2 2p4

 Converged in 39 iterations to a total energy of -432.6554 eV

 Pseudo atomic calculation performed for Zr 4s2 4p6 4d2 5s2

[...]

 Calculation parallelised over 56 processes.
 Data is distributed by G-vector(4-way) and k-point(14-way)

 ************************************ Title ************************************
 nmr testing

 ***************************** General Parameters ******************************

 output verbosity                               : normal  (1)
 write checkpoint data to                       : 01.check
 type of calculation                            : Magnetic Resonance
 stress calculation                             : on
 density difference calculation                 : off
 electron localisation func (ELF) calculation   : off
 Hirshfeld analysis                             : off
 unlimited duration calculation
 timing information                             : on
 write final potential to formatted file        : off
 write final density to formatted file          : off
 write structure in CIF formatted file          : on
 write structure in CELL formatted file         : on
 write BibTeX reference list                    : on
 write OTFG pseudopotential files               : on
 checkpoint writing                             : both castep_bin and check files

 output         length unit                     : A
 output           mass unit                     : amu
 output           time unit                     : ps
 output         charge unit                     : e
 output           spin unit                     : hbar/2
 output         energy unit                     : eV
 output          force unit                     : eV/A
 output       velocity unit                     : A/ps
 output       pressure unit                     : GPa
 output     inv_length unit                     : 1/A
 output      frequency unit                     : cm-1
 output force constant unit                     : eV/A**2
 output         volume unit                     : A**3
 output   IR intensity unit                     : (D/A)**2/amu
 output         dipole unit                     : D
 output         efield unit                     : eV/A/e
 output        entropy unit                     : J/mol/K

 wavefunctions paging                           : none
 random number generator seed                   : randomised (221636354)
 data distribution                              : optimal for this architecture
[...]
  |    O          41      -88.43      85.15      0.12  -3.239E+00   0.13 |
  |    O          42     -162.24     153.11      0.83   1.082E+00   0.82 |
  |    O          43      -85.15      93.86      0.30  -3.147E+00   0.11 |
  |    O          44      -85.13      93.47      0.30  -3.147E+00   0.11 |
  |    O          45      -88.36      85.00      0.12  -3.239E+00   0.13 |
  |    O          46     -162.35     151.85      0.84   1.074E+00   0.83 |
  |    O          47     -164.14     154.58      0.81   1.070E+00   0.89 |
  |    O          48     -164.09     154.45      0.81   1.069E+00   0.89 |
  |    O          49     -164.14     154.57      0.81   1.070E+00   0.89 |
  |    O          50     -164.09     154.46      0.81   1.069E+00   0.89 |
  |    O          51     -162.35     151.85      0.84   1.074E+00   0.83 |
  |    O          52      -88.36      85.00      0.12  -3.239E+00   0.13 |
  |    O          53     -164.14     154.58      0.81   1.070E+00   0.89 |
  |    O          54     -164.09     154.45      0.81   1.069E+00   0.89 |
  |    O          55     -164.14     154.57      0.81   1.070E+00   0.89 |
  |    O          56     -164.09     154.45      0.81   1.069E+00   0.89 |
  |    Zr          1     1633.16    -129.50      0.14  -3.959E+01   0.08 |
  |    Zr          2     1631.83    -127.26      0.01  -3.918E+01   0.01 |
  |    Zr          3     1631.83    -127.25      0.01  -3.918E+01   0.01 |
  |    Zr          4     1632.66    -129.53      0.14  -3.960E+01   0.07 |
[...]
  |    La          2     4705.01     774.11      0.05  -8.120E+01   0.06 |
  |    La          3     4705.01     774.11      0.05  -8.120E+01   0.06 |
  |    La          4     4802.22     952.23      0.01  -8.672E+01   0.01 |
  |    La          5     4705.01     774.11      0.05  -8.120E+01   0.06 |
  |    La          6     4705.01     774.11      0.05  -8.120E+01   0.06 |
  |    La          7     4802.22     952.23      0.01  -8.672E+01   0.01 |
  |    La          8     4802.23     951.28      0.01  -8.663E+01   0.01 |
  |    La          9     4705.01     774.11      0.05  -8.120E+01   0.06 |
  |    La         10     4705.01     774.11      0.05  -8.120E+01   0.06 |
  |    La         11     4705.01     774.11      0.05  -8.120E+01   0.06 |
  |    La         12     4705.01     774.11      0.05  -8.120E+01   0.06 |
  |    La         13     4713.53     786.05      0.11  -8.230E+01   0.11 |
  |    La         14     4713.65     785.64      0.10  -8.233E+01   0.10 |
  |    La         15     4713.65     785.64      0.10  -8.233E+01   0.10 |
  |    La         16     4713.53     786.05      0.11  -8.230E+01   0.11 |

 *********************** Forces ***********************
 *            Cartesian components (eV/A)             *
 *                   x            y            z      *
 * O         1     -0.00275     -0.00704     -0.00704 *
 * O         2     -0.00422      0.00619      0.00619 *
 * O         3     -0.00275     -0.00704     -0.00704 *
 * O         4     -0.00422      0.00619      0.00619 *
 * O         5      0.00274      0.00704      0.00704 *
 * O         6      0.00275      0.00704      0.00704 *
 * O         7      0.00422     -0.00619     -0.00619 *
 * O         8      0.00422     -0.00619     -0.00619 *
 * O         9      0.00206      0.01043      0.01043 *
 * O        10      0.00549      0.00543      0.00542 *
 * O        11      0.00002     -0.00531     -0.00531 *
 * O        12      0.00287     -0.01033     -0.01033 *
 * O        13     -0.01646     -0.00424     -0.02464 *
 * O        14     -0.01545      0.00669      0.02080 *
 * O        15     -0.01545      0.00669      0.02080 *
 * O        16     -0.01646     -0.00424     -0.02465 *
 * O        17     -0.01646     -0.02464     -0.00424 *
 * O        18     -0.00631      0.00390     -0.00612 *
 * O        19     -0.01545      0.02080      0.00669 *
 * O        20     -0.00587     -0.00018      0.00316 *
 * O        21      0.00631      0.00612     -0.00390 *
 * O        22      0.01646      0.00424      0.02464 *
 * O        23      0.00587     -0.00316      0.00018 *
 * O        24      0.01545     -0.00669     -0.02080 *
 * O        25     -0.00002      0.00531      0.00531 *
 * O        26     -0.00287      0.01033      0.01033 *
 * O        27     -0.00206     -0.01043     -0.01043 *
 * O        28     -0.00549     -0.00543     -0.00543 *
 * O        29      0.01646      0.02464      0.00424 *
 * O        30      0.01545     -0.02080     -0.00669 *
 * O        31      0.01545     -0.02080     -0.00669 *
 * O        32      0.01646      0.02464      0.00424 *
 * O        33     -0.00549     -0.00543     -0.00543 *
 * O        34     -0.00288      0.01033      0.01033 *
 * O        35      0.01545     -0.00669     -0.02080 *
 * O        36      0.01646      0.00424      0.02465 *
 * O        37      0.00631     -0.00390      0.00612 *
 * O        38      0.00587      0.00018     -0.00316 *
 * O        39     -0.00631     -0.00612      0.00390 *
 * O        40     -0.00587      0.00316     -0.00018 *
 * O        41      0.00287     -0.01033     -0.01033 *
 * O        42      0.00549      0.00543      0.00543 *
 * O        43     -0.01646     -0.02464     -0.00424 *
 * O        44     -0.01545      0.02080      0.00669 *
 * O        45      0.00206      0.01043      0.01043 *
 * O        46      0.00002     -0.00531     -0.00531 *
 * O        47     -0.00631      0.00390     -0.00612 *
 * O        48     -0.00587     -0.00018      0.00316 *
 * O        49      0.00631      0.00612     -0.00390 *
 * O        50      0.00587     -0.00316      0.00018 *
 * O        51     -0.00002      0.00531      0.00531 *
 * O        52     -0.00206     -0.01043     -0.01043 *
 * O        53      0.00631     -0.00390      0.00612 *
 * O        54      0.00587      0.00018     -0.00316 *
 * O        55     -0.00631     -0.00612      0.00390 *
 * O        56     -0.00587      0.00316     -0.00018 *
 * Zr        1     -0.00000     -0.00000      0.00001 *
 * Zr        2     -0.00318      0.00257     -0.02398 *
 * Zr        3      0.00319      0.02398     -0.00257 *
 * Zr        4      0.00001      0.00001      0.00000 *
[...]
 * La        2     -0.00061     -0.01663     -0.01880 *
 * La        3      0.00061      0.01881      0.01664 *
 * La        4     -0.00000     -0.00000     -0.00000 *
 * La        5      0.00061      0.01663      0.01881 *
 * La        6     -0.00061     -0.01881     -0.01663 *
 * La        7     -0.00000      0.00000      0.00000 *
 * La        8      0.00000     -0.00000      0.00001 *
 * La        9     -0.00061     -0.01664     -0.01881 *
 * La       10      0.00061      0.01881      0.01663 *
 * La       11      0.00061      0.01664      0.01880 *
 * La       12     -0.00061     -0.01881     -0.01663 *
 * La       13     -0.00000      0.00000      0.00001 *
 * La       14      0.00000     -0.00000      0.00000 *
 * La       15      0.00000      0.00000     -0.00000 *
 * La       16     -0.00000     -0.00000     -0.00001 *

 ***************** Stress Tensor *****************
 *          Cartesian components (GPa)           *
 *             x             y             z     *
 *  x      0.000693     -0.000028     -0.000028  *
 *  y     -0.000028     -0.002085     -0.006166  *
 *  z     -0.000028     -0.006166     -0.002086  *
 *  Pressure:    0.0012                          *

[...]

 Pseudo atomic calculation performed for Sn 4d10 5s2 5p2

[...]

 Pseudo atomic calculation performed for La 5s2 5p6 5d1 6s2

 Converged in 34 iterations to a total energy of -968.0372 eV

Charge spilling parameter for spin component 1 = 0.22%

     Atomic Populations (Mulliken)
Species   Ion     s      p      d      f     Total  Charge (e)
  O        1     1.87   5.00   0.00   0.00   6.87    -0.87
  O        2     1.87   5.00   0.00   0.00   6.87    -0.87
  O        3     1.87   5.00   0.00   0.00   6.87    -0.87
  O        4     1.87   5.00   0.00   0.00   6.87    -0.87
  O        5     1.87   5.00   0.00   0.00   6.87    -0.87
  O        6     1.87   5.00   0.00   0.00   6.87    -0.87
  O        7     1.87   5.00   0.00   0.00   6.87    -0.87
  O        8     1.87   5.00   0.00   0.00   6.87    -0.87
  O        9     1.87   4.98   0.00   0.00   6.85    -0.85
  O       10     1.86   4.94   0.00   0.00   6.80    -0.80
  O       11     1.86   4.94   0.00   0.00   6.80    -0.80
  O       12     1.87   4.98   0.00   0.00   6.85    -0.85
  O       13     1.87   4.98   0.00   0.00   6.85    -0.85
  O       14     1.87   4.98   0.00   0.00   6.85    -0.85
  O       15     1.87   4.98   0.00   0.00   6.85    -0.85
  O       16     1.87   4.98   0.00   0.00   6.85    -0.85
  O       17     1.87   4.98   0.00   0.00   6.85    -0.85
  O       18     1.86   4.94   0.00   0.00   6.80    -0.80
  O       19     1.87   4.98   0.00   0.00   6.85    -0.85
  O       20     1.86   4.94   0.00   0.00   6.80    -0.80
  O       21     1.86   4.94   0.00   0.00   6.80    -0.80
  O       22     1.87   4.98   0.00   0.00   6.85    -0.85
  O       23     1.86   4.94   0.00   0.00   6.80    -0.80
  O       24     1.87   4.98   0.00   0.00   6.85    -0.85
  O       25     1.86   4.94   0.00   0.00   6.80    -0.80
  O       26     1.87   4.98   0.00   0.00   6.85    -0.85
  O       27     1.87   4.98   0.00   0.00   6.85    -0.85
  O       28     1.86   4.94   0.00   0.00   6.80    -0.80
  O       29     1.87   4.98   0.00   0.00   6.85    -0.85
  O       30     1.87   4.98   0.00   0.00   6.85    -0.85
  O       31     1.87   4.98   0.00   0.00   6.85    -0.85
  O       32     1.87   4.98   0.00   0.00   6.85    -0.85
  O       33     1.86   4.94   0.00   0.00   6.80    -0.80
  O       34     1.87   4.98   0.00   0.00   6.85    -0.85
  O       35     1.87   4.98   0.00   0.00   6.85    -0.85
  O       36     1.87   4.98   0.00   0.00   6.85    -0.85
  O       37     1.86   4.94   0.00   0.00   6.80    -0.80
  O       38     1.86   4.94   0.00   0.00   6.80    -0.80
  O       39     1.86   4.94   0.00   0.00   6.80    -0.80
  O       40     1.86   4.94   0.00   0.00   6.80    -0.80
  O       41     1.87   4.98   0.00   0.00   6.85    -0.85
  O       42     1.86   4.94   0.00   0.00   6.80    -0.80
  O       43     1.87   4.98   0.00   0.00   6.85    -0.85
  O       44     1.87   4.98   0.00   0.00   6.85    -0.85
  O       45     1.87   4.98   0.00   0.00   6.85    -0.85
  O       46     1.86   4.94   0.00   0.00   6.80    -0.80
  O       47     1.86   4.94   0.00   0.00   6.80    -0.80
  O       48     1.86   4.94   0.00   0.00   6.80    -0.80
  O       49     1.86   4.94   0.00   0.00   6.80    -0.80
  O       50     1.86   4.94   0.00   0.00   6.80    -0.80
  O       51     1.86   4.94   0.00   0.00   6.80    -0.80
  O       52     1.87   4.98   0.00   0.00   6.85    -0.85
  O       53     1.86   4.94   0.00   0.00   6.80    -0.80
  O       54     1.86   4.94   0.00   0.00   6.80    -0.80
  O       55     1.86   4.94   0.00   0.00   6.80    -0.80
  O       56     1.86   4.94   0.00   0.00   6.80    -0.80
  Zr       1     2.38   6.49   1.93   0.00  10.79     1.21
  Zr       2     2.37   6.48   1.93   0.00  10.78     1.22
  Zr       3     2.37   6.48   1.93   0.00  10.78     1.22
  Zr       4     2.38   6.49   1.93   0.00  10.79     1.21
[...]
  La       2     2.07   6.16   1.19   0.00   9.43     1.57
  La       3     2.07   6.16   1.19   0.00   9.43     1.57
  La       4     2.03   6.14   1.19   0.00   9.36     1.64
  La       5     2.07   6.16   1.19   0.00   9.43     1.57
  La       6     2.07   6.16   1.19   0.00   9.43     1.57
  La       7     2.03   6.14   1.19   0.00   9.36     1.64
  La       8     2.03   6.14   1.19   0.00   9.36     1.64
  La       9     2.07   6.16   1.19   0.00   9.43     1.57
  La      10     2.07   6.16   1.19   0.00   9.43     1.57
  La      11     2.07   6.16   1.19   0.00   9.43     1.57
  La      12     2.07   6.16   1.19   0.00   9.43     1.57
  La      13     2.05   6.17   1.19   0.00   9.41     1.59
  La      14     2.05   6.17   1.19   0.00   9.41     1.59
  La      15     2.05   6.17   1.19   0.00   9.41     1.59
  La      16     2.05   6.17   1.19   0.00   9.41     1.59

            Bond              Population      Length (A)
         O 45 -- Sn 3              0.35        2.10367
         O 9  -- Sn 2              0.35        2.10367
         O 27 -- Sn 3              0.35        2.10367
         O 52 -- Sn 2              0.35        2.10367
         O 34 -- Sn 1              0.35        2.10370
         O 26 -- Sn 4              0.35        2.10370
         O 41 -- Sn 4              0.35        2.10370
         O 12 -- Sn 1              0.35        2.10370
         O 16 -- Sn 4              0.34        2.10655
         O 17 -- Sn 4              0.34        2.10655
         O 13 -- Sn 1              0.34        2.10655
         O 43 -- Sn 1              0.34        2.10655
         O 32 -- Sn 4              0.34        2.10655
         O 22 -- Sn 1              0.34        2.10655
         O 36 -- Sn 4              0.34        2.10655
         O 29 -- Sn 1              0.34        2.10655
         O 35 -- Sn 3              0.34        2.10659
         O 30 -- Sn 2              0.34        2.10659
         O 14 -- Sn 2              0.34        2.10659
         O 24 -- Sn 2              0.34        2.10659
         O 31 -- Sn 3              0.34        2.10659
         O 19 -- Sn 3              0.34        2.10659
         O 15 -- Sn 3              0.34        2.10659
         O 44 -- Sn 2              0.34        2.10659
         O 50 -- Zr 1              0.43        2.11805
         O 38 -- Zr 8              0.43        2.11805
         O 54 -- Zr 1              0.43        2.11805
         O 23 -- Zr 8              0.43        2.11805
         O 56 -- Zr 1              0.43        2.11805
         O 20 -- Zr 8              0.43        2.11805
         O 48 -- Zr 1              0.43        2.11805
         O 40 -- Zr 8              0.43        2.11805
         O 18 -- Zr 7              0.43        2.11807
         O 55 -- Zr 7              0.43        2.11807
         O 47 -- Zr 4              0.43        2.11807
         O 39 -- Zr 4              0.43        2.11807
         O 53 -- Zr 7              0.43        2.11807
         O 21 -- Zr 7              0.43        2.11807
         O 49 -- Zr 4              0.43        2.11807
         O 37 -- Zr 4              0.43        2.11807
         O 33 -- Zr 11             0.42        2.11831
         O 10 -- Zr 9              0.42        2.11831
         O 28 -- Zr 10             0.42        2.11831
         O 28 -- Zr 5              0.42        2.11831
         O 42 -- Zr 2              0.42        2.11831
         O 42 -- Zr 12             0.42        2.11831
         O 10 -- Zr 6              0.42        2.11831
         O 33 -- Zr 3              0.42        2.11831
         O 43 -- Zr 2              0.45        2.11854
         O 13 -- Zr 12             0.45        2.11854
         O 32 -- Zr 11             0.45        2.11854
         O 22 -- Zr 10             0.45        2.11854
         O 29 -- Zr 5              0.45        2.11854
         O 36 -- Zr 3              0.45        2.11854
         O 17 -- Zr 9              0.45        2.11854
         O 16 -- Zr 6              0.45        2.11854
         O 19 -- Zr 10             0.45        2.11890
         O 15 -- Zr 11             0.45        2.11890
         O 35 -- Zr 2              0.45        2.11890
         O 30 -- Zr 12             0.45        2.11890
[...]
         O 47 -- O 51             -0.03        2.82511
         O 25 -- O 39             -0.03        2.82511
         O 11 -- O 37             -0.03        2.82511
         O 11 -- O 21             -0.03        2.82511
         O 46 -- O 49             -0.03        2.82511
         O 18 -- O 25             -0.03        2.82511
         O 51 -- O 55             -0.03        2.82511
         O 36 -- O 44             -0.03        2.82588
         O 15 -- O 32             -0.03        2.82588
         O 14 -- O 29             -0.03        2.82588
         O 19 -- O 22             -0.03        2.82588
         O 16 -- O 31             -0.03        2.82588
         O 35 -- O 43             -0.03        2.82588
         O 17 -- O 24             -0.03        2.82588
         O 13 -- O 30             -0.03        2.82588

Writing analysis data to 01.castep_bin

Writing model to 01.check

 A BibTeX formatted list of references used in this run has been written to
 01.bib

Initialisation time =     53.45 s
Calculation time    =  32098.50 s
Finalisation time   =     34.91 s
Total time          =  32186.85 s

Overall parallel efficiency rating: Good (77%)

Data was distributed by:-
G-vector (4-way); efficiency rating: Good (79%)
k-point (14-way); efficiency rating: Excellent (96%)