 Compiled for linux_x86_64_ifort16 on Sat, 23 Jul 2016 23:44:54 +0100
 from code version
 203e84763863+ Castep161_branch Fri, 04 Mar 2016 19:21:07 +0000
 Compiler: Intel Fortran 16.0.3.210; Optimisation: fast
 MATHLIBS: Intel MKL(11.3.3) (LAPACK version 3.6.0)
 FFT Lib : mkl
 Fundamental constants values: CODATA 2010

 Run started: Sat, 23 Dec 2017 10:59:27 +0000
 |           N   N    M   M    RRRR                |
 |           NN  N    MM MM    R   R               |
 |           N N N    M M M    RRRR                |
 |           N  NN    M   M    R  R                |
 |           N   N    M   M    R   R               |
 | Welcome to Materials Studio CASTEP-NMR          |
 | Authors:                                        |
 | J.R. Yates, C.J. Pickard, F. Mauri              |
 | Contributors:                                   |
 | T.F.G. Green, S.A. Joyce                        |
 | Copyright (c) 2004 - 2015                       |
 | Please cite the appropriate publications in all |
 | work arising from your use of CASTEP NMR.       |
 | For NMR Shielding Tensors cite:                 |
 |    "All-electron magnetic response with         |
 |    pseudopotentials: NMR chemical shifts",      |
 |    C. J. Pickard, F. Mauri;                     |
 |    Physical Review B63 245101 (2001), and       |
 |    "Calculation of NMR Chemical Shifts          |
 |    for extended systems using                   |
 |    Ultrasoft Pseudopotentials",                 |
 |    J. R. Yates, C. J. Pickard and F. Mauri      |
 |    Physical Review B76 024401 (2007)            |
 | For Electric Field Gradients cite:              |
 |   "Accurate First Principles Prediction of 17O  |
 |    NMR Parameters in SiO2: Assignment of the    |
 |    Zeolite Ferrierite Spectrum"                 |
 |    M. Profeta, F. Mauri and C. J. Pickard       |
 |    J. Amer. Chem. Soc. 125 541 (2003)           |
 | For Spin-Spin (J) Couplings cite:               |
 |   "A first principles theory of NMR J-coupling  |
 |   in solid-state systems"                       |
 |   S.A. Joyce, J.R. Yates, C.J. Pickard, F. Mauri|
 |   J. Chem. Phys. 127 204107 (2007)              |
 |   "Relativistic NMR J-coupling with ultrasoft   |
 |   pseudopotentials and the zeroth-order regular |
 |   approximation"                                |
 |   T.F.G. Green and J.R. Yates                   |
 |   J. Chem. Phys. 140 234106 (2014)              |

 Atomic calculation performed for O: 1s2 2s2 2p4

 Converged in 44 iterations to an ae energy of -2040.855 eV

 Atomic calculation performed for O: 1s2 2s2 2p4

 Exceeded max iterations: converged to 0.000000062 eV

   | Pseudopotential Report - Date of generation 23-12-2017   |
   | Element: O Ionic charge:  6.00 Level of theory: PBE      |
   | Atomic Solver: ZORA (scalar)                             |
   |               Reference Electronic Structure             |
   |         Orbital         Occupation         Energy        |
   |            2s              2.000           -0.881        |
   |            2p              4.000           -0.332        |
   |                 Pseudopotential Definition               |
   |        Beta     l      e      Rc     scheme   norm       |
   |          1      0   -0.881   1.100     qc      0         |
   |          2      0    0.250   1.100     qc      0         |
   |          3      1   -0.332   1.100     qc      0         |
   |          4      1    0.250   1.100     qc      0         |
   |         loc     2    0.000   1.100     pn      0         |
   | Augmentation charge Rinner = 0.769                       |
   | Partial core correction Rc = 0.769                       |
   | "2|1.1|15|18|20|20:21(qc=7)"                             |
   |      Author: Chris J. Pickard, Cambridge University      |

 Atomic calculation performed for Zr: 1s2 2s2 2p6 3s2 3p6 3d10 4s2 4p6 4d2 5s2

[...]

 Atomic calculation performed for Zr: 1s2 2s2 2p6 3s2 3p6 3d10 4s2 4p6 4d2 5s2

[...]

 Warning: ion_atom_descreen_psp: negative charge density encountered
   | Pseudopotential Report - Date of generation 23-12-2017   |
   | Element: Zr Ionic charge: 12.00 Level of theory: PBE     |
   | Atomic Solver: ZORA (scalar)                             |
   |               Reference Electronic Structure             |
   |         Orbital         Occupation         Energy        |
   |            4s              2.000           -2.003        |
   |            4p              6.000           -1.193        |
   |            5s              2.000           -0.163        |
   |            4d              2.000           -0.132        |
   |                 Pseudopotential Definition               |
   |        Beta     l      e      Rc     scheme   norm       |
   |          1      0   -2.003   2.105     qc      0         |
   |          2      0   -0.163   2.105     qc      0         |
   |          3      0    0.250   2.105     qc      0         |
   |          4      1   -1.193   2.105     qc      0         |
   |          5      1    0.250   2.105     qc      0         |
   |          6      2   -0.132   2.105     qc      0         |
   |          7      2    0.250   2.105     qc      0         |
   |         loc     3    0.000   2.105     pn      0         |
   | Augmentation charge Rinner = 1.471                       |
   | Partial core correction Rc = 1.471                       |
   | "3|2.1|7|8|9|40U:50:41:42"                               |
   |      Author: Chris J. Pickard, Cambridge University      |

 Atomic calculation performed for Sn:

[...]

 Atomic calculation performed for Sn:

[...]

   | Pseudopotential Report - Date of generation 23-12-2017   |
   | Element: Sn Ionic charge: 14.00 Level of theory: PBE     |
   | Atomic Solver: ZORA (scalar)                             |
   |               Reference Electronic Structure             |
   |         Orbital         Occupation         Energy        |
   |            4d             10.000           -0.950        |
   |            5s              2.000           -0.388        |
   |            5p              2.000           -0.136        |
   |                 Pseudopotential Definition               |
   |        Beta     l      e      Rc     scheme   norm       |
   |          1      0   -0.388   2.199     qc      0         |
   |          2      0    0.250   2.199     qc      0         |
   |          3      1   -0.136   2.199     qc      0         |
   |          4      1    0.250   2.199     qc      0         |
   |          5      2   -0.950   2.199     qc      0         |
   |          6      2    0.250   2.199     qc      0         |
   |         loc     3    0.000   2.199     pn      0         |
   | Augmentation charge Rinner = 1.537                       |
   | Partial core correction Rc = 1.537                       |
   | "3|2.2|7|8|9|50:51:42"                                   |
   |      Author: Chris J. Pickard, Cambridge University      |

 Atomic calculation performed for La:

 Converged in 56 iterations to an ae energy of -230121.495 eV

 Atomic calculation performed for La:

 Exceeded max iterations: converged to 0.000000907 eV

 Warning: ion_atom_descreen_psp: negative charge density encountered
   | Pseudopotential Report - Date of generation 23-12-2017   |
   | Element: La Ionic charge: 11.00 Level of theory: PBE     |
   | Atomic Solver: ZORA (scalar)                             |
   |               Reference Electronic Structure             |
   |         Orbital         Occupation         Energy        |
   |            5s              2.000           -1.430        |
   |            5p              6.000           -0.823        |
   |            6s              2.000           -0.135        |
   |            5d              1.000           -0.114        |
   |                 Pseudopotential Definition               |
   |        Beta     l      e      Rc     scheme   norm       |
   |          1      0   -1.430   2.298     qc      0         |
   |          2      0   -0.135   2.298     qc      0         |
   |          3      0    0.250   2.298     qc      0         |
   |          4      1   -0.823   2.298     qc      0         |
   |          5      1    0.250   2.298     qc      0         |
   |          6      2   -0.114   2.298     qc      0         |
   |          7      2    0.250   2.298     qc      0         |
   |         loc     2    0.000   2.298     pn      0         |
   | Augmentation charge Rinner = 1.606                       |
   | Partial core correction Rc = 1.606                       |
   | "2|2.3|5|6|7|50U:60:51:52(qc=4.5)"                       |
   |      Author: Chris J. Pickard, Cambridge University      |

 Pseudo atomic calculation performed for O 2s2 2p4

 Converged in 39 iterations to a total energy of -432.6554 eV

 Pseudo atomic calculation performed for Zr 4s2 4p6 4d2 5s2

[...]

 Calculation parallelised over 56 processes.
 Data is distributed by G-vector(4-way) and k-point(14-way)

 ************************************ Title ************************************
 nmr testing

 ***************************** General Parameters ******************************

 output verbosity                               : normal  (1)
 write checkpoint data to                       : 05.check
 type of calculation                            : Magnetic Resonance
 stress calculation                             : on
 density difference calculation                 : off
 electron localisation func (ELF) calculation   : off
 Hirshfeld analysis                             : off
 unlimited duration calculation
 timing information                             : on
 write final potential to formatted file        : off
 write final density to formatted file          : off
 write structure in CIF formatted file          : on
 write structure in CELL formatted file         : on
 write BibTeX reference list                    : on
 write OTFG pseudopotential files               : on
 checkpoint writing                             : both castep_bin and check files

 output         length unit                     : A
 output           mass unit                     : amu
 output           time unit                     : ps
 output         charge unit                     : e
 output           spin unit                     : hbar/2
 output         energy unit                     : eV
 output          force unit                     : eV/A
 output       velocity unit                     : A/ps
 output       pressure unit                     : GPa
 output     inv_length unit                     : 1/A
 output      frequency unit                     : cm-1
 output force constant unit                     : eV/A**2
 output         volume unit                     : A**3
 output   IR intensity unit                     : (D/A)**2/amu
 output         dipole unit                     : D
 output         efield unit                     : eV/A/e
 output        entropy unit                     : J/mol/K

 wavefunctions paging                           : none
 random number generator seed                   : randomised (105929212)
 data distribution                              : optimal for this architecture
[...]
  |    O          41      -87.23      85.04      0.12  -3.187E+00   0.11 |
  |    O          42      -87.16      83.58      0.11  -3.189E+00   0.11 |
  |    O          43     -167.02     161.60      0.81   1.084E+00   0.96 |
  |    O          44      -88.00      89.17      0.37  -3.079E+00   0.10 |
  |    O          45     -164.35     156.10      0.82   1.065E+00   0.89 |
  |    O          46     -164.52     154.70      0.83   1.060E+00   0.89 |
  |    O          47     -167.26     162.67      0.81   1.089E+00   0.95 |
  |    O          48      -88.04      90.59      0.36  -3.075E+00   0.10 |
  |    O          49     -164.99     153.26      0.76   1.048E+00   0.90 |
  |    O          50      -88.38      92.90      0.19  -3.189E+00   0.11 |
  |    O          51     -164.99     153.26      0.76   1.048E+00   0.90 |
  |    O          52      -88.38      92.89      0.19  -3.189E+00   0.11 |
  |    O          53     -167.71     158.19      0.83  -1.027E+00   1.00 |
  |    O          54     -167.64     158.24      0.83  -1.027E+00   1.00 |
  |    O          55     -164.52     154.69      0.83   1.060E+00   0.89 |
  |    O          56     -164.35     156.11      0.82   1.065E+00   0.89 |
  |    Zr          1     1627.30    -128.00      0.16  -3.838E+01   0.00 |
  |    Zr          2     1628.75    -125.72      0.13  -4.017E+01   0.10 |
  |    Zr          3     1626.72    -128.04      0.16  -3.837E+01   0.01 |
  |    Zr          4     1628.66    -125.58      0.12  -4.016E+01   0.08 |
[...]
  |    La          2     4709.65     766.76      0.03  -8.236E+01   0.07 |
  |    La          3     4799.20     963.50      0.02  -8.630E+01   0.02 |
  |    La          4     4709.49     765.59      0.03  -8.225E+01   0.07 |
  |    La          5     4709.65     766.76      0.03  -8.236E+01   0.07 |
  |    La          6     4709.49     765.59      0.03  -8.225E+01   0.07 |
  |    La          7     4799.20     963.50      0.02  -8.630E+01   0.02 |
  |    La          8     4709.35     764.44      0.04  -8.218E+01   0.07 |
  |    La          9     4799.01     962.19      0.02  -8.620E+01   0.03 |
  |    La         10     4709.13     764.30      0.03  -8.222E+01   0.07 |
  |    La         11     4704.29     759.27      0.05  -8.012E+01   0.10 |
  |    La         12     4704.87     761.75      0.05  -8.025E+01   0.10 |
  |    La         13     4709.35     764.44      0.04  -8.218E+01   0.07 |
  |    La         14     4704.86     761.74      0.05  -8.025E+01   0.10 |
  |    La         15     4709.13     764.29      0.03  -8.222E+01   0.07 |
  |    La         16     4704.75     761.64      0.05  -8.021E+01   0.10 |

 *********************** Forces ***********************
 *            Cartesian components (eV/A)             *
 *                   x            y            z      *
 * O         1     -0.00321     -0.00321     -0.00225 *
 * O         2     -0.00184      0.00578      0.00488 *
 * O         3      0.00577     -0.00184      0.00489 *
 * O         4      0.00476      0.00477     -0.00081 *
 * O         5      0.00199      0.00105     -0.00005 *
 * O         6      0.00238      0.00237      0.00937 *
 * O         7      0.00204      0.00203     -0.00094 *
 * O         8      0.00106      0.00198     -0.00005 *
 * O         9     -0.00716      0.00970      0.01025 *
 * O        10     -0.00746      0.01204     -0.00158 *
 * O        11      0.00936      0.01222     -0.01134 *
 * O        12      0.00668      0.01141      0.00185 *
 * O        13      0.00970     -0.00716      0.01025 *
 * O        14     -0.01393      0.01150      0.01387 *
 * O        15      0.01222      0.00936     -0.01134 *
 * O        16     -0.01696     -0.00873     -0.01380 *
 * O        17     -0.00316     -0.00316     -0.00427 *
 * O        18      0.00885     -0.00318      0.00809 *
 * O        19      0.00340      0.00340     -0.01380 *
 * O        20     -0.00879      0.00085      0.01049 *
 * O        21     -0.00257      0.00343      0.01059 *
 * O        22     -0.00142     -0.00045      0.00400 *
 * O        23     -0.00154     -0.00300     -0.00531 *
 * O        24      0.00913      0.00236     -0.01224 *
 * O        25      0.00235      0.00913     -0.01224 *
 * O        26      0.00175      0.00529      0.01047 *
 * O        27     -0.00045     -0.00142      0.00400 *
 * O        28     -0.00089     -0.00279     -0.00278 *
 * O        29     -0.00588     -0.00191      0.00178 *
 * O        30      0.00154      0.00154     -0.00582 *
 * O        31     -0.00443      0.00067     -0.00205 *
 * O        32      0.00197      0.00197      0.00919 *
 * O        33      0.00343     -0.00257      0.01058 *
 * O        34     -0.00300     -0.00153     -0.00531 *
 * O        35     -0.00279     -0.00089     -0.00278 *
 * O        36      0.00529      0.00175      0.01047 *
 * O        37      0.00067     -0.00443     -0.00205 *
 * O        38     -0.00191     -0.00588      0.00178 *
 * O        39      0.01204     -0.00746     -0.00158 *
 * O        40      0.01141      0.00668      0.00185 *
 * O        41     -0.00873     -0.01696     -0.01380 *
 * O        42      0.01150     -0.01393      0.01387 *
 * O        43      0.00084     -0.00879      0.01049 *
 * O        44     -0.00318      0.00885      0.00809 *
 * O        45      0.00499     -0.00983     -0.00361 *
 * O        46     -0.00542     -0.00719      0.00213 *
 * O        47     -0.00699     -0.00700     -0.00863 *
 * O        48      0.00779      0.00779     -0.00482 *
 * O        49     -0.00208      0.00054      0.00666 *
 * O        50     -0.00663     -0.00052     -0.01280 *
 * O        51      0.00054     -0.00208      0.00666 *
 * O        52     -0.00052     -0.00663     -0.01280 *
 * O        53      0.00389      0.00389      0.01296 *
 * O        54      0.00380      0.00380     -0.01016 *
 * O        55     -0.00719     -0.00542      0.00213 *
 * O        56     -0.00983      0.00499     -0.00361 *
 * Zr        1      0.00546      0.00546     -0.01427 *
 * Zr        2     -0.00336     -0.00638      0.00020 *
 * Zr        3     -0.00390      0.00584      0.00398 *
 * Zr        4     -0.00929      0.00510     -0.00474 *
[...]
 * La        2      0.00182     -0.01365     -0.00457 *
 * La        3     -0.00867     -0.00393      0.00903 *
 * La        4     -0.00045     -0.00733      0.00542 *
 * La        5     -0.01365      0.00182     -0.00457 *
 * La        6     -0.00733     -0.00044      0.00542 *
 * La        7     -0.00393     -0.00867      0.00903 *
 * La        8     -0.00156      0.01572     -0.00110 *
 * La        9     -0.00214     -0.00213     -0.01122 *
 * La       10      0.00960      0.01440      0.00512 *
 * La       11      0.01427      0.01427      0.01705 *
 * La       12      0.00703     -0.01185     -0.01608 *
 * La       13      0.01572     -0.00156     -0.00110 *
 * La       14     -0.01186      0.00703     -0.01608 *
 * La       15      0.01441      0.00960      0.00512 *
 * La       16     -0.00739     -0.00739      0.01436 *

 ***************** Stress Tensor *****************
 *          Cartesian components (GPa)           *
 *             x             y             z     *
 *  x     -0.024023     -0.000538     -0.000153  *
 *  y     -0.000538     -0.024028     -0.000127  *
 *  z     -0.000153     -0.000127      0.072745  *
 *  Pressure:   -0.0082                          *

[...]

 Pseudo atomic calculation performed for Sn 4d10 5s2 5p2

[...]

 Pseudo atomic calculation performed for La 5s2 5p6 5d1 6s2

 Converged in 34 iterations to a total energy of -968.0372 eV

Charge spilling parameter for spin component 1 = 0.22%

     Atomic Populations (Mulliken)
Species   Ion     s      p      d      f     Total  Charge (e)
  O        1     1.87   5.00   0.00   0.00   6.87    -0.87
  O        2     1.87   5.00   0.00   0.00   6.87    -0.87
  O        3     1.87   5.00   0.00   0.00   6.87    -0.87
  O        4     1.87   5.00   0.00   0.00   6.87    -0.87
  O        5     1.87   5.00   0.00   0.00   6.87    -0.87
  O        6     1.87   5.00   0.00   0.00   6.87    -0.87
  O        7     1.87   5.00   0.00   0.00   6.87    -0.87
  O        8     1.87   5.00   0.00   0.00   6.87    -0.87
  O        9     1.87   4.98   0.00   0.00   6.85    -0.85
  O       10     1.86   4.94   0.00   0.00   6.80    -0.80
  O       11     1.87   4.98   0.00   0.00   6.85    -0.85
  O       12     1.86   4.94   0.00   0.00   6.80    -0.80
  O       13     1.87   4.98   0.00   0.00   6.85    -0.85
  O       14     1.87   4.98   0.00   0.00   6.85    -0.85
  O       15     1.87   4.98   0.00   0.00   6.85    -0.85
  O       16     1.87   4.98   0.00   0.00   6.85    -0.85
  O       17     1.87   4.98   0.00   0.00   6.85    -0.85
  O       18     1.87   4.98   0.00   0.00   6.85    -0.85
  O       19     1.86   4.94   0.00   0.00   6.80    -0.80
  O       20     1.85   4.94   0.00   0.00   6.80    -0.80
  O       21     1.87   4.99   0.00   0.00   6.85    -0.85
  O       22     1.86   4.94   0.00   0.00   6.80    -0.80
  O       23     1.86   4.94   0.00   0.00   6.80    -0.80
  O       24     1.87   4.99   0.00   0.00   6.85    -0.85
  O       25     1.87   4.99   0.00   0.00   6.85    -0.85
  O       26     1.87   4.99   0.00   0.00   6.85    -0.85
  O       27     1.86   4.94   0.00   0.00   6.80    -0.80
  O       28     1.86   4.94   0.00   0.00   6.80    -0.80
  O       29     1.86   4.94   0.00   0.00   6.80    -0.80
  O       30     1.88   5.02   0.00   0.00   6.91    -0.91
  O       31     1.86   4.94   0.00   0.00   6.80    -0.80
  O       32     1.88   5.02   0.00   0.00   6.91    -0.91
  O       33     1.87   4.99   0.00   0.00   6.85    -0.85
  O       34     1.86   4.94   0.00   0.00   6.80    -0.80
  O       35     1.86   4.94   0.00   0.00   6.80    -0.80
  O       36     1.87   4.99   0.00   0.00   6.85    -0.85
  O       37     1.86   4.94   0.00   0.00   6.80    -0.80
  O       38     1.86   4.94   0.00   0.00   6.80    -0.80
  O       39     1.86   4.94   0.00   0.00   6.80    -0.80
  O       40     1.86   4.94   0.00   0.00   6.80    -0.80
  O       41     1.87   4.98   0.00   0.00   6.85    -0.85
  O       42     1.87   4.98   0.00   0.00   6.85    -0.85
  O       43     1.85   4.94   0.00   0.00   6.80    -0.80
  O       44     1.87   4.98   0.00   0.00   6.85    -0.85
  O       45     1.86   4.94   0.00   0.00   6.80    -0.80
  O       46     1.86   4.94   0.00   0.00   6.80    -0.80
  O       47     1.85   4.94   0.00   0.00   6.80    -0.80
  O       48     1.87   4.98   0.00   0.00   6.85    -0.85
  O       49     1.86   4.94   0.00   0.00   6.80    -0.80
  O       50     1.87   4.99   0.00   0.00   6.85    -0.85
  O       51     1.86   4.94   0.00   0.00   6.80    -0.80
  O       52     1.87   4.99   0.00   0.00   6.85    -0.85
  O       53     1.86   4.94   0.00   0.00   6.80    -0.80
  O       54     1.86   4.94   0.00   0.00   6.80    -0.80
  O       55     1.86   4.94   0.00   0.00   6.80    -0.80
  O       56     1.86   4.94   0.00   0.00   6.80    -0.80
  Zr       1     2.38   6.49   1.92   0.00  10.80     1.20
  Zr       2     2.37   6.48   1.93   0.00  10.78     1.22
  Zr       3     2.38   6.49   1.92   0.00  10.80     1.20
  Zr       4     2.37   6.48   1.93   0.00  10.78     1.22
[...]
  La       2     2.07   6.17   1.19   0.00   9.43     1.57
  La       3     2.03   6.13   1.19   0.00   9.35     1.65
  La       4     2.07   6.17   1.19   0.00   9.43     1.57
  La       5     2.07   6.17   1.19   0.00   9.43     1.57
  La       6     2.07   6.17   1.19   0.00   9.43     1.57
  La       7     2.03   6.13   1.19   0.00   9.35     1.65
  La       8     2.07   6.17   1.19   0.00   9.43     1.57
  La       9     2.03   6.13   1.19   0.00   9.35     1.65
  La      10     2.07   6.17   1.19   0.00   9.43     1.57
  La      11     2.07   6.17   1.19   0.00   9.43     1.57
  La      12     2.07   6.17   1.19   0.00   9.42     1.58
  La      13     2.07   6.17   1.19   0.00   9.43     1.57
  La      14     2.07   6.17   1.19   0.00   9.42     1.58
  La      15     2.07   6.17   1.19   0.00   9.43     1.57
  La      16     2.07   6.17   1.19   0.00   9.42     1.58

            Bond              Population      Length (A)
         O 36 -- Sn 4              0.35        2.10345
         O 26 -- Sn 4              0.35        2.10345
         O 33 -- Sn 1              0.35        2.10391
         O 21 -- Sn 1              0.35        2.10391
         O 25 -- Sn 2              0.35        2.10402
         O 24 -- Sn 3              0.35        2.10402
         O 50 -- Sn 2              0.35        2.10463
         O 52 -- Sn 3              0.35        2.10463
         O 13 -- Sn 2              0.35        2.10516
         O 9  -- Sn 3              0.35        2.10516
         O 16 -- Sn 4              0.35        2.10563
         O 41 -- Sn 4              0.35        2.10563
         O 11 -- Sn 1              0.35        2.10568
         O 15 -- Sn 1              0.35        2.10568
         O 42 -- Sn 2              0.35        2.10571
         O 14 -- Sn 3              0.35        2.10571
         O 43 -- Zr 2              0.43        2.11034
         O 20 -- Zr 5              0.43        2.11034
         O 32 -- Sn 4              0.34        2.11113
         O 30 -- Sn 3              0.33        2.11113
         O 30 -- Sn 2              0.33        2.11113
         O 17 -- Sn 4              0.34        2.11120
         O 32 -- Sn 1              0.33        2.11133
         O 48 -- Sn 1              0.34        2.11150
         O 44 -- Sn 3              0.34        2.11163
         O 18 -- Sn 2              0.34        2.11163
         O 47 -- Zr 4              0.43        2.11194
         O 47 -- Zr 6              0.43        2.11194
         O 19 -- Zr 12             0.43        2.11456
         O 19 -- Zr 10             0.43        2.11456
         O 43 -- Zr 11             0.42        2.11541
         O 20 -- Zr 8              0.42        2.11541
         O 28 -- Zr 5              0.44        2.11620
         O 35 -- Zr 2              0.44        2.11620
         O 51 -- Zr 6              0.44        2.11676
         O 49 -- Zr 4              0.44        2.11676
         O 23 -- Zr 8              0.44        2.11718
         O 34 -- Zr 11             0.44        2.11718
         O 46 -- Zr 3              0.43        2.11739
         O 55 -- Zr 7              0.43        2.11739
         O 54 -- Zr 9              0.43        2.11755
         O 16 -- Zr 6              0.46        2.11771
         O 41 -- Zr 4              0.46        2.11771
         O 56 -- Zr 10             0.43        2.11778
         O 45 -- Zr 12             0.43        2.11778
         O 38 -- Zr 8              0.43        2.11806
         O 29 -- Zr 11             0.43        2.11806
         O 53 -- Zr 7              0.43        2.11819
         O 53 -- Zr 3              0.43        2.11819
         O 56 -- Zr 1              0.43        2.11825
         O 45 -- Zr 1              0.43        2.11825
         O 10 -- Zr 9              0.43        2.11845
         O 39 -- Zr 9              0.43        2.11845
         O 40 -- Zr 3              0.43        2.11853
         O 12 -- Zr 7              0.43        2.11853
         O 31 -- Zr 12             0.43        2.11888
         O 37 -- Zr 10             0.43        2.11888
         O 22 -- Zr 10             0.43        2.11908
         O 27 -- Zr 12             0.43        2.11908
         O 54 -- Zr 1              0.43        2.11913
[...]
         O 48 -- O 52             -0.03        2.82846
         O 18 -- O 26             -0.03        2.82863
         O 36 -- O 44             -0.03        2.82863
         O 17 -- O 25             -0.03        2.82864
         O 17 -- O 24             -0.03        2.82865
         O 33 -- O 44             -0.03        2.82870
         O 18 -- O 21             -0.03        2.82870
         O 38 -- O 42             -0.03        2.82996
         O 14 -- O 29             -0.03        2.82996
         O 16 -- O 31             -0.03        2.83026
         O 37 -- O 41             -0.03        2.83026
         O 11 -- O 37             -0.03        2.83046
         O 15 -- O 31             -0.03        2.83046
         O 13 -- O 29             -0.03        2.83061
         O 9  -- O 38             -0.03        2.83061

Writing analysis data to 05.castep_bin

Writing model to 05.check

 A BibTeX formatted list of references used in this run has been written to
 05.bib

Initialisation time =     53.66 s
Calculation time    =  32986.46 s
Finalisation time   =     36.39 s
Total time          =  33076.51 s

Overall parallel efficiency rating: Good (79%)

Data was distributed by:-
G-vector (4-way); efficiency rating: Good (79%)
k-point (14-way); efficiency rating: Excellent (99%)