 Compiled for linux_x86_64_ifort16 on Sat, 23 Jul 2016 23:44:54 +0100
 from code version
 203e84763863+ Castep161_branch Fri, 04 Mar 2016 19:21:07 +0000
 Compiler: Intel Fortran 16.0.3.210; Optimisation: fast
 MATHLIBS: Intel MKL(11.3.3) (LAPACK version 3.6.0)
 FFT Lib : mkl
 Fundamental constants values: CODATA 2010

 Run started: Sun, 24 Dec 2017 23:43:58 +0000
 |           N   N    M   M    RRRR                |
 |           NN  N    MM MM    R   R               |
 |           N N N    M M M    RRRR                |
 |           N  NN    M   M    R  R                |
 |           N   N    M   M    R   R               |
 | Welcome to Materials Studio CASTEP-NMR          |
 | Authors:                                        |
 | J.R. Yates, C.J. Pickard, F. Mauri              |
 | Contributors:                                   |
 | T.F.G. Green, S.A. Joyce                        |
 | Copyright (c) 2004 - 2015                       |
 | Please cite the appropriate publications in all |
 | work arising from your use of CASTEP NMR.       |
 | For NMR Shielding Tensors cite:                 |
 |    "All-electron magnetic response with         |
 |    pseudopotentials: NMR chemical shifts",      |
 |    C. J. Pickard, F. Mauri;                     |
 |    Physical Review B63 245101 (2001), and       |
 |    "Calculation of NMR Chemical Shifts          |
 |    for extended systems using                   |
 |    Ultrasoft Pseudopotentials",                 |
 |    J. R. Yates, C. J. Pickard and F. Mauri      |
 |    Physical Review B76 024401 (2007)            |
 | For Electric Field Gradients cite:              |
 |   "Accurate First Principles Prediction of 17O  |
 |    NMR Parameters in SiO2: Assignment of the    |
 |    Zeolite Ferrierite Spectrum"                 |
 |    M. Profeta, F. Mauri and C. J. Pickard       |
 |    J. Amer. Chem. Soc. 125 541 (2003)           |
 | For Spin-Spin (J) Couplings cite:               |
 |   "A first principles theory of NMR J-coupling  |
 |   in solid-state systems"                       |
 |   S.A. Joyce, J.R. Yates, C.J. Pickard, F. Mauri|
 |   J. Chem. Phys. 127 204107 (2007)              |
 |   "Relativistic NMR J-coupling with ultrasoft   |
 |   pseudopotentials and the zeroth-order regular |
 |   approximation"                                |
 |   T.F.G. Green and J.R. Yates                   |
 |   J. Chem. Phys. 140 234106 (2014)              |

 Atomic calculation performed for O: 1s2 2s2 2p4

 Converged in 44 iterations to an ae energy of -2040.855 eV

 Atomic calculation performed for O: 1s2 2s2 2p4

 Exceeded max iterations: converged to 0.000000062 eV

   | Pseudopotential Report - Date of generation 24-12-2017   |
   | Element: O Ionic charge:  6.00 Level of theory: PBE      |
   | Atomic Solver: ZORA (scalar)                             |
   |               Reference Electronic Structure             |
   |         Orbital         Occupation         Energy        |
   |            2s              2.000           -0.881        |
   |            2p              4.000           -0.332        |
   |                 Pseudopotential Definition               |
   |        Beta     l      e      Rc     scheme   norm       |
   |          1      0   -0.881   1.100     qc      0         |
   |          2      0    0.250   1.100     qc      0         |
   |          3      1   -0.332   1.100     qc      0         |
   |          4      1    0.250   1.100     qc      0         |
   |         loc     2    0.000   1.100     pn      0         |
   | Augmentation charge Rinner = 0.769                       |
   | Partial core correction Rc = 0.769                       |
   | "2|1.1|15|18|20|20:21(qc=7)"                             |
   |      Author: Chris J. Pickard, Cambridge University      |

 Atomic calculation performed for Zr: 1s2 2s2 2p6 3s2 3p6 3d10 4s2 4p6 4d2 5s2

[...]

 Atomic calculation performed for Zr: 1s2 2s2 2p6 3s2 3p6 3d10 4s2 4p6 4d2 5s2

[...]

 Warning: ion_atom_descreen_psp: negative charge density encountered
   | Pseudopotential Report - Date of generation 24-12-2017   |
   | Element: Zr Ionic charge: 12.00 Level of theory: PBE     |
   | Atomic Solver: ZORA (scalar)                             |
   |               Reference Electronic Structure             |
   |         Orbital         Occupation         Energy        |
   |            4s              2.000           -2.003        |
   |            4p              6.000           -1.193        |
   |            5s              2.000           -0.163        |
   |            4d              2.000           -0.132        |
   |                 Pseudopotential Definition               |
   |        Beta     l      e      Rc     scheme   norm       |
   |          1      0   -2.003   2.105     qc      0         |
   |          2      0   -0.163   2.105     qc      0         |
   |          3      0    0.250   2.105     qc      0         |
   |          4      1   -1.193   2.105     qc      0         |
   |          5      1    0.250   2.105     qc      0         |
   |          6      2   -0.132   2.105     qc      0         |
   |          7      2    0.250   2.105     qc      0         |
   |         loc     3    0.000   2.105     pn      0         |
   | Augmentation charge Rinner = 1.471                       |
   | Partial core correction Rc = 1.471                       |
   | "3|2.1|7|8|9|40U:50:41:42"                               |
   |      Author: Chris J. Pickard, Cambridge University      |

 Atomic calculation performed for Sn:

[...]

 Atomic calculation performed for Sn:

[...]

   | Pseudopotential Report - Date of generation 24-12-2017   |
   | Element: Sn Ionic charge: 14.00 Level of theory: PBE     |
   | Atomic Solver: ZORA (scalar)                             |
   |               Reference Electronic Structure             |
   |         Orbital         Occupation         Energy        |
   |            4d             10.000           -0.950        |
   |            5s              2.000           -0.388        |
   |            5p              2.000           -0.136        |
   |                 Pseudopotential Definition               |
   |        Beta     l      e      Rc     scheme   norm       |
   |          1      0   -0.388   2.199     qc      0         |
   |          2      0    0.250   2.199     qc      0         |
   |          3      1   -0.136   2.199     qc      0         |
   |          4      1    0.250   2.199     qc      0         |
   |          5      2   -0.950   2.199     qc      0         |
   |          6      2    0.250   2.199     qc      0         |
   |         loc     3    0.000   2.199     pn      0         |
   | Augmentation charge Rinner = 1.537                       |
   | Partial core correction Rc = 1.537                       |
   | "3|2.2|7|8|9|50:51:42"                                   |
   |      Author: Chris J. Pickard, Cambridge University      |

 Atomic calculation performed for La:

 Converged in 56 iterations to an ae energy of -230121.495 eV

 Atomic calculation performed for La:

 Exceeded max iterations: converged to 0.000000907 eV

 Warning: ion_atom_descreen_psp: negative charge density encountered
   | Pseudopotential Report - Date of generation 24-12-2017   |
   | Element: La Ionic charge: 11.00 Level of theory: PBE     |
   | Atomic Solver: ZORA (scalar)                             |
   |               Reference Electronic Structure             |
   |         Orbital         Occupation         Energy        |
   |            5s              2.000           -1.430        |
   |            5p              6.000           -0.823        |
   |            6s              2.000           -0.135        |
   |            5d              1.000           -0.114        |
   |                 Pseudopotential Definition               |
   |        Beta     l      e      Rc     scheme   norm       |
   |          1      0   -1.430   2.298     qc      0         |
   |          2      0   -0.135   2.298     qc      0         |
   |          3      0    0.250   2.298     qc      0         |
   |          4      1   -0.823   2.298     qc      0         |
   |          5      1    0.250   2.298     qc      0         |
   |          6      2   -0.114   2.298     qc      0         |
   |          7      2    0.250   2.298     qc      0         |
   |         loc     2    0.000   2.298     pn      0         |
   | Augmentation charge Rinner = 1.606                       |
   | Partial core correction Rc = 1.606                       |
   | "2|2.3|5|6|7|50U:60:51:52(qc=4.5)"                       |
   |      Author: Chris J. Pickard, Cambridge University      |

 Pseudo atomic calculation performed for O 2s2 2p4

 Converged in 39 iterations to a total energy of -432.6554 eV

 Pseudo atomic calculation performed for Zr 4s2 4p6 4d2 5s2

[...]

 Calculation parallelised over 56 processes.
 Data is distributed by G-vector(4-way) and k-point(14-way)

 ************************************ Title ************************************
 nmr testing

 ***************************** General Parameters ******************************

 output verbosity                               : normal  (1)
 write checkpoint data to                       : 09.check
 type of calculation                            : Magnetic Resonance
 stress calculation                             : on
 density difference calculation                 : off
 electron localisation func (ELF) calculation   : off
 Hirshfeld analysis                             : off
 unlimited duration calculation
 timing information                             : on
 write final potential to formatted file        : off
 write final density to formatted file          : off
 write structure in CIF formatted file          : on
 write structure in CELL formatted file         : on
 write BibTeX reference list                    : on
 write OTFG pseudopotential files               : on
 checkpoint writing                             : both castep_bin and check files

 output         length unit                     : A
 output           mass unit                     : amu
 output           time unit                     : ps
 output         charge unit                     : e
 output           spin unit                     : hbar/2
 output         energy unit                     : eV
 output          force unit                     : eV/A
 output       velocity unit                     : A/ps
 output       pressure unit                     : GPa
 output     inv_length unit                     : 1/A
 output      frequency unit                     : cm-1
 output force constant unit                     : eV/A**2
 output         volume unit                     : A**3
 output   IR intensity unit                     : (D/A)**2/amu
 output         dipole unit                     : D
 output         efield unit                     : eV/A/e
 output        entropy unit                     : J/mol/K

 wavefunctions paging                           : none
 random number generator seed                   : randomised (234400246)
 data distribution                              : optimal for this architecture
[...]
  |    O          42      -87.95      93.44      0.23  -3.183E+00   0.11 |
  |    O          43      -86.72      86.31      0.14  -3.185E+00   0.10 |
  |    O          44     -166.82     157.24      0.77   1.054E+00   0.98 |
  |    O          45      -88.03      92.55      0.22  -3.201E+00   0.11 |
  |    O          46     -165.52     154.18      0.77   1.050E+00   0.90 |
  |    O          47     -165.55     151.45      0.76   1.039E+00   0.90 |
  |    O          48     -164.45     156.80      0.86   1.080E+00   0.87 |
  |    O          49     -168.15     160.86      0.85   1.066E+00   0.96 |
  |    O          50      -90.04      92.85      0.27  -3.138E+00   0.11 |
  |    O          51     -164.94     155.61      0.82   1.059E+00   0.90 |
  |    O          52     -164.48     156.33      0.81   1.066E+00   0.88 |
  |    O          53     -165.12     155.67      0.76   1.072E+00   0.87 |
  |    O          54     -162.99     149.08      0.82   1.094E+00   0.80 |
  |    O          55     -168.25     160.44      0.84   1.036E+00   1.00 |
  |    O          56      -92.05      85.52      0.15  -3.214E+00   0.13 |
  |    Zr          1     1627.31    -127.34      0.11  -3.840E+01   0.08 |
  |    Zr          2     1626.82    -129.98      0.21  -3.815E+01   0.05 |
  |    Zr          3     1624.31    -121.92      0.08  -4.141E+01   0.07 |
  |    Zr          4     1622.90    -124.23      0.16  -3.929E+01   0.03 |
[...]
  |    La          2     4751.22     869.82      0.05  -8.266E+01   0.06 |
  |    La          3     4715.37     762.49      0.04  -8.387E+01   0.08 |
  |    La          4     4754.93     870.03      0.04  -8.460E+01   0.03 |
  |    La          5     4704.89     769.58      0.04  -8.078E+01   0.07 |
  |    La          6     4758.84     865.51      0.05  -8.614E+01   0.09 |
  |    La          7     4754.81     865.73      0.05  -8.413E+01   0.07 |
  |    La          8     4710.40     778.97      0.12  -8.220E+01   0.14 |
  |    La          9     4654.53     629.26      0.00  -7.671E+01   0.02 |
  |    La         10     4800.71     964.81      0.01  -8.659E+01   0.03 |
  |    La         11     4703.06     755.77      0.05  -7.969E+01   0.09 |
  |    La         12     4756.36     870.59      0.05  -8.481E+01   0.08 |
  |    La         13     4752.82     877.02      0.05  -8.323E+01   0.07 |
  |    La         14     4708.32     747.75      0.03  -8.095E+01   0.07 |
  |    La         15     4705.15     760.48      0.05  -8.031E+01   0.08 |
  |    La         16     4663.36     658.12      0.09  -7.905E+01   0.14 |

 *********************** Forces ***********************
 *            Cartesian components (eV/A)             *
 *                   x            y            z      *
 * O         1     -0.00050     -0.00198     -0.00879 *
 * O         2     -0.00425      0.00305     -0.01007 *
 * O         3      0.00035      0.00390     -0.00605 *
 * O         4      0.00021      0.00563     -0.00019 *
 * O         5     -0.00629     -0.00574      0.00293 *
 * O         6      0.00389      0.00003      0.00679 *
 * O         7     -0.00323     -0.01076     -0.00117 *
 * O         8      0.00139     -0.00064      0.00242 *
 * O         9      0.00463     -0.00009      0.00459 *
 * O        10      0.00221     -0.00465      0.00423 *
 * O        11     -0.00624     -0.02564      0.02376 *
 * O        12     -0.00245     -0.02905     -0.02426 *
 * O        13     -0.00236     -0.00120     -0.00136 *
 * O        14      0.00859      0.00227      0.00694 *
 * O        15     -0.02552     -0.00645      0.01677 *
 * O        16      0.01518      0.01115      0.00786 *
 * O        17      0.00527      0.00111      0.00145 *
 * O        18      0.01630     -0.01866     -0.01734 *
 * O        19      0.00639     -0.00056     -0.00299 *
 * O        20      0.00581      0.00902      0.00264 *
 * O        21     -0.00534     -0.00674     -0.01126 *
 * O        22     -0.00265     -0.00371      0.00181 *
 * O        23      0.00129     -0.01239     -0.00164 *
 * O        24      0.00504      0.01394     -0.00156 *
 * O        25     -0.00364      0.02109     -0.02268 *
 * O        26     -0.00834     -0.01101     -0.01973 *
 * O        27      0.00396     -0.01400     -0.01844 *
 * O        28      0.00482      0.02354     -0.02901 *
 * O        29      0.02783      0.03252      0.00036 *
 * O        30     -0.02321      0.01617     -0.00166 *
 * O        31      0.01853     -0.01057     -0.00225 *
 * O        32     -0.01303     -0.00849     -0.00746 *
 * O        33     -0.00421     -0.00157      0.00239 *
 * O        34      0.00008      0.02270      0.02615 *
 * O        35      0.00854     -0.00874     -0.02077 *
 * O        36     -0.00940     -0.00896     -0.00301 *
 * O        37     -0.02104      0.01806      0.01053 *
 * O        38     -0.00720     -0.00471     -0.00928 *
 * O        39     -0.00351      0.00288      0.01115 *
 * O        40     -0.00190      0.00655      0.00672 *
 * O        41      0.00647      0.01699      0.01111 *
 * O        42     -0.00758     -0.01716      0.01900 *
 * O        43     -0.01591     -0.02551     -0.00094 *
 * O        44     -0.00267     -0.00026     -0.00762 *
 * O        45      0.00813      0.01626      0.00789 *
 * O        46     -0.00183     -0.00096     -0.00009 *
 * O        47      0.00365     -0.00096     -0.00254 *
 * O        48     -0.01769     -0.01190      0.00748 *
 * O        49      0.01379      0.02156      0.00623 *
 * O        50     -0.01073     -0.00126     -0.00974 *
 * O        51      0.01136      0.00392      0.00421 *
 * O        52     -0.00849      0.00498      0.01271 *
 * O        53      0.00397     -0.00157     -0.00122 *
 * O        54      0.01544      0.00631     -0.00856 *
 * O        55     -0.00485     -0.01822     -0.00796 *
 * O        56      0.01172      0.00840      0.01063 *
 * Zr        1     -0.01584      0.00034      0.00664 *
 * Zr        2      0.00910      0.00697     -0.01808 *
 * Zr        3      0.00532     -0.00164      0.00598 *
 * Zr        4      0.01173     -0.00674     -0.01685 *
[...]
 * La        2      0.01855     -0.00385      0.01473 *
 * La        3      0.00390      0.01216      0.00948 *
 * La        4     -0.01382     -0.00657     -0.01176 *
 * La        5     -0.00619      0.00190     -0.00408 *
 * La        6      0.00806     -0.00122     -0.01296 *
 * La        7      0.02004      0.00786      0.01267 *
 * La        8      0.00123     -0.00248     -0.00426 *
 * La        9     -0.01467     -0.00196     -0.01666 *
 * La       10     -0.00781      0.01040      0.01411 *
 * La       11      0.00059      0.01139      0.01547 *
 * La       12     -0.00602     -0.01532     -0.00790 *
 * La       13      0.00028     -0.00941      0.00675 *
 * La       14     -0.01321      0.00197     -0.01078 *
 * La       15      0.01536     -0.00003      0.01175 *
 * La       16     -0.00191      0.00179     -0.00220 *

 ***************** Stress Tensor *****************
 *          Cartesian components (GPa)           *
 *             x             y             z     *
 *  x      0.022180      0.038997     -0.033012  *
 *  y      0.038997      0.041482     -0.003796  *
 *  z     -0.033012     -0.003796      0.011984  *
 *  Pressure:   -0.0252                          *

[...]

 Pseudo atomic calculation performed for Sn 4d10 5s2 5p2

[...]

 Pseudo atomic calculation performed for La 5s2 5p6 5d1 6s2

 Converged in 34 iterations to a total energy of -968.0372 eV

Charge spilling parameter for spin component 1 = 0.22%

     Atomic Populations (Mulliken)
Species   Ion     s      p      d      f     Total  Charge (e)
  O        1     1.87   5.00   0.00   0.00   6.87    -0.87
  O        2     1.87   5.00   0.00   0.00   6.87    -0.87
  O        3     1.87   5.00   0.00   0.00   6.87    -0.87
  O        4     1.87   5.00   0.00   0.00   6.87    -0.87
  O        5     1.87   5.00   0.00   0.00   6.87    -0.87
  O        6     1.87   5.00   0.00   0.00   6.87    -0.87
  O        7     1.87   5.00   0.00   0.00   6.87    -0.87
  O        8     1.87   5.00   0.00   0.00   6.87    -0.87
  O        9     1.86   4.94   0.00   0.00   6.80    -0.80
  O       10     1.86   4.94   0.00   0.00   6.80    -0.80
  O       11     1.87   4.99   0.00   0.00   6.85    -0.85
  O       12     1.87   4.99   0.00   0.00   6.85    -0.85
  O       13     1.88   5.02   0.00   0.00   6.90    -0.90
  O       14     1.86   4.94   0.00   0.00   6.80    -0.80
  O       15     1.87   4.99   0.00   0.00   6.85    -0.85
  O       16     1.86   4.94   0.00   0.00   6.80    -0.80
  O       17     1.86   4.94   0.00   0.00   6.80    -0.80
  O       18     1.87   4.99   0.00   0.00   6.85    -0.85
  O       19     1.88   5.02   0.00   0.00   6.90    -0.90
  O       20     1.86   4.94   0.00   0.00   6.80    -0.80
  O       21     1.86   4.94   0.00   0.00   6.80    -0.80
  O       22     1.88   5.02   0.00   0.00   6.90    -0.90
  O       23     1.85   4.94   0.00   0.00   6.80    -0.80
  O       24     1.86   4.94   0.00   0.00   6.80    -0.80
  O       25     1.87   4.98   0.00   0.00   6.85    -0.85
  O       26     1.86   4.94   0.00   0.00   6.80    -0.80
  O       27     1.87   4.98   0.00   0.00   6.85    -0.85
  O       28     1.87   4.99   0.00   0.00   6.85    -0.85
  O       29     1.87   4.99   0.00   0.00   6.85    -0.85
  O       30     1.87   4.98   0.00   0.00   6.85    -0.85
  O       31     1.87   4.98   0.00   0.00   6.85    -0.85
  O       32     1.86   4.94   0.00   0.00   6.80    -0.80
  O       33     1.86   4.94   0.00   0.00   6.80    -0.80
  O       34     1.87   4.99   0.00   0.00   6.85    -0.85
  O       35     1.87   4.98   0.00   0.00   6.85    -0.85
  O       36     1.85   4.94   0.00   0.00   6.80    -0.80
  O       37     1.87   4.99   0.00   0.00   6.85    -0.85
  O       38     1.86   4.94   0.00   0.00   6.80    -0.80
  O       39     1.86   4.94   0.00   0.00   6.80    -0.80
  O       40     1.85   4.94   0.00   0.00   6.80    -0.80
  O       41     1.86   4.94   0.00   0.00   6.80    -0.80
  O       42     1.87   4.99   0.00   0.00   6.85    -0.85
  O       43     1.87   4.99   0.00   0.00   6.85    -0.85
  O       44     1.85   4.94   0.00   0.00   6.80    -0.80
  O       45     1.87   4.99   0.00   0.00   6.85    -0.85
  O       46     1.86   4.94   0.00   0.00   6.80    -0.80
  O       47     1.86   4.94   0.00   0.00   6.80    -0.80
  O       48     1.86   4.95   0.00   0.00   6.80    -0.80
  O       49     1.85   4.94   0.00   0.00   6.80    -0.80
  O       50     1.87   4.98   0.00   0.00   6.85    -0.85
  O       51     1.86   4.94   0.00   0.00   6.80    -0.80
  O       52     1.86   4.94   0.00   0.00   6.80    -0.80
  O       53     1.86   4.94   0.00   0.00   6.80    -0.80
  O       54     1.86   4.94   0.00   0.00   6.80    -0.80
  O       55     1.86   4.94   0.00   0.00   6.80    -0.80
  O       56     1.87   4.98   0.00   0.00   6.85    -0.85
  Zr       1     2.38   6.49   1.92   0.00  10.80     1.20
  Zr       2     2.38   6.50   1.92   0.00  10.80     1.20
  Zr       3     2.37   6.47   1.93   0.00  10.77     1.23
  Zr       4     2.37   6.49   1.93   0.00  10.79     1.21
[...]
  La       2     2.06   6.14   1.19   0.00   9.39     1.61
  La       3     2.07   6.17   1.19   0.00   9.43     1.57
  La       4     2.06   6.15   1.19   0.00   9.40     1.60
  La       5     2.08   6.16   1.19   0.00   9.43     1.57
  La       6     2.05   6.15   1.19   0.00   9.39     1.61
  La       7     2.05   6.15   1.19   0.00   9.39     1.61
  La       8     2.07   6.16   1.19   0.00   9.43     1.57
  La       9     2.11   6.18   1.19   0.00   9.48     1.52
  La      10     2.02   6.13   1.19   0.00   9.34     1.66
  La      11     2.09   6.16   1.19   0.00   9.44     1.56
  La      12     2.04   6.15   1.19   0.00   9.38     1.62
  La      13     2.04   6.14   1.19   0.00   9.38     1.62
  La      14     2.08   6.17   1.19   0.00   9.44     1.56
  La      15     2.07   6.16   1.19   0.00   9.43     1.57
  La      16     2.09   6.18   1.19   0.00   9.47     1.53

            Bond              Population      Length (A)
         O 18 -- Sn 2              0.35        2.10083
         O 34 -- Sn 3              0.35        2.10305
         O 12 -- Sn 3              0.35        2.10322
         O 15 -- Sn 4              0.35        2.10346
         O 30 -- Sn 2              0.35        2.10448
         O 45 -- Sn 4              0.35        2.10448
         O 11 -- Sn 1              0.35        2.10486
         O 28 -- Sn 1              0.35        2.10507
         O 27 -- Sn 4              0.35        2.10529
         O 42 -- Sn 2              0.35        2.10539
         O 29 -- Sn 3              0.35        2.10593
         O 37 -- Sn 1              0.34        2.10606
         O 25 -- Sn 2              0.35        2.10697
         O 31 -- Sn 4              0.34        2.10751
         O 43 -- Sn 3              0.35        2.10761
         O 56 -- Sn 1              0.34        2.10851
         O 23 -- Zr 6              0.43        2.11109
         O 35 -- Sn 4              0.35        2.11154
         O 48 -- Zr 10             0.42        2.11251
         O 49 -- Zr 5              0.42        2.11251
         O 50 -- Sn 2              0.34        2.11324
         O 13 -- Sn 2              0.33        2.11352
         O 49 -- Zr 4              0.42        2.11354
         O 23 -- Zr 8              0.42        2.11375
         O 19 -- Sn 4              0.33        2.11382
         O 55 -- Zr 7              0.42        2.11384
         O 36 -- Zr 3              0.43        2.11385
         O 19 -- Sn 1              0.33        2.11405
         O 40 -- Zr 8              0.43        2.11433
         O 36 -- Zr 12             0.43        2.11471
         O 24 -- Zr 9              0.42        2.11513
         O 13 -- Sn 3              0.33        2.11513
         O 24 -- Zr 11             0.42        2.11551
         O 44 -- Zr 3              0.44        2.11562
         O 29 -- Zr 5              0.45        2.11621
         O 22 -- Sn 1              0.33        2.11625
         O 53 -- Zr 7              0.44        2.11634
         O 55 -- Zr 2              0.42        2.11642
         O 16 -- Zr 12             0.43        2.11651
         O 48 -- Zr 1              0.42        2.11699
         O 31 -- Zr 6              0.46        2.11703
         O 51 -- Zr 2              0.43        2.11705
         O 34 -- Zr 4              0.45        2.11711
         O 15 -- Zr 10             0.45        2.11715
         O 12 -- Zr 7              0.45        2.11742
         O 10 -- Zr 6              0.43        2.11754
         O 54 -- Zr 9              0.43        2.11788
         O 46 -- Zr 5              0.44        2.11794
         O 40 -- Zr 3              0.43        2.11804
         O 52 -- Zr 1              0.43        2.11813
         O 17 -- Zr 9              0.43        2.11820
         O 52 -- Zr 11             0.43        2.11830
         O 22 -- Sn 3              0.33        2.11846
         O 44 -- Zr 11             0.44        2.11856
         O 18 -- Zr 7              0.45        2.11857
         O 42 -- Zr 2              0.45        2.11909
         O 33 -- Zr 10             0.44        2.11911
         O 37 -- Zr 4              0.45        2.11913
         O 54 -- Zr 1              0.42        2.11917
         O 16 -- Zr 6              0.43        2.11926
[...]
         O 16 -- O 32             -0.03        2.82476
         O 45 -- O 50             -0.03        2.82493
         O 35 -- O 42             -0.03        2.82509
         O 14 -- O 52             -0.03        2.82545
         O 46 -- O 53             -0.03        2.82590
         O 17 -- O 26             -0.03        2.82622
         O 11 -- O 21             -0.03        2.82704
         O 14 -- O 30             -0.03        2.82932
         O 25 -- O 39             -0.03        2.82943
         O 20 -- O 28             -0.03        2.82946
         O 20 -- O 27             -0.03        2.83141
         O 34 -- O 39             -0.03        2.83242
         O 12 -- O 21             -0.03        2.83268
         O 14 -- O 29             -0.03        2.83362
         O 35 -- O 43             -0.03        2.83953

Writing analysis data to 09.castep_bin

Writing model to 09.check

 A BibTeX formatted list of references used in this run has been written to
 09.bib

Initialisation time =     54.33 s
Calculation time    =  33218.98 s
Finalisation time   =     30.80 s
Total time          =  33304.11 s

Overall parallel efficiency rating: Good (78%)

Data was distributed by:-
G-vector (4-way); efficiency rating: Very good (80%)
k-point (14-way); efficiency rating: Excellent (97%)