 Compiled for linux_x86_64_ifort16 on Sat, 23 Jul 2016 23:44:54 +0100
 from code version
 203e84763863+ Castep161_branch Fri, 04 Mar 2016 19:21:07 +0000
 Compiler: Intel Fortran 16.0.3.210; Optimisation: fast
 MATHLIBS: Intel MKL(11.3.3) (LAPACK version 3.6.0)
 FFT Lib : mkl
 Fundamental constants values: CODATA 2010

 Run started: Mon, 25 Dec 2017 08:59:18 +0000
 |           N   N    M   M    RRRR                |
 |           NN  N    MM MM    R   R               |
 |           N N N    M M M    RRRR                |
 |           N  NN    M   M    R  R                |
 |           N   N    M   M    R   R               |
 | Welcome to Materials Studio CASTEP-NMR          |
 | Authors:                                        |
 | J.R. Yates, C.J. Pickard, F. Mauri              |
 | Contributors:                                   |
 | T.F.G. Green, S.A. Joyce                        |
 | Copyright (c) 2004 - 2015                       |
 | Please cite the appropriate publications in all |
 | work arising from your use of CASTEP NMR.       |
 | For NMR Shielding Tensors cite:                 |
 |    "All-electron magnetic response with         |
 |    pseudopotentials: NMR chemical shifts",      |
 |    C. J. Pickard, F. Mauri;                     |
 |    Physical Review B63 245101 (2001), and       |
 |    "Calculation of NMR Chemical Shifts          |
 |    for extended systems using                   |
 |    Ultrasoft Pseudopotentials",                 |
 |    J. R. Yates, C. J. Pickard and F. Mauri      |
 |    Physical Review B76 024401 (2007)            |
 | For Electric Field Gradients cite:              |
 |   "Accurate First Principles Prediction of 17O  |
 |    NMR Parameters in SiO2: Assignment of the    |
 |    Zeolite Ferrierite Spectrum"                 |
 |    M. Profeta, F. Mauri and C. J. Pickard       |
 |    J. Amer. Chem. Soc. 125 541 (2003)           |
 | For Spin-Spin (J) Couplings cite:               |
 |   "A first principles theory of NMR J-coupling  |
 |   in solid-state systems"                       |
 |   S.A. Joyce, J.R. Yates, C.J. Pickard, F. Mauri|
 |   J. Chem. Phys. 127 204107 (2007)              |
 |   "Relativistic NMR J-coupling with ultrasoft   |
 |   pseudopotentials and the zeroth-order regular |
 |   approximation"                                |
 |   T.F.G. Green and J.R. Yates                   |
 |   J. Chem. Phys. 140 234106 (2014)              |

 Atomic calculation performed for O: 1s2 2s2 2p4

 Converged in 44 iterations to an ae energy of -2040.855 eV

 Atomic calculation performed for O: 1s2 2s2 2p4

 Exceeded max iterations: converged to 0.000000062 eV

   | Pseudopotential Report - Date of generation 25-12-2017   |
   | Element: O Ionic charge:  6.00 Level of theory: PBE      |
   | Atomic Solver: ZORA (scalar)                             |
   |               Reference Electronic Structure             |
   |         Orbital         Occupation         Energy        |
   |            2s              2.000           -0.881        |
   |            2p              4.000           -0.332        |
   |                 Pseudopotential Definition               |
   |        Beta     l      e      Rc     scheme   norm       |
   |          1      0   -0.881   1.100     qc      0         |
   |          2      0    0.250   1.100     qc      0         |
   |          3      1   -0.332   1.100     qc      0         |
   |          4      1    0.250   1.100     qc      0         |
   |         loc     2    0.000   1.100     pn      0         |
   | Augmentation charge Rinner = 0.769                       |
   | Partial core correction Rc = 0.769                       |
   | "2|1.1|15|18|20|20:21(qc=7)"                             |
   |      Author: Chris J. Pickard, Cambridge University      |

 Atomic calculation performed for Zr: 1s2 2s2 2p6 3s2 3p6 3d10 4s2 4p6 4d2 5s2

[...]

 Atomic calculation performed for Zr: 1s2 2s2 2p6 3s2 3p6 3d10 4s2 4p6 4d2 5s2

[...]

 Warning: ion_atom_descreen_psp: negative charge density encountered
   | Pseudopotential Report - Date of generation 25-12-2017   |
   | Element: Zr Ionic charge: 12.00 Level of theory: PBE     |
   | Atomic Solver: ZORA (scalar)                             |
   |               Reference Electronic Structure             |
   |         Orbital         Occupation         Energy        |
   |            4s              2.000           -2.003        |
   |            4p              6.000           -1.193        |
   |            5s              2.000           -0.163        |
   |            4d              2.000           -0.132        |
   |                 Pseudopotential Definition               |
   |        Beta     l      e      Rc     scheme   norm       |
   |          1      0   -2.003   2.105     qc      0         |
   |          2      0   -0.163   2.105     qc      0         |
   |          3      0    0.250   2.105     qc      0         |
   |          4      1   -1.193   2.105     qc      0         |
   |          5      1    0.250   2.105     qc      0         |
   |          6      2   -0.132   2.105     qc      0         |
   |          7      2    0.250   2.105     qc      0         |
   |         loc     3    0.000   2.105     pn      0         |
   | Augmentation charge Rinner = 1.471                       |
   | Partial core correction Rc = 1.471                       |
   | "3|2.1|7|8|9|40U:50:41:42"                               |
   |      Author: Chris J. Pickard, Cambridge University      |

 Atomic calculation performed for Sn:

[...]

 Atomic calculation performed for Sn:

[...]

   | Pseudopotential Report - Date of generation 25-12-2017   |
   | Element: Sn Ionic charge: 14.00 Level of theory: PBE     |
   | Atomic Solver: ZORA (scalar)                             |
   |               Reference Electronic Structure             |
   |         Orbital         Occupation         Energy        |
   |            4d             10.000           -0.950        |
   |            5s              2.000           -0.388        |
   |            5p              2.000           -0.136        |
   |                 Pseudopotential Definition               |
   |        Beta     l      e      Rc     scheme   norm       |
   |          1      0   -0.388   2.199     qc      0         |
   |          2      0    0.250   2.199     qc      0         |
   |          3      1   -0.136   2.199     qc      0         |
   |          4      1    0.250   2.199     qc      0         |
   |          5      2   -0.950   2.199     qc      0         |
   |          6      2    0.250   2.199     qc      0         |
   |         loc     3    0.000   2.199     pn      0         |
   | Augmentation charge Rinner = 1.537                       |
   | Partial core correction Rc = 1.537                       |
   | "3|2.2|7|8|9|50:51:42"                                   |
   |      Author: Chris J. Pickard, Cambridge University      |

 Atomic calculation performed for La:

 Converged in 56 iterations to an ae energy of -230121.495 eV

 Atomic calculation performed for La:

 Exceeded max iterations: converged to 0.000000907 eV

 Warning: ion_atom_descreen_psp: negative charge density encountered
   | Pseudopotential Report - Date of generation 25-12-2017   |
   | Element: La Ionic charge: 11.00 Level of theory: PBE     |
   | Atomic Solver: ZORA (scalar)                             |
   |               Reference Electronic Structure             |
   |         Orbital         Occupation         Energy        |
   |            5s              2.000           -1.430        |
   |            5p              6.000           -0.823        |
   |            6s              2.000           -0.135        |
   |            5d              1.000           -0.114        |
   |                 Pseudopotential Definition               |
   |        Beta     l      e      Rc     scheme   norm       |
   |          1      0   -1.430   2.298     qc      0         |
   |          2      0   -0.135   2.298     qc      0         |
   |          3      0    0.250   2.298     qc      0         |
   |          4      1   -0.823   2.298     qc      0         |
   |          5      1    0.250   2.298     qc      0         |
   |          6      2   -0.114   2.298     qc      0         |
   |          7      2    0.250   2.298     qc      0         |
   |         loc     2    0.000   2.298     pn      0         |
   | Augmentation charge Rinner = 1.606                       |
   | Partial core correction Rc = 1.606                       |
   | "2|2.3|5|6|7|50U:60:51:52(qc=4.5)"                       |
   |      Author: Chris J. Pickard, Cambridge University      |

 Pseudo atomic calculation performed for O 2s2 2p4

 Converged in 39 iterations to a total energy of -432.6554 eV

 Pseudo atomic calculation performed for Zr 4s2 4p6 4d2 5s2

[...]

 Calculation parallelised over 56 processes.
 Data is distributed by G-vector(4-way) and k-point(14-way)

 ************************************ Title ************************************
 nmr testing

 ***************************** General Parameters ******************************

 output verbosity                               : normal  (1)
 write checkpoint data to                       : 10.check
 type of calculation                            : Magnetic Resonance
 stress calculation                             : on
 density difference calculation                 : off
 electron localisation func (ELF) calculation   : off
 Hirshfeld analysis                             : off
 unlimited duration calculation
 timing information                             : on
 write final potential to formatted file        : off
 write final density to formatted file          : off
 write structure in CIF formatted file          : on
 write structure in CELL formatted file         : on
 write BibTeX reference list                    : on
 write OTFG pseudopotential files               : on
 checkpoint writing                             : both castep_bin and check files

 output         length unit                     : A
 output           mass unit                     : amu
 output           time unit                     : ps
 output         charge unit                     : e
 output           spin unit                     : hbar/2
 output         energy unit                     : eV
 output          force unit                     : eV/A
 output       velocity unit                     : A/ps
 output       pressure unit                     : GPa
 output     inv_length unit                     : 1/A
 output      frequency unit                     : cm-1
 output force constant unit                     : eV/A**2
 output         volume unit                     : A**3
 output   IR intensity unit                     : (D/A)**2/amu
 output         dipole unit                     : D
 output         efield unit                     : eV/A/e
 output        entropy unit                     : J/mol/K

 wavefunctions paging                           : none
 random number generator seed                   : randomised (85920630)
 data distribution                              : optimal for this architecture
[...]
  |    O          41      -83.04      84.32      0.26  -3.165E+00   0.10 |
  |    O          42     -164.44     154.74      0.78   1.084E+00   0.87 |
  |    O          43     -161.63     150.54      0.78   1.104E+00   0.78 |
  |    O          44     -163.05     146.29      0.78   1.107E+00   0.78 |
  |    O          45      -91.22      85.69      0.10  -3.254E+00   0.13 |
  |    O          46     -165.52     151.03      0.76   1.016E+00   0.93 |
  |    O          47     -167.44     155.66      0.80  -1.030E+00   0.97 |
  |    O          48      -92.75      84.96      0.12  -3.207E+00   0.14 |
  |    O          49     -163.96     156.04      0.82   1.089E+00   0.87 |
  |    O          50     -164.83     146.58      0.78   1.070E+00   0.79 |
  |    O          51     -163.96     156.05      0.82   1.089E+00   0.87 |
  |    O          52     -164.83     146.57      0.78   1.070E+00   0.79 |
  |    O          53     -166.88     161.10      0.85   1.084E+00   0.93 |
  |    O          54     -165.86     145.51      0.75   1.043E+00   0.82 |
  |    O          55     -165.52     151.02      0.76   1.016E+00   0.93 |
  |    O          56      -91.22      85.70      0.10  -3.254E+00   0.13 |
  |    Zr          1     1609.79    -116.86      0.03  -3.835E+01   0.01 |
  |    Zr          2     1628.77    -126.22      0.12  -4.001E+01   0.11 |
  |    Zr          3     1623.08    -123.41      0.07  -3.913E+01   0.10 |
  |    Zr          4     1632.92    -129.58      0.15  -3.905E+01   0.10 |
[...]
  |    La          2     4708.63     766.11      0.05  -8.264E+01   0.10 |
  |    La          3     4753.67     866.62      0.05  -8.438E+01   0.08 |
  |    La          4     4753.34     864.33      0.05  -8.446E+01   0.08 |
  |    La          5     4708.63     766.11      0.05  -8.264E+01   0.10 |
  |    La          6     4753.34     864.34      0.05  -8.446E+01   0.08 |
  |    La          7     4753.67     866.61      0.05  -8.438E+01   0.08 |
  |    La          8     4708.74     753.97      0.03  -8.147E+01   0.09 |
  |    La          9     4707.08     752.60      0.05  -8.166E+01   0.12 |
  |    La         10     4753.44     879.98      0.04  -8.335E+01   0.06 |
  |    La         11     4798.80     972.13      0.00  -8.495E+01   0.00 |
  |    La         12     4660.76     625.49      0.01  -7.817E+01   0.04 |
  |    La         13     4708.74     753.97      0.03  -8.147E+01   0.09 |
  |    La         14     4660.76     625.47      0.01  -7.817E+01   0.04 |
  |    La         15     4753.44     879.97      0.04  -8.335E+01   0.06 |
  |    La         16     4705.69     767.48      0.05  -8.085E+01   0.10 |

 *********************** Forces ***********************
 *            Cartesian components (eV/A)             *
 *                   x            y            z      *
 * O         1     -0.00020     -0.00020     -0.00510 *
 * O         2     -0.00124      0.00049      0.00390 *
 * O         3      0.00049     -0.00124      0.00390 *
 * O         4      0.00368      0.00368     -0.00202 *
 * O         5     -0.00753     -0.00179     -0.00336 *
 * O         6     -0.00310     -0.00310     -0.00054 *
 * O         7     -0.00436     -0.00436     -0.00669 *
 * O         8     -0.00179     -0.00753     -0.00336 *
 * O         9      0.00309     -0.00775     -0.01141 *
 * O        10     -0.00831     -0.00755      0.00343 *
 * O        11      0.00430      0.00090      0.00312 *
 * O        12     -0.00549      0.00377      0.00549 *
 * O        13     -0.00775      0.00309     -0.01141 *
 * O        14      0.00445     -0.00001     -0.00584 *
 * O        15      0.00090      0.00430      0.00312 *
 * O        16     -0.00018     -0.01667     -0.00737 *
 * O        17     -0.01317     -0.01317     -0.00938 *
 * O        18     -0.00482      0.00515      0.00042 *
 * O        19      0.00074      0.00074      0.00459 *
 * O        20     -0.00013      0.00590     -0.00444 *
 * O        21     -0.00901     -0.00597      0.00968 *
 * O        22     -0.01215      0.01419     -0.00786 *
 * O        23      0.00283     -0.01285      0.00554 *
 * O        24     -0.00666     -0.00206     -0.00587 *
 * O        25     -0.00206     -0.00666     -0.00587 *
 * O        26     -0.00111      0.01168      0.01093 *
 * O        27      0.01419     -0.01215     -0.00786 *
 * O        28     -0.01140      0.01115     -0.01215 *
 * O        29      0.00735      0.00989     -0.00931 *
 * O        30     -0.00462     -0.00462     -0.00049 *
 * O        31      0.00657     -0.01662     -0.01399 *
 * O        32     -0.00827     -0.00827      0.00815 *
 * O        33     -0.00597     -0.00901      0.00968 *
 * O        34     -0.01285      0.00283      0.00554 *
 * O        35      0.01115     -0.01140     -0.01215 *
 * O        36      0.01168     -0.00111      0.01093 *
 * O        37     -0.01662      0.00657     -0.01399 *
 * O        38      0.00989      0.00735     -0.00931 *
 * O        39     -0.00755     -0.00831      0.00343 *
 * O        40      0.00377     -0.00549      0.00549 *
 * O        41     -0.01667     -0.00018     -0.00737 *
 * O        42     -0.00001      0.00445     -0.00584 *
 * O        43      0.00590     -0.00013     -0.00444 *
 * O        44      0.00515     -0.00482      0.00042 *
 * O        45      0.00223      0.00049      0.00531 *
 * O        46     -0.00324      0.00158      0.00031 *
 * O        47     -0.00302     -0.00302     -0.01578 *
 * O        48     -0.00248     -0.00248     -0.00039 *
 * O        49      0.00284      0.00379      0.00376 *
 * O        50      0.00870      0.00309      0.00501 *
 * O        51      0.00379      0.00284      0.00376 *
 * O        52      0.00309      0.00870      0.00501 *
 * O        53      0.00660      0.00660      0.01005 *
 * O        54      0.00215      0.00215      0.00002 *
 * O        55      0.00158     -0.00324      0.00031 *
 * O        56      0.00049      0.00223      0.00531 *
 * Zr        1     -0.00250     -0.00249      0.00198 *
 * Zr        2      0.01795      0.01667      0.00937 *
 * Zr        3      0.01329      0.00939      0.01335 *
 * Zr        4      0.00300      0.00603      0.00403 *
[...]
 * La        2      0.00994      0.00472      0.00541 *
 * La        3      0.01386      0.00216      0.00162 *
 * La        4      0.00799      0.00356      0.01416 *
 * La        5      0.00472      0.00994      0.00541 *
 * La        6      0.00356      0.00799      0.01416 *
 * La        7      0.00216      0.01386      0.00162 *
 * La        8     -0.01115      0.00193     -0.00322 *
 * La        9     -0.01028     -0.01028     -0.01372 *
 * La       10     -0.01047      0.00975      0.00317 *
 * La       11     -0.00383     -0.00383      0.01004 *
 * La       12     -0.00384     -0.01057     -0.01066 *
 * La       13      0.00193     -0.01115     -0.00322 *
 * La       14     -0.01057     -0.00384     -0.01065 *
 * La       15      0.00975     -0.01047      0.00317 *
 * La       16     -0.00075     -0.00075     -0.00930 *

 ***************** Stress Tensor *****************
 *          Cartesian components (GPa)           *
 *             x             y             z     *
 *  x     -0.008017     -0.013724     -0.023396  *
 *  y     -0.013724     -0.008016     -0.023398  *
 *  z     -0.023396     -0.023398      0.032037  *
 *  Pressure:   -0.0053                          *

[...]

 Pseudo atomic calculation performed for Sn 4d10 5s2 5p2

[...]

 Pseudo atomic calculation performed for La 5s2 5p6 5d1 6s2

 Converged in 34 iterations to a total energy of -968.0372 eV

Charge spilling parameter for spin component 1 = 0.22%

     Atomic Populations (Mulliken)
Species   Ion     s      p      d      f     Total  Charge (e)
  O        1     1.87   5.00   0.00   0.00   6.87    -0.87
  O        2     1.87   5.00   0.00   0.00   6.87    -0.87
  O        3     1.87   5.00   0.00   0.00   6.87    -0.87
  O        4     1.87   5.00   0.00   0.00   6.87    -0.87
  O        5     1.87   5.00   0.00   0.00   6.87    -0.87
  O        6     1.87   5.00   0.00   0.00   6.87    -0.87
  O        7     1.87   5.00   0.00   0.00   6.87    -0.87
  O        8     1.87   5.00   0.00   0.00   6.87    -0.87
  O        9     1.86   4.94   0.00   0.00   6.80    -0.80
  O       10     1.86   4.94   0.00   0.00   6.80    -0.80
  O       11     1.88   5.02   0.00   0.00   6.91    -0.91
  O       12     1.86   4.94   0.00   0.00   6.80    -0.80
  O       13     1.86   4.94   0.00   0.00   6.80    -0.80
  O       14     1.86   4.94   0.00   0.00   6.80    -0.80
  O       15     1.88   5.02   0.00   0.00   6.91    -0.91
  O       16     1.87   4.98   0.00   0.00   6.85    -0.85
  O       17     1.87   4.98   0.00   0.00   6.85    -0.85
  O       18     1.86   4.94   0.00   0.00   6.80    -0.80
  O       19     1.88   5.02   0.00   0.00   6.91    -0.91
  O       20     1.86   4.94   0.00   0.00   6.80    -0.80
  O       21     1.87   4.99   0.00   0.00   6.85    -0.85
  O       22     1.87   4.98   0.00   0.00   6.85    -0.85
  O       23     1.86   4.94   0.00   0.00   6.80    -0.80
  O       24     1.86   4.94   0.00   0.00   6.80    -0.80
  O       25     1.86   4.94   0.00   0.00   6.80    -0.80
  O       26     1.87   4.99   0.00   0.00   6.85    -0.85
  O       27     1.87   4.98   0.00   0.00   6.85    -0.85
  O       28     1.87   4.98   0.00   0.00   6.85    -0.85
  O       29     1.85   4.94   0.00   0.00   6.80    -0.80
  O       30     1.85   4.94   0.00   0.00   6.80    -0.80
  O       31     1.87   4.98   0.00   0.00   6.85    -0.85
  O       32     1.88   5.02   0.00   0.00   6.90    -0.90
  O       33     1.87   4.99   0.00   0.00   6.85    -0.85
  O       34     1.86   4.94   0.00   0.00   6.80    -0.80
  O       35     1.87   4.98   0.00   0.00   6.85    -0.85
  O       36     1.87   4.99   0.00   0.00   6.85    -0.85
  O       37     1.87   4.98   0.00   0.00   6.85    -0.85
  O       38     1.85   4.94   0.00   0.00   6.80    -0.80
  O       39     1.86   4.94   0.00   0.00   6.80    -0.80
  O       40     1.86   4.94   0.00   0.00   6.80    -0.80
  O       41     1.87   4.98   0.00   0.00   6.85    -0.85
  O       42     1.86   4.94   0.00   0.00   6.80    -0.80
  O       43     1.86   4.94   0.00   0.00   6.80    -0.80
  O       44     1.86   4.94   0.00   0.00   6.80    -0.80
  O       45     1.87   4.99   0.00   0.00   6.85    -0.85
  O       46     1.86   4.94   0.00   0.00   6.80    -0.80
  O       47     1.86   4.94   0.00   0.00   6.80    -0.80
  O       48     1.87   4.99   0.00   0.00   6.85    -0.85
  O       49     1.86   4.94   0.00   0.00   6.80    -0.80
  O       50     1.86   4.94   0.00   0.00   6.80    -0.80
  O       51     1.86   4.94   0.00   0.00   6.80    -0.80
  O       52     1.86   4.94   0.00   0.00   6.80    -0.80
  O       53     1.85   4.94   0.00   0.00   6.80    -0.80
  O       54     1.86   4.94   0.00   0.00   6.80    -0.80
  O       55     1.86   4.94   0.00   0.00   6.80    -0.80
  O       56     1.87   4.99   0.00   0.00   6.85    -0.85
  Zr       1     2.37   6.50   1.92   0.00  10.80     1.20
  Zr       2     2.37   6.47   1.93   0.00  10.77     1.23
  Zr       3     2.37   6.49   1.93   0.00  10.79     1.21
  Zr       4     2.38   6.48   1.93   0.00  10.79     1.21
[...]
  La       2     2.07   6.16   1.19   0.00   9.43     1.57
  La       3     2.06   6.15   1.19   0.00   9.40     1.60
  La       4     2.06   6.15   1.19   0.00   9.39     1.61
  La       5     2.07   6.16   1.19   0.00   9.43     1.57
  La       6     2.06   6.14   1.19   0.00   9.39     1.61
  La       7     2.06   6.15   1.19   0.00   9.40     1.60
  La       8     2.08   6.17   1.19   0.00   9.44     1.56
  La       9     2.08   6.17   1.19   0.00   9.44     1.56
  La      10     2.04   6.14   1.19   0.00   9.38     1.62
  La      11     2.02   6.12   1.19   0.00   9.33     1.67
  La      12     2.10   6.19   1.19   0.00   9.48     1.52
  La      13     2.08   6.17   1.19   0.00   9.44     1.56
  La      14     2.10   6.19   1.19   0.00   9.48     1.52
  La      15     2.04   6.14   1.19   0.00   9.38     1.62
  La      16     2.07   6.16   1.19   0.00   9.43     1.57

            Bond              Population      Length (A)
         O 56 -- Sn 1              0.35        2.10009
         O 45 -- Sn 3              0.35        2.10009
         O 26 -- Sn 4              0.35        2.10138
         O 36 -- Sn 4              0.35        2.10138
         O 48 -- Sn 2              0.34        2.10391
         O 41 -- Sn 4              0.35        2.10593
         O 16 -- Sn 4              0.35        2.10593
         O 22 -- Sn 1              0.35        2.10692
         O 27 -- Sn 3              0.35        2.10692
         O 21 -- Sn 2              0.34        2.10699
         O 33 -- Sn 2              0.34        2.10699
         O 17 -- Sn 4              0.34        2.10854
         O 19 -- Sn 1              0.34        2.10887
         O 19 -- Sn 3              0.34        2.10887
         O 35 -- Sn 3              0.34        2.10975
         O 28 -- Sn 1              0.34        2.10975
         O 29 -- Zr 5              0.43        2.11040
         O 38 -- Zr 2              0.43        2.11040
         O 15 -- Sn 2              0.34        2.11122
         O 11 -- Sn 2              0.34        2.11122
         O 37 -- Sn 1              0.34        2.11177
         O 31 -- Sn 3              0.34        2.11177
         O 53 -- Zr 3              0.42        2.11192
         O 53 -- Zr 7              0.42        2.11192
         O 15 -- Sn 3              0.34        2.11205
         O 11 -- Sn 1              0.34        2.11205
         O 17 -- Zr 9              0.46        2.11362
         O 9  -- Zr 12             0.44        2.11367
         O 13 -- Zr 10             0.44        2.11367
         O 26 -- Zr 7              0.45        2.11434
         O 36 -- Zr 3              0.45        2.11434
         O 30 -- Zr 10             0.43        2.11500
         O 30 -- Zr 12             0.43        2.11500
         O 49 -- Zr 4              0.42        2.11533
         O 51 -- Zr 6              0.42        2.11533
         O 39 -- Zr 4              0.42        2.11593
         O 10 -- Zr 6              0.42        2.11593
         O 32 -- Sn 4              0.33        2.11621
         O 14 -- Zr 5              0.43        2.11629
         O 42 -- Zr 2              0.43        2.11629
         O 20 -- Zr 8              0.43        2.11645
         O 43 -- Zr 11             0.43        2.11645
         O 39 -- Zr 9              0.42        2.11697
         O 10 -- Zr 9              0.42        2.11697
         O 29 -- Zr 11             0.42        2.11713
         O 38 -- Zr 8              0.42        2.11713
         O 24 -- Zr 9              0.43        2.11716
         O 25 -- Zr 9              0.43        2.11716
         O 49 -- Zr 5              0.42        2.11726
         O 51 -- Zr 2              0.42        2.11726
         O 23 -- Zr 6              0.43        2.11739
         O 34 -- Zr 4              0.43        2.11739
         O 34 -- Zr 11             0.43        2.11785
         O 23 -- Zr 8              0.43        2.11785
         O 32 -- Sn 2              0.34        2.11786
         O 14 -- Zr 12             0.43        2.11795
         O 42 -- Zr 10             0.43        2.11795
         O 24 -- Zr 12             0.43        2.11902
         O 25 -- Zr 10             0.43        2.11902
         O 52 -- Zr 1              0.44        2.11924
[...]
         O 42 -- O 50             -0.03        2.82304
         O 46 -- O 49             -0.03        2.82403
         O 51 -- O 55             -0.03        2.82403
         O 24 -- O 44             -0.03        2.82450
         O 18 -- O 25             -0.03        2.82450
         O 12 -- O 21             -0.03        2.83091
         O 33 -- O 40             -0.03        2.83091
         O 22 -- O 43             -0.03        2.83117
         O 20 -- O 27             -0.03        2.83117
         O 27 -- O 40             -0.03        2.83186
         O 12 -- O 22             -0.03        2.83186
         O 35 -- O 43             -0.03        2.83284
         O 20 -- O 28             -0.03        2.83284
         O 16 -- O 31             -0.03        2.83982
         O 37 -- O 41             -0.03        2.83982

Writing analysis data to 10.castep_bin

Writing model to 10.check

 A BibTeX formatted list of references used in this run has been written to
 10.bib

Initialisation time =     56.29 s
Calculation time    =  33000.95 s
Finalisation time   =     42.09 s
Total time          =  33099.33 s

Overall parallel efficiency rating: Good (78%)

Data was distributed by:-
G-vector (4-way); efficiency rating: Good (79%)
k-point (14-way); efficiency rating: Excellent (99%)