 Compiled for linux_x86_64_ifort16 on Sat, 23 Jul 2016 23:44:54 +0100
 from code version
 203e84763863+ Castep161_branch Fri, 04 Mar 2016 19:21:07 +0000
 Compiler: Intel Fortran 16.0.3.210; Optimisation: fast
 MATHLIBS: Intel MKL(11.3.3) (LAPACK version 3.6.0)
 FFT Lib : mkl
 Fundamental constants values: CODATA 2010

 Run started: Tue, 26 Dec 2017 03:21:59 +0000
 |           N   N    M   M    RRRR                |
 |           NN  N    MM MM    R   R               |
 |           N N N    M M M    RRRR                |
 |           N  NN    M   M    R  R                |
 |           N   N    M   M    R   R               |
 | Welcome to Materials Studio CASTEP-NMR          |
 | Authors:                                        |
 | J.R. Yates, C.J. Pickard, F. Mauri              |
 | Contributors:                                   |
 | T.F.G. Green, S.A. Joyce                        |
 | Copyright (c) 2004 - 2015                       |
 | Please cite the appropriate publications in all |
 | work arising from your use of CASTEP NMR.       |
 | For NMR Shielding Tensors cite:                 |
 |    "All-electron magnetic response with         |
 |    pseudopotentials: NMR chemical shifts",      |
 |    C. J. Pickard, F. Mauri;                     |
 |    Physical Review B63 245101 (2001), and       |
 |    "Calculation of NMR Chemical Shifts          |
 |    for extended systems using                   |
 |    Ultrasoft Pseudopotentials",                 |
 |    J. R. Yates, C. J. Pickard and F. Mauri      |
 |    Physical Review B76 024401 (2007)            |
 | For Electric Field Gradients cite:              |
 |   "Accurate First Principles Prediction of 17O  |
 |    NMR Parameters in SiO2: Assignment of the    |
 |    Zeolite Ferrierite Spectrum"                 |
 |    M. Profeta, F. Mauri and C. J. Pickard       |
 |    J. Amer. Chem. Soc. 125 541 (2003)           |
 | For Spin-Spin (J) Couplings cite:               |
 |   "A first principles theory of NMR J-coupling  |
 |   in solid-state systems"                       |
 |   S.A. Joyce, J.R. Yates, C.J. Pickard, F. Mauri|
 |   J. Chem. Phys. 127 204107 (2007)              |
 |   "Relativistic NMR J-coupling with ultrasoft   |
 |   pseudopotentials and the zeroth-order regular |
 |   approximation"                                |
 |   T.F.G. Green and J.R. Yates                   |
 |   J. Chem. Phys. 140 234106 (2014)              |

 Atomic calculation performed for O: 1s2 2s2 2p4

 Converged in 44 iterations to an ae energy of -2040.855 eV

 Atomic calculation performed for O: 1s2 2s2 2p4

 Exceeded max iterations: converged to 0.000000062 eV

   | Pseudopotential Report - Date of generation 26-12-2017   |
   | Element: O Ionic charge:  6.00 Level of theory: PBE      |
   | Atomic Solver: ZORA (scalar)                             |
   |               Reference Electronic Structure             |
   |         Orbital         Occupation         Energy        |
   |            2s              2.000           -0.881        |
   |            2p              4.000           -0.332        |
   |                 Pseudopotential Definition               |
   |        Beta     l      e      Rc     scheme   norm       |
   |          1      0   -0.881   1.100     qc      0         |
   |          2      0    0.250   1.100     qc      0         |
   |          3      1   -0.332   1.100     qc      0         |
   |          4      1    0.250   1.100     qc      0         |
   |         loc     2    0.000   1.100     pn      0         |
   | Augmentation charge Rinner = 0.769                       |
   | Partial core correction Rc = 0.769                       |
   | "2|1.1|15|18|20|20:21(qc=7)"                             |
   |      Author: Chris J. Pickard, Cambridge University      |

 Atomic calculation performed for Zr: 1s2 2s2 2p6 3s2 3p6 3d10 4s2 4p6 4d2 5s2

[...]

 Atomic calculation performed for Zr: 1s2 2s2 2p6 3s2 3p6 3d10 4s2 4p6 4d2 5s2

[...]

 Warning: ion_atom_descreen_psp: negative charge density encountered
   | Pseudopotential Report - Date of generation 26-12-2017   |
   | Element: Zr Ionic charge: 12.00 Level of theory: PBE     |
   | Atomic Solver: ZORA (scalar)                             |
   |               Reference Electronic Structure             |
   |         Orbital         Occupation         Energy        |
   |            4s              2.000           -2.003        |
   |            4p              6.000           -1.193        |
   |            5s              2.000           -0.163        |
   |            4d              2.000           -0.132        |
   |                 Pseudopotential Definition               |
   |        Beta     l      e      Rc     scheme   norm       |
   |          1      0   -2.003   2.105     qc      0         |
   |          2      0   -0.163   2.105     qc      0         |
   |          3      0    0.250   2.105     qc      0         |
   |          4      1   -1.193   2.105     qc      0         |
   |          5      1    0.250   2.105     qc      0         |
   |          6      2   -0.132   2.105     qc      0         |
   |          7      2    0.250   2.105     qc      0         |
   |         loc     3    0.000   2.105     pn      0         |
   | Augmentation charge Rinner = 1.471                       |
   | Partial core correction Rc = 1.471                       |
   | "3|2.1|7|8|9|40U:50:41:42"                               |
   |      Author: Chris J. Pickard, Cambridge University      |

 Atomic calculation performed for Sn:

[...]

 Atomic calculation performed for Sn:

[...]

   | Pseudopotential Report - Date of generation 26-12-2017   |
   | Element: Sn Ionic charge: 14.00 Level of theory: PBE     |
   | Atomic Solver: ZORA (scalar)                             |
   |               Reference Electronic Structure             |
   |         Orbital         Occupation         Energy        |
   |            4d             10.000           -0.950        |
   |            5s              2.000           -0.388        |
   |            5p              2.000           -0.136        |
   |                 Pseudopotential Definition               |
   |        Beta     l      e      Rc     scheme   norm       |
   |          1      0   -0.388   2.199     qc      0         |
   |          2      0    0.250   2.199     qc      0         |
   |          3      1   -0.136   2.199     qc      0         |
   |          4      1    0.250   2.199     qc      0         |
   |          5      2   -0.950   2.199     qc      0         |
   |          6      2    0.250   2.199     qc      0         |
   |         loc     3    0.000   2.199     pn      0         |
   | Augmentation charge Rinner = 1.537                       |
   | Partial core correction Rc = 1.537                       |
   | "3|2.2|7|8|9|50:51:42"                                   |
   |      Author: Chris J. Pickard, Cambridge University      |

 Atomic calculation performed for La:

 Converged in 56 iterations to an ae energy of -230121.495 eV

 Atomic calculation performed for La:

 Exceeded max iterations: converged to 0.000000907 eV

 Warning: ion_atom_descreen_psp: negative charge density encountered
   | Pseudopotential Report - Date of generation 26-12-2017   |
   | Element: La Ionic charge: 11.00 Level of theory: PBE     |
   | Atomic Solver: ZORA (scalar)                             |
   |               Reference Electronic Structure             |
   |         Orbital         Occupation         Energy        |
   |            5s              2.000           -1.430        |
   |            5p              6.000           -0.823        |
   |            6s              2.000           -0.135        |
   |            5d              1.000           -0.114        |
   |                 Pseudopotential Definition               |
   |        Beta     l      e      Rc     scheme   norm       |
   |          1      0   -1.430   2.298     qc      0         |
   |          2      0   -0.135   2.298     qc      0         |
   |          3      0    0.250   2.298     qc      0         |
   |          4      1   -0.823   2.298     qc      0         |
   |          5      1    0.250   2.298     qc      0         |
   |          6      2   -0.114   2.298     qc      0         |
   |          7      2    0.250   2.298     qc      0         |
   |         loc     2    0.000   2.298     pn      0         |
   | Augmentation charge Rinner = 1.606                       |
   | Partial core correction Rc = 1.606                       |
   | "2|2.3|5|6|7|50U:60:51:52(qc=4.5)"                       |
   |      Author: Chris J. Pickard, Cambridge University      |

 Pseudo atomic calculation performed for O 2s2 2p4

 Converged in 39 iterations to a total energy of -432.6554 eV

 Pseudo atomic calculation performed for Zr 4s2 4p6 4d2 5s2

[...]

 Calculation parallelised over 56 processes.
 Data is distributed by G-vector(4-way) and k-point(14-way)

 ************************************ Title ************************************
 nmr testing

 ***************************** General Parameters ******************************

 output verbosity                               : normal  (1)
 write checkpoint data to                       : 12.check
 type of calculation                            : Magnetic Resonance
 stress calculation                             : on
 density difference calculation                 : off
 electron localisation func (ELF) calculation   : off
 Hirshfeld analysis                             : off
 unlimited duration calculation
 timing information                             : on
 write final potential to formatted file        : off
 write final density to formatted file          : off
 write structure in CIF formatted file          : on
 write structure in CELL formatted file         : on
 write BibTeX reference list                    : on
 write OTFG pseudopotential files               : on
 checkpoint writing                             : both castep_bin and check files

 output         length unit                     : A
 output           mass unit                     : amu
 output           time unit                     : ps
 output         charge unit                     : e
 output           spin unit                     : hbar/2
 output         energy unit                     : eV
 output          force unit                     : eV/A
 output       velocity unit                     : A/ps
 output       pressure unit                     : GPa
 output     inv_length unit                     : 1/A
 output      frequency unit                     : cm-1
 output force constant unit                     : eV/A**2
 output         volume unit                     : A**3
 output   IR intensity unit                     : (D/A)**2/amu
 output         dipole unit                     : D
 output         efield unit                     : eV/A/e
 output        entropy unit                     : J/mol/K

 wavefunctions paging                           : none
 random number generator seed                   : randomised (32200591)
 data distribution                              : optimal for this architecture
[...]
  |    O          41      -86.27      84.33      0.26  -3.175E+00   0.09 |
  |    O          42     -166.50     160.80      0.82   1.082E+00   0.95 |
  |    O          43      -84.86      85.75      0.19  -3.208E+00   0.11 |
  |    O          44     -163.95     146.20      0.79   1.075E+00   0.81 |
  |    O          45     -166.69     161.28      0.84   1.082E+00   0.93 |
  |    O          46     -163.71     146.80      0.79   1.038E+00   0.82 |
  |    O          47     -165.68     155.91      0.82   1.048E+00   0.91 |
  |    O          48      -91.25      86.53      0.12  -3.225E+00   0.14 |
  |    O          49     -165.00     156.33      0.86   1.073E+00   0.88 |
  |    O          50     -165.41     149.34      0.76   1.035E+00   0.91 |
  |    O          51     -162.05     150.56      0.79   1.091E+00   0.79 |
  |    O          52     -162.95     143.71      0.79   1.101E+00   0.78 |
  |    O          53     -165.00     156.33      0.86   1.073E+00   0.88 |
  |    O          54     -165.41     149.34      0.76   1.035E+00   0.91 |
  |    O          55     -165.68     155.91      0.82   1.048E+00   0.91 |
  |    O          56      -91.25      86.53      0.12  -3.225E+00   0.14 |
  |    Zr          1     1623.00    -123.77      0.15  -3.944E+01   0.05 |
  |    Zr          2     1629.12    -125.84      0.07  -4.021E+01   0.05 |
  |    Zr          3     1622.42    -123.27      0.16  -3.930E+01   0.06 |
  |    Zr          4     1627.00    -127.93      0.07  -3.819E+01   0.11 |
[...]
  |    La          2     4709.76     766.30      0.05  -8.250E+01   0.08 |
  |    La          3     4754.63     869.72      0.05  -8.456E+01   0.07 |
  |    La          4     4751.05     868.01      0.04  -8.251E+01   0.06 |
  |    La          5     4754.63     869.72      0.05  -8.456E+01   0.07 |
  |    La          6     4709.76     766.30      0.05  -8.250E+01   0.08 |
  |    La          7     4751.05     868.01      0.04  -8.251E+01   0.06 |
  |    La          8     4713.84     742.79      0.02  -8.208E+01   0.07 |
  |    La          9     4708.42     750.91      0.03  -8.130E+01   0.08 |
  |    La         10     4752.88     876.38      0.05  -8.321E+01   0.06 |
  |    La         11     4752.88     876.38      0.05  -8.321E+01   0.06 |
  |    La         12     4708.42     750.91      0.03  -8.130E+01   0.08 |
  |    La         13     4756.65     869.96      0.05  -8.454E+01   0.07 |
  |    La         14     4606.12     515.03      0.09  -7.376E+01   0.07 |
  |    La         15     4706.29     791.81      0.11  -8.117E+01   0.11 |
  |    La         16     4756.65     869.96      0.05  -8.454E+01   0.07 |

 *********************** Forces ***********************
 *            Cartesian components (eV/A)             *
 *                   x            y            z      *
 * O         1     -0.00104      0.00392      0.00392 *
 * O         2     -0.00657      0.00558      0.00247 *
 * O         3      0.00891      0.00130      0.00130 *
 * O         4     -0.00657      0.00247      0.00558 *
 * O         5      0.00279     -0.00818     -0.00818 *
 * O         6      0.00549      0.00370      0.00370 *
 * O         7     -0.00404     -0.00268     -0.00190 *
 * O         8     -0.00404     -0.00190     -0.00268 *
 * O         9      0.00106     -0.00250     -0.00250 *
 * O        10     -0.02223     -0.00181     -0.00174 *
 * O        11     -0.00279      0.00529      0.00529 *
 * O        12      0.00139     -0.02416     -0.01141 *
 * O        13     -0.02823     -0.00462     -0.03386 *
 * O        14      0.01465      0.00094     -0.01164 *
 * O        15      0.02409     -0.00091     -0.03043 *
 * O        16     -0.02124     -0.00329     -0.03887 *
 * O        17     -0.02823     -0.03386     -0.00462 *
 * O        18      0.00152      0.01213     -0.01536 *
 * O        19      0.02409     -0.03043     -0.00091 *
 * O        20      0.01253      0.02562      0.01370 *
 * O        21     -0.02095      0.00140      0.01566 *
 * O        22      0.00324     -0.00634      0.00325 *
 * O        23     -0.01356     -0.00796     -0.00881 *
 * O        24     -0.01408     -0.00081      0.00813 *
 * O        25      0.00360     -0.00703     -0.00703 *
 * O        26     -0.00659      0.02756      0.02385 *
 * O        27     -0.01066     -0.00817     -0.00817 *
 * O        28      0.00666      0.02159     -0.01171 *
 * O        29      0.03289      0.02730     -0.00095 *
 * O        30     -0.01408      0.00813     -0.00081 *
 * O        31     -0.00524     -0.00177     -0.00897 *
 * O        32      0.00324      0.00325     -0.00634 *
 * O        33      0.00666     -0.01170      0.02159 *
 * O        34     -0.00659      0.02385      0.02756 *
 * O        35     -0.00524     -0.00897     -0.00177 *
 * O        36      0.03289     -0.00095      0.02730 *
 * O        37     -0.02095      0.01565      0.00139 *
 * O        38     -0.01356     -0.00881     -0.00796 *
 * O        39      0.00152     -0.01536      0.01213 *
 * O        40      0.01253      0.01370      0.02562 *
 * O        41      0.00139     -0.01141     -0.02416 *
 * O        42     -0.02223     -0.00174     -0.00181 *
 * O        43     -0.02124     -0.03887     -0.00329 *
 * O        44      0.01465     -0.01164      0.00094 *
 * O        45      0.01050     -0.01605     -0.01605 *
 * O        46      0.00620      0.00499      0.00499 *
 * O        47     -0.00373      0.00753     -0.01003 *
 * O        48      0.00610      0.01349      0.00695 *
 * O        49      0.01141      0.02287      0.00946 *
 * O        50     -0.00181     -0.00937     -0.00210 *
 * O        51     -0.00035      0.00630      0.00630 *
 * O        52     -0.00618      0.01125      0.01125 *
 * O        53      0.01141      0.00946      0.02287 *
 * O        54     -0.00181     -0.00210     -0.00937 *
 * O        55     -0.00373     -0.01003      0.00753 *
 * O        56      0.00610      0.00695      0.01349 *
 * Zr        1     -0.00241     -0.02879     -0.02880 *
 * Zr        2      0.02127      0.01879     -0.02143 *
 * Zr        3     -0.01108      0.00219     -0.00873 *
 * Zr        4     -0.01944     -0.00005     -0.00551 *
[...]
 * La        2      0.00251      0.01013      0.01894 *
 * La        3     -0.00837     -0.00168      0.00004 *
 * La        4      0.01223      0.00956      0.00115 *
 * La        5     -0.00837      0.00004     -0.00168 *
 * La        6      0.00251      0.01894      0.01013 *
 * La        7      0.01223      0.00115      0.00956 *
 * La        8     -0.00854      0.00886      0.00886 *
 * La        9     -0.00880      0.00346     -0.01402 *
 * La       10      0.02016      0.00655     -0.00502 *
 * La       11      0.02016     -0.00502      0.00655 *
 * La       12     -0.00880     -0.01402      0.00347 *
 * La       13      0.01404     -0.00442      0.00063 *
 * La       14     -0.01155     -0.00061     -0.00060 *
 * La       15      0.00656      0.00790      0.00790 *
 * La       16      0.01404      0.00063     -0.00442 *

 ***************** Stress Tensor *****************
 *          Cartesian components (GPa)           *
 *             x             y             z     *
 *  x      0.036710     -0.035637     -0.035640  *
 *  y     -0.035637      0.032546     -0.000820  *
 *  z     -0.035640     -0.000820      0.032546  *
 *  Pressure:   -0.0339                          *

[...]

 Pseudo atomic calculation performed for Sn 4d10 5s2 5p2

[...]

 Pseudo atomic calculation performed for La 5s2 5p6 5d1 6s2

 Converged in 34 iterations to a total energy of -968.0372 eV

Charge spilling parameter for spin component 1 = 0.22%

     Atomic Populations (Mulliken)
Species   Ion     s      p      d      f     Total  Charge (e)
  O        1     1.87   5.00   0.00   0.00   6.87    -0.87
  O        2     1.87   5.00   0.00   0.00   6.87    -0.87
  O        3     1.87   5.00   0.00   0.00   6.87    -0.87
  O        4     1.87   5.00   0.00   0.00   6.87    -0.87
  O        5     1.87   5.00   0.00   0.00   6.87    -0.87
  O        6     1.87   5.00   0.00   0.00   6.87    -0.87
  O        7     1.87   5.00   0.00   0.00   6.87    -0.87
  O        8     1.87   5.00   0.00   0.00   6.87    -0.87
  O        9     1.85   4.94   0.00   0.00   6.80    -0.80
  O       10     1.85   4.94   0.00   0.00   6.80    -0.80
  O       11     1.88   5.02   0.00   0.00   6.90    -0.90
  O       12     1.87   4.98   0.00   0.00   6.85    -0.85
  O       13     1.87   4.98   0.00   0.00   6.85    -0.85
  O       14     1.86   4.94   0.00   0.00   6.80    -0.80
  O       15     1.87   4.99   0.00   0.00   6.85    -0.85
  O       16     1.87   4.98   0.00   0.00   6.85    -0.85
  O       17     1.87   4.98   0.00   0.00   6.85    -0.85
  O       18     1.86   4.94   0.00   0.00   6.80    -0.80
  O       19     1.87   4.98   0.00   0.00   6.85    -0.85
  O       20     1.86   4.94   0.00   0.00   6.80    -0.80
  O       21     1.87   4.98   0.00   0.00   6.85    -0.85
  O       22     1.88   5.02   0.00   0.00   6.90    -0.90
  O       23     1.86   4.94   0.00   0.00   6.80    -0.80
  O       24     1.86   4.94   0.00   0.00   6.80    -0.80
  O       25     1.86   4.94   0.00   0.00   6.80    -0.80
  O       26     1.87   4.98   0.00   0.00   6.85    -0.85
  O       27     1.86   4.94   0.00   0.00   6.80    -0.80
  O       28     1.87   4.98   0.00   0.00   6.85    -0.85
  O       29     1.87   4.99   0.00   0.00   6.85    -0.85
  O       30     1.86   4.94   0.00   0.00   6.80    -0.80
  O       31     1.86   4.94   0.00   0.00   6.80    -0.80
  O       32     1.88   5.02   0.00   0.00   6.90    -0.90
  O       33     1.87   4.98   0.00   0.00   6.85    -0.85
  O       34     1.87   4.98   0.00   0.00   6.85    -0.85
  O       35     1.86   4.94   0.00   0.00   6.80    -0.80
  O       36     1.87   4.99   0.00   0.00   6.85    -0.85
  O       37     1.87   4.98   0.00   0.00   6.85    -0.85
  O       38     1.86   4.94   0.00   0.00   6.80    -0.80
  O       39     1.86   4.94   0.00   0.00   6.80    -0.80
  O       40     1.86   4.94   0.00   0.00   6.80    -0.80
  O       41     1.87   4.98   0.00   0.00   6.85    -0.85
  O       42     1.85   4.94   0.00   0.00   6.80    -0.80
  O       43     1.87   4.98   0.00   0.00   6.85    -0.85
  O       44     1.86   4.94   0.00   0.00   6.80    -0.80
  O       45     1.85   4.94   0.00   0.00   6.80    -0.80
  O       46     1.86   4.94   0.00   0.00   6.80    -0.80
  O       47     1.86   4.94   0.00   0.00   6.80    -0.80
  O       48     1.87   4.99   0.00   0.00   6.85    -0.85
  O       49     1.86   4.94   0.00   0.00   6.80    -0.80
  O       50     1.86   4.94   0.00   0.00   6.80    -0.80
  O       51     1.86   4.94   0.00   0.00   6.80    -0.80
  O       52     1.86   4.94   0.00   0.00   6.80    -0.80
  O       53     1.86   4.94   0.00   0.00   6.80    -0.80
  O       54     1.86   4.94   0.00   0.00   6.80    -0.80
  O       55     1.86   4.94   0.00   0.00   6.80    -0.80
  O       56     1.87   4.99   0.00   0.00   6.85    -0.85
  Zr       1     2.38   6.49   1.92   0.00  10.79     1.21
  Zr       2     2.37   6.48   1.93   0.00  10.78     1.22
  Zr       3     2.38   6.49   1.93   0.00  10.79     1.21
  Zr       4     2.37   6.50   1.92   0.00  10.79     1.21
[...]
  La       2     2.07   6.16   1.19   0.00   9.43     1.57
  La       3     2.05   6.15   1.19   0.00   9.40     1.60
  La       4     2.06   6.14   1.19   0.00   9.39     1.61
  La       5     2.05   6.15   1.19   0.00   9.40     1.60
  La       6     2.07   6.16   1.19   0.00   9.43     1.57
  La       7     2.06   6.14   1.19   0.00   9.39     1.61
  La       8     2.08   6.17   1.19   0.00   9.44     1.56
  La       9     2.08   6.17   1.19   0.00   9.44     1.56
  La      10     2.04   6.14   1.19   0.00   9.38     1.62
  La      11     2.04   6.14   1.19   0.00   9.38     1.62
  La      12     2.08   6.17   1.19   0.00   9.44     1.56
  La      13     2.04   6.15   1.19   0.00   9.38     1.62
  La      14     2.13   6.20   1.19   0.00   9.52     1.48
  La      15     2.08   6.16   1.19   0.00   9.43     1.57
  La      16     2.04   6.15   1.19   0.00   9.38     1.62

            Bond              Population      Length (A)
         O 36 -- Sn 4              0.35        2.10012
         O 29 -- Sn 3              0.35        2.10012
         O 16 -- Sn 4              0.35        2.10358
         O 43 -- Sn 3              0.35        2.10358
         O 56 -- Sn 1              0.34        2.10400
         O 48 -- Sn 2              0.34        2.10400
         O 26 -- Sn 4              0.35        2.10490
         O 34 -- Sn 3              0.35        2.10490
         O 19 -- Sn 1              0.35        2.10580
         O 15 -- Sn 2              0.35        2.10580
         O 33 -- Sn 2              0.34        2.10714
         O 28 -- Sn 1              0.34        2.10714
         O 45 -- Zr 12             0.42        2.10757
         O 37 -- Sn 1              0.35        2.10836
         O 21 -- Sn 2              0.35        2.10836
         O 13 -- Sn 3              0.34        2.10867
         O 17 -- Sn 4              0.34        2.10867
         O 12 -- Sn 3              0.35        2.11198
         O 41 -- Sn 4              0.35        2.11198
         O 9  -- Zr 11             0.43        2.11268
         O 32 -- Sn 2              0.34        2.11288
         O 22 -- Sn 1              0.34        2.11288
         O 13 -- Zr 10             0.46        2.11292
         O 17 -- Zr 9              0.46        2.11292
         O 36 -- Zr 3              0.45        2.11350
         O 29 -- Zr 5              0.45        2.11350
         O 10 -- Zr 9              0.42        2.11372
         O 42 -- Zr 10             0.42        2.11372
         O 42 -- Zr 2              0.42        2.11385
         O 10 -- Zr 6              0.42        2.11385
         O 22 -- Sn 3              0.33        2.11478
         O 32 -- Sn 4              0.33        2.11478
         O 53 -- Zr 7              0.42        2.11549
         O 49 -- Zr 4              0.42        2.11549
         O 45 -- Zr 1              0.41        2.11611
         O 16 -- Zr 6              0.46        2.11648
         O 43 -- Zr 2              0.46        2.11648
         O 9  -- Zr 8              0.43        2.11740
         O 23 -- Zr 8              0.43        2.11768
         O 38 -- Zr 8              0.43        2.11768
         O 53 -- Zr 3              0.42        2.11772
         O 49 -- Zr 5              0.42        2.11772
         O 47 -- Zr 4              0.43        2.11773
         O 55 -- Zr 7              0.43        2.11773
         O 28 -- Zr 5              0.45        2.11780
         O 33 -- Zr 3              0.45        2.11780
         O 30 -- Zr 10             0.43        2.11815
         O 24 -- Zr 9              0.43        2.11815
         O 11 -- Sn 2              0.33        2.11818
         O 11 -- Sn 1              0.33        2.11818
         O 30 -- Zr 11             0.43        2.11864
         O 24 -- Zr 11             0.43        2.11864
         O 18 -- Zr 7              0.43        2.11891
         O 39 -- Zr 4              0.43        2.11891
         O 40 -- Zr 8              0.43        2.11959
         O 20 -- Zr 8              0.43        2.11959
         O 52 -- Zr 1              0.43        2.11967
         O 51 -- Zr 2              0.43        2.11977
         O 51 -- Zr 6              0.43        2.11977
         O 19 -- Zr 12             0.45        2.11999
[...]
         O 14 -- O 28             -0.03        2.82372
         O 27 -- O 40             -0.03        2.82418
         O 20 -- O 27             -0.03        2.82418
         O 46 -- O 53             -0.03        2.82585
         O 46 -- O 49             -0.03        2.82585
         O 18 -- O 25             -0.03        2.82693
         O 25 -- O 39             -0.03        2.82693
         O 15 -- O 31             -0.03        2.82791
         O 19 -- O 35             -0.03        2.82791
         O 47 -- O 51             -0.03        2.82888
         O 51 -- O 55             -0.03        2.82888
         O 16 -- O 31             -0.03        2.83224
         O 35 -- O 43             -0.03        2.83224
         O 37 -- O 41             -0.03        2.83545
         O 12 -- O 21             -0.03        2.83545

Writing analysis data to 12.castep_bin

Writing model to 12.check

 A BibTeX formatted list of references used in this run has been written to
 12.bib

Initialisation time =     53.69 s
Calculation time    =  32915.65 s
Finalisation time   =     61.75 s
Total time          =  33031.09 s

Overall parallel efficiency rating: Good (77%)

Data was distributed by:-
G-vector (4-way); efficiency rating: Good (78%)
k-point (14-way); efficiency rating: Excellent (98%)