 Compiled for linux_x86_64_ifort16 on Sat, 23 Jul 2016 23:44:54 +0100
 from code version
 203e84763863+ Castep161_branch Fri, 04 Mar 2016 19:21:07 +0000
 Compiler: Intel Fortran 16.0.3.210; Optimisation: fast
 MATHLIBS: Intel MKL(11.3.3) (LAPACK version 3.6.0)
 FFT Lib : mkl
 Fundamental constants values: CODATA 2010

 Run started: Tue, 26 Dec 2017 21:42:21 +0000
 |           N   N    M   M    RRRR                |
 |           NN  N    MM MM    R   R               |
 |           N N N    M M M    RRRR                |
 |           N  NN    M   M    R  R                |
 |           N   N    M   M    R   R               |
 | Welcome to Materials Studio CASTEP-NMR          |
 | Authors:                                        |
 | J.R. Yates, C.J. Pickard, F. Mauri              |
 | Contributors:                                   |
 | T.F.G. Green, S.A. Joyce                        |
 | Copyright (c) 2004 - 2015                       |
 | Please cite the appropriate publications in all |
 | work arising from your use of CASTEP NMR.       |
 | For NMR Shielding Tensors cite:                 |
 |    "All-electron magnetic response with         |
 |    pseudopotentials: NMR chemical shifts",      |
 |    C. J. Pickard, F. Mauri;                     |
 |    Physical Review B63 245101 (2001), and       |
 |    "Calculation of NMR Chemical Shifts          |
 |    for extended systems using                   |
 |    Ultrasoft Pseudopotentials",                 |
 |    J. R. Yates, C. J. Pickard and F. Mauri      |
 |    Physical Review B76 024401 (2007)            |
 | For Electric Field Gradients cite:              |
 |   "Accurate First Principles Prediction of 17O  |
 |    NMR Parameters in SiO2: Assignment of the    |
 |    Zeolite Ferrierite Spectrum"                 |
 |    M. Profeta, F. Mauri and C. J. Pickard       |
 |    J. Amer. Chem. Soc. 125 541 (2003)           |
 | For Spin-Spin (J) Couplings cite:               |
 |   "A first principles theory of NMR J-coupling  |
 |   in solid-state systems"                       |
 |   S.A. Joyce, J.R. Yates, C.J. Pickard, F. Mauri|
 |   J. Chem. Phys. 127 204107 (2007)              |
 |   "Relativistic NMR J-coupling with ultrasoft   |
 |   pseudopotentials and the zeroth-order regular |
 |   approximation"                                |
 |   T.F.G. Green and J.R. Yates                   |
 |   J. Chem. Phys. 140 234106 (2014)              |

 Atomic calculation performed for O: 1s2 2s2 2p4

 Converged in 44 iterations to an ae energy of -2040.855 eV

 Atomic calculation performed for O: 1s2 2s2 2p4

 Exceeded max iterations: converged to 0.000000062 eV

   | Pseudopotential Report - Date of generation 26-12-2017   |
   | Element: O Ionic charge:  6.00 Level of theory: PBE      |
   | Atomic Solver: ZORA (scalar)                             |
   |               Reference Electronic Structure             |
   |         Orbital         Occupation         Energy        |
   |            2s              2.000           -0.881        |
   |            2p              4.000           -0.332        |
   |                 Pseudopotential Definition               |
   |        Beta     l      e      Rc     scheme   norm       |
   |          1      0   -0.881   1.100     qc      0         |
   |          2      0    0.250   1.100     qc      0         |
   |          3      1   -0.332   1.100     qc      0         |
   |          4      1    0.250   1.100     qc      0         |
   |         loc     2    0.000   1.100     pn      0         |
   | Augmentation charge Rinner = 0.769                       |
   | Partial core correction Rc = 0.769                       |
   | "2|1.1|15|18|20|20:21(qc=7)"                             |
   |      Author: Chris J. Pickard, Cambridge University      |

 Atomic calculation performed for Zr: 1s2 2s2 2p6 3s2 3p6 3d10 4s2 4p6 4d2 5s2

[...]

 Atomic calculation performed for Zr: 1s2 2s2 2p6 3s2 3p6 3d10 4s2 4p6 4d2 5s2

[...]

 Warning: ion_atom_descreen_psp: negative charge density encountered
   | Pseudopotential Report - Date of generation 26-12-2017   |
   | Element: Zr Ionic charge: 12.00 Level of theory: PBE     |
   | Atomic Solver: ZORA (scalar)                             |
   |               Reference Electronic Structure             |
   |         Orbital         Occupation         Energy        |
   |            4s              2.000           -2.003        |
   |            4p              6.000           -1.193        |
   |            5s              2.000           -0.163        |
   |            4d              2.000           -0.132        |
   |                 Pseudopotential Definition               |
   |        Beta     l      e      Rc     scheme   norm       |
   |          1      0   -2.003   2.105     qc      0         |
   |          2      0   -0.163   2.105     qc      0         |
   |          3      0    0.250   2.105     qc      0         |
   |          4      1   -1.193   2.105     qc      0         |
   |          5      1    0.250   2.105     qc      0         |
   |          6      2   -0.132   2.105     qc      0         |
   |          7      2    0.250   2.105     qc      0         |
   |         loc     3    0.000   2.105     pn      0         |
   | Augmentation charge Rinner = 1.471                       |
   | Partial core correction Rc = 1.471                       |
   | "3|2.1|7|8|9|40U:50:41:42"                               |
   |      Author: Chris J. Pickard, Cambridge University      |

 Atomic calculation performed for Sn:

[...]

 Atomic calculation performed for Sn:

[...]

   | Pseudopotential Report - Date of generation 26-12-2017   |
   | Element: Sn Ionic charge: 14.00 Level of theory: PBE     |
   | Atomic Solver: ZORA (scalar)                             |
   |               Reference Electronic Structure             |
   |         Orbital         Occupation         Energy        |
   |            4d             10.000           -0.950        |
   |            5s              2.000           -0.388        |
   |            5p              2.000           -0.136        |
   |                 Pseudopotential Definition               |
   |        Beta     l      e      Rc     scheme   norm       |
   |          1      0   -0.388   2.199     qc      0         |
   |          2      0    0.250   2.199     qc      0         |
   |          3      1   -0.136   2.199     qc      0         |
   |          4      1    0.250   2.199     qc      0         |
   |          5      2   -0.950   2.199     qc      0         |
   |          6      2    0.250   2.199     qc      0         |
   |         loc     3    0.000   2.199     pn      0         |
   | Augmentation charge Rinner = 1.537                       |
   | Partial core correction Rc = 1.537                       |
   | "3|2.2|7|8|9|50:51:42"                                   |
   |      Author: Chris J. Pickard, Cambridge University      |

 Atomic calculation performed for La:

 Converged in 56 iterations to an ae energy of -230121.495 eV

 Atomic calculation performed for La:

 Exceeded max iterations: converged to 0.000000907 eV

 Warning: ion_atom_descreen_psp: negative charge density encountered
   | Pseudopotential Report - Date of generation 26-12-2017   |
   | Element: La Ionic charge: 11.00 Level of theory: PBE     |
   | Atomic Solver: ZORA (scalar)                             |
   |               Reference Electronic Structure             |
   |         Orbital         Occupation         Energy        |
   |            5s              2.000           -1.430        |
   |            5p              6.000           -0.823        |
   |            6s              2.000           -0.135        |
   |            5d              1.000           -0.114        |
   |                 Pseudopotential Definition               |
   |        Beta     l      e      Rc     scheme   norm       |
   |          1      0   -1.430   2.298     qc      0         |
   |          2      0   -0.135   2.298     qc      0         |
   |          3      0    0.250   2.298     qc      0         |
   |          4      1   -0.823   2.298     qc      0         |
   |          5      1    0.250   2.298     qc      0         |
   |          6      2   -0.114   2.298     qc      0         |
   |          7      2    0.250   2.298     qc      0         |
   |         loc     2    0.000   2.298     pn      0         |
   | Augmentation charge Rinner = 1.606                       |
   | Partial core correction Rc = 1.606                       |
   | "2|2.3|5|6|7|50U:60:51:52(qc=4.5)"                       |
   |      Author: Chris J. Pickard, Cambridge University      |

 Pseudo atomic calculation performed for O 2s2 2p4

 Converged in 39 iterations to a total energy of -432.6554 eV

 Pseudo atomic calculation performed for Zr 4s2 4p6 4d2 5s2

[...]

 Calculation parallelised over 56 processes.
 Data is distributed by G-vector(4-way) and k-point(14-way)

 ************************************ Title ************************************
 nmr testing

 ***************************** General Parameters ******************************

 output verbosity                               : normal  (1)
 write checkpoint data to                       : 14.check
 type of calculation                            : Magnetic Resonance
 stress calculation                             : on
 density difference calculation                 : off
 electron localisation func (ELF) calculation   : off
 Hirshfeld analysis                             : off
 unlimited duration calculation
 timing information                             : on
 write final potential to formatted file        : off
 write final density to formatted file          : off
 write structure in CIF formatted file          : on
 write structure in CELL formatted file         : on
 write BibTeX reference list                    : on
 write OTFG pseudopotential files               : on
 checkpoint writing                             : both castep_bin and check files

 output         length unit                     : A
 output           mass unit                     : amu
 output           time unit                     : ps
 output         charge unit                     : e
 output           spin unit                     : hbar/2
 output         energy unit                     : eV
 output          force unit                     : eV/A
 output       velocity unit                     : A/ps
 output       pressure unit                     : GPa
 output     inv_length unit                     : 1/A
 output      frequency unit                     : cm-1
 output force constant unit                     : eV/A**2
 output         volume unit                     : A**3
 output   IR intensity unit                     : (D/A)**2/amu
 output         dipole unit                     : D
 output         efield unit                     : eV/A/e
 output        entropy unit                     : J/mol/K

 wavefunctions paging                           : none
 random number generator seed                   : randomised (214223067)
 data distribution                              : optimal for this architecture
[...]
  |    O          41      -90.90      93.59      0.15  -3.166E+00   0.13 |
  |    O          42      -88.39      93.09      0.24  -3.181E+00   0.11 |
  |    O          43     -164.67     156.92      0.85   1.077E+00   0.88 |
  |    O          44     -165.28     151.16      0.75   1.040E+00   0.91 |
  |    O          45      -85.64      95.15      0.26  -3.166E+00   0.11 |
  |    O          46     -164.02     145.92      0.79   1.079E+00   0.81 |
  |    O          47     -166.24     157.83      0.81   1.070E+00   0.96 |
  |    O          48     -162.53     151.69      0.83   1.063E+00   0.82 |
  |    O          49     -164.37     152.94      0.78   1.076E+00   0.88 |
  |    O          50      -84.47      85.63      0.12  -3.158E+00   0.10 |
  |    O          51     -162.67     151.21      0.83   1.062E+00   0.82 |
  |    O          52     -166.02     159.30      0.80   1.071E+00   0.95 |
  |    O          53      -90.83      89.47      0.16  -3.197E+00   0.13 |
  |    O          54     -164.95     154.31      0.82   1.040E+00   0.94 |
  |    O          55      -88.98      78.11      0.21  -3.241E+00   0.11 |
  |    O          56     -166.54     161.31      0.80   1.047E+00   0.98 |
  |    Zr          1     1632.92    -128.35      0.09  -3.933E+01   0.05 |
  |    Zr          2     1626.58    -126.88      0.09  -3.828E+01   0.12 |
  |    Zr          3     1622.22    -123.08      0.16  -3.933E+01   0.03 |
  |    Zr          4     1627.76    -124.70      0.11  -4.039E+01   0.06 |
[...]
  |    La          2     4751.72     875.51      0.04  -8.286E+01   0.06 |
  |    La          3     4755.09     870.09      0.04  -8.443E+01   0.04 |
  |    La          4     4758.85     861.83      0.04  -8.565E+01   0.06 |
  |    La          5     4607.34     530.91      0.09  -7.499E+01   0.10 |
  |    La          6     4754.51     864.89      0.05  -8.416E+01   0.07 |
  |    La          7     4801.15     963.92      0.01  -8.612E+01   0.02 |
  |    La          8     4708.49     749.17      0.03  -8.085E+01   0.08 |
  |    La          9     4705.44     784.07      0.12  -8.086E+01   0.12 |
  |    La         10     4708.37     748.77      0.03  -8.090E+01   0.07 |
  |    La         11     4751.29     870.39      0.04  -8.255E+01   0.07 |
  |    La         12     4706.88     777.70      0.05  -8.155E+01   0.05 |
  |    La         13     4755.13     870.06      0.04  -8.437E+01   0.04 |
  |    La         14     4758.84     862.74      0.04  -8.573E+01   0.06 |
  |    La         15     4712.18     771.38      0.05  -8.277E+01   0.09 |
  |    La         16     4706.81     777.19      0.05  -8.150E+01   0.05 |

 *********************** Forces ***********************
 *            Cartesian components (eV/A)             *
 *                   x            y            z      *
 * O         1      0.00407     -0.00033     -0.01006 *
 * O         2      0.00075      0.00747     -0.00578 *
 * O         3     -0.00026     -0.00502      0.00262 *
 * O         4      0.00306     -0.00106     -0.00043 *
 * O         5     -0.01157     -0.00261      0.00586 *
 * O         6      0.00105      0.00008      0.00230 *
 * O         7     -0.00222     -0.00514     -0.00148 *
 * O         8      0.00387      0.00490      0.00108 *
 * O         9      0.01099      0.01373      0.00313 *
 * O        10     -0.00851     -0.00087      0.00476 *
 * O        11     -0.01397      0.00617     -0.00525 *
 * O        12      0.00391      0.01227      0.01711 *
 * O        13      0.01664      0.00340      0.00949 *
 * O        14     -0.00819     -0.00059      0.01334 *
 * O        15     -0.00961      0.00462      0.01231 *
 * O        16     -0.01998     -0.00467     -0.01346 *
 * O        17     -0.02737     -0.01562     -0.00613 *
 * O        18     -0.00444      0.00497     -0.00018 *
 * O        19     -0.02146      0.01490     -0.00199 *
 * O        20     -0.00941     -0.00153     -0.00222 *
 * O        21      0.01753      0.00258     -0.01961 *
 * O        22     -0.00419     -0.00423     -0.00356 *
 * O        23     -0.00286     -0.01072     -0.00935 *
 * O        24      0.00629      0.01739      0.00329 *
 * O        25     -0.00974      0.01396     -0.02021 *
 * O        26     -0.00404     -0.00370     -0.00634 *
 * O        27      0.00270     -0.01407     -0.01702 *
 * O        28     -0.00419      0.00433     -0.01433 *
 * O        29      0.00274      0.01022     -0.00045 *
 * O        30     -0.01118      0.01447     -0.00115 *
 * O        31      0.01769     -0.01090     -0.00392 *
 * O        32      0.01757      0.02260     -0.00345 *
 * O        33      0.01719      0.00536      0.00747 *
 * O        34     -0.00819     -0.00961     -0.00738 *
 * O        35      0.01111     -0.00698     -0.01145 *
 * O        36      0.01935      0.00008      0.03075 *
 * O        37     -0.00834     -0.00995      0.00320 *
 * O        38     -0.00582     -0.00711     -0.00965 *
 * O        39     -0.00127     -0.01410      0.00410 *
 * O        40      0.01406      0.00581      0.01434 *
 * O        41     -0.00496     -0.01983     -0.02595 *
 * O        42     -0.00144     -0.01787      0.01503 *
 * O        43     -0.00088     -0.00582      0.00964 *
 * O        44      0.00781      0.00699     -0.00097 *
 * O        45      0.00503      0.01020      0.01843 *
 * O        46     -0.00119     -0.01273      0.01263 *
 * O        47      0.00495     -0.00415     -0.02128 *
 * O        48      0.00646     -0.00166      0.00659 *
 * O        49      0.01061      0.00376     -0.01316 *
 * O        50     -0.00852      0.00253     -0.01725 *
 * O        51      0.00222      0.00100     -0.00018 *
 * O        52     -0.00692      0.00537      0.01127 *
 * O        53      0.02257     -0.01246      0.00890 *
 * O        54      0.00847      0.00146     -0.00854 *
 * O        55     -0.02247     -0.00055      0.01813 *
 * O        56     -0.01117      0.00486     -0.01008 *
 * Zr        1     -0.02215      0.03572     -0.00937 *
 * Zr        2     -0.00305      0.00174     -0.00018 *
 * Zr        3     -0.00194      0.00450     -0.00920 *
 * Zr        4     -0.00847     -0.00213      0.00358 *
[...]
 * La        2      0.01520     -0.01069      0.00163 *
 * La        3      0.00473      0.00992      0.00305 *
 * La        4     -0.01474     -0.00157     -0.00700 *
 * La        5      0.00122     -0.00329     -0.00209 *
 * La        6      0.02244      0.01158     -0.00880 *
 * La        7      0.00455     -0.00962      0.01698 *
 * La        8      0.00782      0.00824     -0.01180 *
 * La        9     -0.00444      0.00286     -0.00234 *
 * La       10     -0.00405     -0.00366      0.00418 *
 * La       11      0.00037      0.01209      0.01342 *
 * La       12     -0.01277     -0.00650      0.00786 *
 * La       13     -0.00183     -0.00757      0.00298 *
 * La       14     -0.00049      0.00065     -0.00891 *
 * La       15      0.01573      0.01002      0.00189 *
 * La       16     -0.00485      0.00718     -0.00292 *

 ***************** Stress Tensor *****************
 *          Cartesian components (GPa)           *
 *             x             y             z     *
 *  x      0.027037      0.026261     -0.009401  *
 *  y      0.026261      0.025152     -0.026307  *
 *  z     -0.009401     -0.026307      0.016524  *
 *  Pressure:   -0.0229                          *

[...]

 Pseudo atomic calculation performed for Sn 4d10 5s2 5p2

[...]

 Pseudo atomic calculation performed for La 5s2 5p6 5d1 6s2

 Converged in 34 iterations to a total energy of -968.0372 eV

Charge spilling parameter for spin component 1 = 0.22%

     Atomic Populations (Mulliken)
Species   Ion     s      p      d      f     Total  Charge (e)
  O        1     1.87   5.00   0.00   0.00   6.87    -0.87
  O        2     1.87   5.00   0.00   0.00   6.87    -0.87
  O        3     1.87   5.00   0.00   0.00   6.87    -0.87
  O        4     1.87   5.00   0.00   0.00   6.87    -0.87
  O        5     1.87   5.00   0.00   0.00   6.87    -0.87
  O        6     1.87   5.00   0.00   0.00   6.87    -0.87
  O        7     1.87   5.00   0.00   0.00   6.87    -0.87
  O        8     1.87   5.00   0.00   0.00   6.87    -0.87
  O        9     1.86   4.94   0.00   0.00   6.80    -0.80
  O       10     1.86   4.94   0.00   0.00   6.80    -0.80
  O       11     1.86   4.94   0.00   0.00   6.80    -0.80
  O       12     1.87   4.99   0.00   0.00   6.85    -0.85
  O       13     1.87   4.99   0.00   0.00   6.85    -0.85
  O       14     1.86   4.94   0.00   0.00   6.80    -0.80
  O       15     1.87   4.98   0.00   0.00   6.85    -0.85
  O       16     1.87   4.98   0.00   0.00   6.85    -0.85
  O       17     1.87   4.98   0.00   0.00   6.85    -0.85
  O       18     1.88   5.02   0.00   0.00   6.90    -0.90
  O       19     1.87   4.98   0.00   0.00   6.85    -0.85
  O       20     1.86   4.94   0.00   0.00   6.80    -0.80
  O       21     1.87   4.98   0.00   0.00   6.85    -0.85
  O       22     1.86   4.94   0.00   0.00   6.80    -0.80
  O       23     1.86   4.94   0.00   0.00   6.80    -0.80
  O       24     1.86   4.94   0.00   0.00   6.80    -0.80
  O       25     1.87   4.98   0.00   0.00   6.85    -0.85
  O       26     1.88   5.02   0.00   0.00   6.90    -0.90
  O       27     1.87   4.98   0.00   0.00   6.85    -0.85
  O       28     1.86   4.94   0.00   0.00   6.80    -0.80
  O       29     1.86   4.94   0.00   0.00   6.80    -0.80
  O       30     1.87   4.98   0.00   0.00   6.85    -0.85
  O       31     1.87   4.98   0.00   0.00   6.85    -0.85
  O       32     1.87   4.99   0.00   0.00   6.85    -0.85
  O       33     1.86   4.94   0.00   0.00   6.80    -0.80
  O       34     1.86   4.94   0.00   0.00   6.80    -0.80
  O       35     1.87   4.98   0.00   0.00   6.85    -0.85
  O       36     1.87   4.99   0.00   0.00   6.85    -0.85
  O       37     1.86   4.94   0.00   0.00   6.80    -0.80
  O       38     1.86   4.94   0.00   0.00   6.80    -0.80
  O       39     1.86   4.94   0.00   0.00   6.80    -0.80
  O       40     1.86   4.94   0.00   0.00   6.80    -0.80
  O       41     1.87   4.98   0.00   0.00   6.85    -0.85
  O       42     1.87   4.99   0.00   0.00   6.85    -0.85
  O       43     1.86   4.94   0.00   0.00   6.80    -0.80
  O       44     1.86   4.94   0.00   0.00   6.80    -0.80
  O       45     1.87   4.98   0.00   0.00   6.85    -0.85
  O       46     1.86   4.94   0.00   0.00   6.80    -0.80
  O       47     1.85   4.94   0.00   0.00   6.80    -0.80
  O       48     1.86   4.94   0.00   0.00   6.80    -0.80
  O       49     1.86   4.94   0.00   0.00   6.80    -0.80
  O       50     1.87   4.98   0.00   0.00   6.85    -0.85
  O       51     1.86   4.94   0.00   0.00   6.80    -0.80
  O       52     1.85   4.94   0.00   0.00   6.80    -0.80
  O       53     1.87   4.99   0.00   0.00   6.85    -0.85
  O       54     1.86   4.94   0.00   0.00   6.80    -0.80
  O       55     1.87   4.98   0.00   0.00   6.85    -0.85
  O       56     1.85   4.94   0.00   0.00   6.80    -0.80
  Zr       1     2.38   6.49   1.93   0.00  10.79     1.21
  Zr       2     2.37   6.49   1.92   0.00  10.79     1.21
  Zr       3     2.37   6.49   1.93   0.00  10.79     1.21
  Zr       4     2.38   6.48   1.93   0.00  10.78     1.22
[...]
  La       2     2.06   6.14   1.19   0.00   9.39     1.61
  La       3     2.06   6.15   1.19   0.00   9.40     1.60
  La       4     2.05   6.15   1.19   0.00   9.40     1.60
  La       5     2.12   6.20   1.19   0.00   9.51     1.49
  La       6     2.05   6.15   1.19   0.00   9.39     1.61
  La       7     2.01   6.13   1.19   0.00   9.34     1.66
  La       8     2.08   6.17   1.19   0.00   9.44     1.56
  La       9     2.08   6.16   1.19   0.00   9.43     1.57
  La      10     2.08   6.17   1.19   0.00   9.44     1.56
  La      11     2.06   6.14   1.19   0.00   9.39     1.61
  La      12     2.06   6.16   1.19   0.00   9.41     1.59
  La      13     2.06   6.15   1.19   0.00   9.40     1.60
  La      14     2.05   6.15   1.19   0.00   9.40     1.60
  La      15     2.05   6.17   1.19   0.00   9.41     1.59
  La      16     2.06   6.16   1.19   0.00   9.41     1.59

            Bond              Population      Length (A)
         O 13 -- Sn 2              0.35        2.10118
         O 36 -- Sn 4              0.35        2.10131
         O 27 -- Sn 3              0.35        2.10215
         O 19 -- Sn 3              0.35        2.10250
         O 31 -- Sn 3              0.35        2.10458
         O 45 -- Sn 3              0.35        2.10482
         O 32 -- Sn 4              0.35        2.10545
         O 42 -- Sn 2              0.35        2.10551
         O 12 -- Sn 1              0.34        2.10553
         O 53 -- Sn 1              0.34        2.10579
         O 55 -- Sn 1              0.35        2.10672
         O 16 -- Sn 4              0.35        2.10685
         O 21 -- Sn 1              0.35        2.10692
         O 41 -- Sn 4              0.34        2.10718
         O 30 -- Sn 2              0.34        2.10723
         O 50 -- Sn 2              0.35        2.10761
         O 35 -- Sn 3              0.34        2.10917
         O 15 -- Sn 3              0.34        2.10945
         O 17 -- Sn 4              0.35        2.10986
         O 25 -- Sn 2              0.35        2.11030
         O 56 -- Zr 9              0.43        2.11184
         O 26 -- Sn 4              0.33        2.11297
         O 52 -- Zr 12             0.43        2.11324
         O 43 -- Zr 2              0.42        2.11346
         O 18 -- Sn 2              0.33        2.11355
         O 36 -- Zr 3              0.45        2.11365
         O 39 -- Zr 8              0.43        2.11422
         O 18 -- Sn 1              0.33        2.11439
         O 26 -- Sn 1              0.33        2.11464
         O 41 -- Zr 4              0.46        2.11477
         O 33 -- Zr 10             0.42        2.11505
         O 47 -- Zr 4              0.43        2.11558
         O 19 -- Zr 9              0.46        2.11597
         O 33 -- Zr 3              0.42        2.11638
         O 24 -- Zr 8              0.43        2.11674
         O 20 -- Zr 5              0.43        2.11702
         O 10 -- Zr 6              0.43        2.11716
         O 23 -- Zr 7              0.43        2.11725
         O 14 -- Zr 5              0.43        2.11727
         O 52 -- Zr 1              0.43        2.11729
         O 14 -- Zr 12             0.43        2.11752
         O 28 -- Zr 9              0.43        2.11756
         O 30 -- Zr 12             0.46        2.11767
         O 31 -- Zr 6              0.45        2.11778
         O 28 -- Zr 5              0.43        2.11780
         O 56 -- Zr 1              0.43        2.11784
         O 47 -- Zr 6              0.43        2.11798
         O 39 -- Zr 4              0.42        2.11801
         O 43 -- Zr 11             0.42        2.11810
         O 45 -- Zr 1              0.45        2.11812
         O 49 -- Zr 5              0.43        2.11817
         O 20 -- Zr 7              0.43        2.11827
         O 32 -- Zr 10             0.45        2.11829
         O 37 -- Zr 4              0.43        2.11852
         O 49 -- Zr 4              0.43        2.11855
         O 53 -- Zr 3              0.45        2.11859
         O 54 -- Zr 1              0.43        2.11860
         O 23 -- Zr 6              0.43        2.11869
         O 27 -- Zr 7              0.45        2.11892
         O 24 -- Zr 12             0.42        2.11922
[...]
         O 46 -- O 49             -0.03        2.82452
         O 46 -- O 53             -0.03        2.82453
         O 16 -- O 31             -0.03        2.82461
         O 12 -- O 29             -0.03        2.82466
         O 33 -- O 40             -0.03        2.82496
         O 38 -- O 42             -0.03        2.82497
         O 11 -- O 32             -0.03        2.82522
         O 22 -- O 43             -0.03        2.82549
         O 11 -- O 22             -0.03        2.82556
         O 21 -- O 48             -0.03        2.82638
         O 38 -- O 40             -0.03        2.82640
         O 51 -- O 55             -0.03        2.82655
         O 16 -- O 51             -0.03        2.83367
         O 48 -- O 50             -0.03        2.83376
         O 17 -- O 25             -0.03        2.83662

Writing analysis data to 14.castep_bin

Writing model to 14.check

 A BibTeX formatted list of references used in this run has been written to
 14.bib

Initialisation time =     54.09 s
Calculation time    =  33145.01 s
Finalisation time   =     45.87 s
Total time          =  33244.97 s

Overall parallel efficiency rating: Good (79%)

Data was distributed by:-
G-vector (4-way); efficiency rating: Good (79%)
k-point (14-way); efficiency rating: Ideal (100%)