 Compiled for linux_x86_64_ifort16 on Sat, 23 Jul 2016 23:44:54 +0100
 from code version
 203e84763863+ Castep161_branch Fri, 04 Mar 2016 19:21:07 +0000
 Compiler: Intel Fortran 16.0.3.210; Optimisation: fast
 MATHLIBS: Intel MKL(11.3.3) (LAPACK version 3.6.0)
 FFT Lib : mkl
 Fundamental constants values: CODATA 2010

 Run started: Wed, 27 Dec 2017 06:56:43 +0000
 |           N   N    M   M    RRRR                |
 |           NN  N    MM MM    R   R               |
 |           N N N    M M M    RRRR                |
 |           N  NN    M   M    R  R                |
 |           N   N    M   M    R   R               |
 | Welcome to Materials Studio CASTEP-NMR          |
 | Authors:                                        |
 | J.R. Yates, C.J. Pickard, F. Mauri              |
 | Contributors:                                   |
 | T.F.G. Green, S.A. Joyce                        |
 | Copyright (c) 2004 - 2015                       |
 | Please cite the appropriate publications in all |
 | work arising from your use of CASTEP NMR.       |
 | For NMR Shielding Tensors cite:                 |
 |    "All-electron magnetic response with         |
 |    pseudopotentials: NMR chemical shifts",      |
 |    C. J. Pickard, F. Mauri;                     |
 |    Physical Review B63 245101 (2001), and       |
 |    "Calculation of NMR Chemical Shifts          |
 |    for extended systems using                   |
 |    Ultrasoft Pseudopotentials",                 |
 |    J. R. Yates, C. J. Pickard and F. Mauri      |
 |    Physical Review B76 024401 (2007)            |
 | For Electric Field Gradients cite:              |
 |   "Accurate First Principles Prediction of 17O  |
 |    NMR Parameters in SiO2: Assignment of the    |
 |    Zeolite Ferrierite Spectrum"                 |
 |    M. Profeta, F. Mauri and C. J. Pickard       |
 |    J. Amer. Chem. Soc. 125 541 (2003)           |
 | For Spin-Spin (J) Couplings cite:               |
 |   "A first principles theory of NMR J-coupling  |
 |   in solid-state systems"                       |
 |   S.A. Joyce, J.R. Yates, C.J. Pickard, F. Mauri|
 |   J. Chem. Phys. 127 204107 (2007)              |
 |   "Relativistic NMR J-coupling with ultrasoft   |
 |   pseudopotentials and the zeroth-order regular |
 |   approximation"                                |
 |   T.F.G. Green and J.R. Yates                   |
 |   J. Chem. Phys. 140 234106 (2014)              |

 Atomic calculation performed for O: 1s2 2s2 2p4

 Converged in 44 iterations to an ae energy of -2040.855 eV

 Atomic calculation performed for O: 1s2 2s2 2p4

 Exceeded max iterations: converged to 0.000000062 eV

   | Pseudopotential Report - Date of generation 27-12-2017   |
   | Element: O Ionic charge:  6.00 Level of theory: PBE      |
   | Atomic Solver: ZORA (scalar)                             |
   |               Reference Electronic Structure             |
   |         Orbital         Occupation         Energy        |
   |            2s              2.000           -0.881        |
   |            2p              4.000           -0.332        |
   |                 Pseudopotential Definition               |
   |        Beta     l      e      Rc     scheme   norm       |
   |          1      0   -0.881   1.100     qc      0         |
   |          2      0    0.250   1.100     qc      0         |
   |          3      1   -0.332   1.100     qc      0         |
   |          4      1    0.250   1.100     qc      0         |
   |         loc     2    0.000   1.100     pn      0         |
   | Augmentation charge Rinner = 0.769                       |
   | Partial core correction Rc = 0.769                       |
   | "2|1.1|15|18|20|20:21(qc=7)"                             |
   |      Author: Chris J. Pickard, Cambridge University      |

 Atomic calculation performed for Zr: 1s2 2s2 2p6 3s2 3p6 3d10 4s2 4p6 4d2 5s2

[...]

 Atomic calculation performed for Zr: 1s2 2s2 2p6 3s2 3p6 3d10 4s2 4p6 4d2 5s2

[...]

 Warning: ion_atom_descreen_psp: negative charge density encountered
   | Pseudopotential Report - Date of generation 27-12-2017   |
   | Element: Zr Ionic charge: 12.00 Level of theory: PBE     |
   | Atomic Solver: ZORA (scalar)                             |
   |               Reference Electronic Structure             |
   |         Orbital         Occupation         Energy        |
   |            4s              2.000           -2.003        |
   |            4p              6.000           -1.193        |
   |            5s              2.000           -0.163        |
   |            4d              2.000           -0.132        |
   |                 Pseudopotential Definition               |
   |        Beta     l      e      Rc     scheme   norm       |
   |          1      0   -2.003   2.105     qc      0         |
   |          2      0   -0.163   2.105     qc      0         |
   |          3      0    0.250   2.105     qc      0         |
   |          4      1   -1.193   2.105     qc      0         |
   |          5      1    0.250   2.105     qc      0         |
   |          6      2   -0.132   2.105     qc      0         |
   |          7      2    0.250   2.105     qc      0         |
   |         loc     3    0.000   2.105     pn      0         |
   | Augmentation charge Rinner = 1.471                       |
   | Partial core correction Rc = 1.471                       |
   | "3|2.1|7|8|9|40U:50:41:42"                               |
   |      Author: Chris J. Pickard, Cambridge University      |

 Atomic calculation performed for Sn:

[...]

 Atomic calculation performed for Sn:

[...]

   | Pseudopotential Report - Date of generation 27-12-2017   |
   | Element: Sn Ionic charge: 14.00 Level of theory: PBE     |
   | Atomic Solver: ZORA (scalar)                             |
   |               Reference Electronic Structure             |
   |         Orbital         Occupation         Energy        |
   |            4d             10.000           -0.950        |
   |            5s              2.000           -0.388        |
   |            5p              2.000           -0.136        |
   |                 Pseudopotential Definition               |
   |        Beta     l      e      Rc     scheme   norm       |
   |          1      0   -0.388   2.199     qc      0         |
   |          2      0    0.250   2.199     qc      0         |
   |          3      1   -0.136   2.199     qc      0         |
   |          4      1    0.250   2.199     qc      0         |
   |          5      2   -0.950   2.199     qc      0         |
   |          6      2    0.250   2.199     qc      0         |
   |         loc     3    0.000   2.199     pn      0         |
   | Augmentation charge Rinner = 1.537                       |
   | Partial core correction Rc = 1.537                       |
   | "3|2.2|7|8|9|50:51:42"                                   |
   |      Author: Chris J. Pickard, Cambridge University      |

 Atomic calculation performed for La:

 Converged in 56 iterations to an ae energy of -230121.495 eV

 Atomic calculation performed for La:

 Exceeded max iterations: converged to 0.000000907 eV

 Warning: ion_atom_descreen_psp: negative charge density encountered
   | Pseudopotential Report - Date of generation 27-12-2017   |
   | Element: La Ionic charge: 11.00 Level of theory: PBE     |
   | Atomic Solver: ZORA (scalar)                             |
   |               Reference Electronic Structure             |
   |         Orbital         Occupation         Energy        |
   |            5s              2.000           -1.430        |
   |            5p              6.000           -0.823        |
   |            6s              2.000           -0.135        |
   |            5d              1.000           -0.114        |
   |                 Pseudopotential Definition               |
   |        Beta     l      e      Rc     scheme   norm       |
   |          1      0   -1.430   2.298     qc      0         |
   |          2      0   -0.135   2.298     qc      0         |
   |          3      0    0.250   2.298     qc      0         |
   |          4      1   -0.823   2.298     qc      0         |
   |          5      1    0.250   2.298     qc      0         |
   |          6      2   -0.114   2.298     qc      0         |
   |          7      2    0.250   2.298     qc      0         |
   |         loc     2    0.000   2.298     pn      0         |
   | Augmentation charge Rinner = 1.606                       |
   | Partial core correction Rc = 1.606                       |
   | "2|2.3|5|6|7|50U:60:51:52(qc=4.5)"                       |
   |      Author: Chris J. Pickard, Cambridge University      |

 Pseudo atomic calculation performed for O 2s2 2p4

 Converged in 39 iterations to a total energy of -432.6554 eV

 Pseudo atomic calculation performed for Zr 4s2 4p6 4d2 5s2

[...]

 Calculation parallelised over 56 processes.
 Data is distributed by G-vector(4-way) and k-point(14-way)

 ************************************ Title ************************************
 nmr testing

 ***************************** General Parameters ******************************

 output verbosity                               : normal  (1)
 write checkpoint data to                       : 15.check
 type of calculation                            : Magnetic Resonance
 stress calculation                             : on
 density difference calculation                 : off
 electron localisation func (ELF) calculation   : off
 Hirshfeld analysis                             : off
 unlimited duration calculation
 timing information                             : on
 write final potential to formatted file        : off
 write final density to formatted file          : off
 write structure in CIF formatted file          : on
 write structure in CELL formatted file         : on
 write BibTeX reference list                    : on
 write OTFG pseudopotential files               : on
 checkpoint writing                             : both castep_bin and check files

 output         length unit                     : A
 output           mass unit                     : amu
 output           time unit                     : ps
 output         charge unit                     : e
 output           spin unit                     : hbar/2
 output         energy unit                     : eV
 output          force unit                     : eV/A
 output       velocity unit                     : A/ps
 output       pressure unit                     : GPa
 output     inv_length unit                     : 1/A
 output      frequency unit                     : cm-1
 output force constant unit                     : eV/A**2
 output         volume unit                     : A**3
 output   IR intensity unit                     : (D/A)**2/amu
 output         dipole unit                     : D
 output         efield unit                     : eV/A/e
 output        entropy unit                     : J/mol/K

 wavefunctions paging                           : none
 random number generator seed                   : randomised (65644865)
 data distribution                              : optimal for this architecture
[...]
  |    O          41     -167.10     157.32      0.76   1.053E+00   0.97 |
  |    O          42      -87.14      86.88      0.08  -3.176E+00   0.09 |
  |    O          43     -165.77     157.64      0.86   1.065E+00   0.90 |
  |    O          44      -89.74      84.36      0.21  -3.185E+00   0.13 |
  |    O          45      -86.89      93.09      0.27  -3.167E+00   0.10 |
  |    O          46     -164.39     156.00      0.82   1.076E+00   0.88 |
  |    O          47     -166.33     157.23      0.76   1.075E+00   0.95 |
  |    O          48     -161.22     145.80      0.83   1.091E+00   0.74 |
  |    O          49     -167.07     156.96      0.76   1.048E+00   0.99 |
  |    O          50      -87.12      86.49      0.07  -3.175E+00   0.10 |
  |    O          51     -165.51     157.14      0.81   1.046E+00   0.91 |
  |    O          52      -89.17      86.46      0.19  -3.237E+00   0.12 |
  |    O          53      -89.96      85.23      0.21  -3.182E+00   0.13 |
  |    O          54     -165.75     158.61      0.86   1.071E+00   0.89 |
  |    O          55      -89.24      86.38      0.20  -3.240E+00   0.12 |
  |    O          56     -165.26     159.03      0.81   1.052E+00   0.90 |
  |    Zr          1     1626.92    -127.67      0.12  -3.835E+01   0.05 |
  |    Zr          2     1626.41    -127.44      0.11  -3.836E+01   0.06 |
  |    Zr          3     1632.55    -130.56      0.06  -3.927E+01   0.07 |
  |    Zr          4     1623.48    -120.94      0.07  -4.160E+01   0.04 |
[...]
  |    La          2     4751.47     872.43      0.05  -8.293E+01   0.06 |
  |    La          3     4755.46     874.00      0.04  -8.493E+01   0.03 |
  |    La          4     4764.05     853.26      0.04  -8.629E+01   0.06 |
  |    La          5     4657.16     664.39      0.11  -7.814E+01   0.13 |
  |    La          6     4711.24     781.50      0.11  -8.230E+01   0.13 |
  |    La          7     4804.27     960.75      0.01  -8.767E+01   0.03 |
  |    La          8     4703.29     755.02      0.05  -7.990E+01   0.08 |
  |    La          9     4705.89     786.84      0.12  -8.103E+01   0.13 |
  |    La         10     4711.05     779.79      0.11  -8.222E+01   0.13 |
  |    La         11     4703.12     754.84      0.05  -7.995E+01   0.08 |
  |    La         12     4753.20     877.17      0.05  -8.319E+01   0.05 |
  |    La         13     4705.76     786.04      0.12  -8.094E+01   0.13 |
  |    La         14     4804.31     957.95      0.01  -8.747E+01   0.03 |
  |    La         15     4761.74     860.78      0.05  -8.526E+01   0.08 |
  |    La         16     4657.19     664.77      0.11  -7.810E+01   0.13 |

 *********************** Forces ***********************
 *            Cartesian components (eV/A)             *
 *                   x            y            z      *
 * O         1     -0.00187     -0.00449     -0.00856 *
 * O         2      0.00191      0.00242      0.00235 *
 * O         3     -0.00202     -0.00203      0.00391 *
 * O         4      0.00048      0.00401     -0.00060 *
 * O         5     -0.00473     -0.00025      0.00747 *
 * O         6     -0.00018      0.00380     -0.00031 *
 * O         7      0.00035     -0.00280     -0.00578 *
 * O         8      0.00549      0.00147      0.00120 *
 * O         9      0.00129      0.01830      0.01291 *
 * O        10      0.00689      0.00959      0.00461 *
 * O        11     -0.01201      0.00254     -0.00251 *
 * O        12      0.01094      0.02364      0.02033 *
 * O        13      0.02013      0.00205      0.01984 *
 * O        14     -0.02584     -0.00006      0.02489 *
 * O        15     -0.01016     -0.00214      0.01798 *
 * O        16      0.00409      0.00399      0.01561 *
 * O        17      0.01086      0.01333      0.00539 *
 * O        18     -0.00126     -0.00041     -0.00031 *
 * O        19     -0.01775      0.02088     -0.00879 *
 * O        20     -0.01112     -0.01061     -0.00207 *
 * O        21      0.01801     -0.00183     -0.01603 *
 * O        22     -0.00427      0.00076     -0.00769 *
 * O        23      0.01005     -0.00443      0.00345 *
 * O        24      0.02650      0.01546     -0.02026 *
 * O        25      0.00386      0.02693     -0.02147 *
 * O        26     -0.00094     -0.02228     -0.02426 *
 * O        27     -0.00107     -0.00913     -0.01855 *
 * O        28     -0.00455     -0.00400     -0.01222 *
 * O        29     -0.00645     -0.00308     -0.00342 *
 * O        30      0.00040     -0.00188      0.00162 *
 * O        31      0.02389     -0.01503      0.00866 *
 * O        32     -0.00696     -0.00265     -0.00124 *
 * O        33      0.00877      0.00236      0.00195 *
 * O        34     -0.00521     -0.00284     -0.00333 *
 * O        35      0.01068      0.00092     -0.01409 *
 * O        36     -0.01378     -0.00938      0.00140 *
 * O        37     -0.00681     -0.00426      0.01403 *
 * O        38     -0.00484     -0.00585     -0.00972 *
 * O        39      0.00462     -0.00368      0.00076 *
 * O        40      0.00411      0.00963     -0.00412 *
 * O        41      0.00377      0.00182      0.00628 *
 * O        42      0.00044     -0.01918      0.02056 *
 * O        43      0.00140      0.00051      0.00571 *
 * O        44     -0.01271      0.01807     -0.00550 *
 * O        45      0.00373      0.00970      0.01365 *
 * O        46     -0.01449     -0.01346     -0.00182 *
 * O        47      0.00151     -0.00526     -0.01146 *
 * O        48     -0.00124     -0.00358      0.00794 *
 * O        49     -0.00253      0.00625     -0.00460 *
 * O        50     -0.01545     -0.00418     -0.01744 *
 * O        51      0.00784     -0.00555      0.01028 *
 * O        52     -0.01263     -0.01757     -0.00904 *
 * O        53      0.01724     -0.01334      0.00361 *
 * O        54      0.01581      0.01433     -0.00307 *
 * O        55     -0.01991     -0.01219      0.01140 *
 * O        56     -0.01058      0.00179     -0.01095 *
 * Zr        1      0.00460      0.03756     -0.02041 *
 * Zr        2     -0.00387     -0.00273      0.00640 *
 * Zr        3      0.00698      0.00110      0.00685 *
 * Zr        4      0.00669      0.00182      0.00049 *
[...]
 * La        2      0.00069     -0.00772     -0.01623 *
 * La        3      0.00358      0.01179      0.00545 *
 * La        4     -0.01258     -0.00834     -0.00180 *
 * La        5     -0.00833      0.00151     -0.00104 *
 * La        6      0.01034     -0.00526     -0.00888 *
 * La        7     -0.00046     -0.00437      0.00757 *
 * La        8      0.00724      0.00400     -0.01320 *
 * La        9      0.00371     -0.00412     -0.00110 *
 * La       10     -0.00821      0.00762      0.00863 *
 * La       11      0.00187      0.01445      0.02047 *
 * La       12     -0.00703     -0.01359     -0.00480 *
 * La       13     -0.00103      0.00009     -0.00084 *
 * La       14      0.00011      0.00461     -0.00760 *
 * La       15      0.01340      0.01086      0.00094 *
 * La       16     -0.00430     -0.00120      0.00199 *

 ***************** Stress Tensor *****************
 *          Cartesian components (GPa)           *
 *             x             y             z     *
 *  x      0.025715      0.018882      0.008983  *
 *  y      0.018882      0.020673     -0.009000  *
 *  z      0.008983     -0.009000      0.015711  *
 *  Pressure:   -0.0207                          *

[...]

 Pseudo atomic calculation performed for Sn 4d10 5s2 5p2

[...]

 Pseudo atomic calculation performed for La 5s2 5p6 5d1 6s2

 Converged in 34 iterations to a total energy of -968.0372 eV

Charge spilling parameter for spin component 1 = 0.22%

     Atomic Populations (Mulliken)
Species   Ion     s      p      d      f     Total  Charge (e)
  O        1     1.87   5.00   0.00   0.00   6.87    -0.87
  O        2     1.87   5.00   0.00   0.00   6.87    -0.87
  O        3     1.87   5.00   0.00   0.00   6.87    -0.87
  O        4     1.87   5.00   0.00   0.00   6.87    -0.87
  O        5     1.87   5.00   0.00   0.00   6.87    -0.87
  O        6     1.87   5.00   0.00   0.00   6.87    -0.87
  O        7     1.87   5.00   0.00   0.00   6.87    -0.87
  O        8     1.87   5.00   0.00   0.00   6.87    -0.87
  O        9     1.87   4.98   0.00   0.00   6.85    -0.85
  O       10     1.86   4.94   0.00   0.00   6.80    -0.80
  O       11     1.86   4.94   0.00   0.00   6.80    -0.80
  O       12     1.87   4.99   0.00   0.00   6.85    -0.85
  O       13     1.87   4.99   0.00   0.00   6.85    -0.85
  O       14     1.87   4.98   0.00   0.00   6.85    -0.85
  O       15     1.87   4.98   0.00   0.00   6.85    -0.85
  O       16     1.86   4.94   0.00   0.00   6.80    -0.80
  O       17     1.86   4.94   0.00   0.00   6.80    -0.80
  O       18     1.88   5.02   0.00   0.00   6.90    -0.90
  O       19     1.87   4.99   0.00   0.00   6.85    -0.85
  O       20     1.86   4.94   0.00   0.00   6.80    -0.80
  O       21     1.87   4.98   0.00   0.00   6.85    -0.85
  O       22     1.86   4.94   0.00   0.00   6.80    -0.80
  O       23     1.86   4.94   0.00   0.00   6.80    -0.80
  O       24     1.87   4.99   0.00   0.00   6.85    -0.85
  O       25     1.87   4.99   0.00   0.00   6.85    -0.85
  O       26     1.87   4.98   0.00   0.00   6.85    -0.85
  O       27     1.87   4.98   0.00   0.00   6.85    -0.85
  O       28     1.86   4.94   0.00   0.00   6.80    -0.80
  O       29     1.86   4.94   0.00   0.00   6.80    -0.80
  O       30     1.88   5.02   0.00   0.00   6.90    -0.90
  O       31     1.87   4.99   0.00   0.00   6.85    -0.85
  O       32     1.86   4.94   0.00   0.00   6.80    -0.80
  O       33     1.86   4.94   0.00   0.00   6.80    -0.80
  O       34     1.86   4.94   0.00   0.00   6.80    -0.80
  O       35     1.87   4.98   0.00   0.00   6.85    -0.85
  O       36     1.86   4.94   0.00   0.00   6.80    -0.80
  O       37     1.85   4.94   0.00   0.00   6.80    -0.80
  O       38     1.86   4.94   0.00   0.00   6.80    -0.80
  O       39     1.86   4.94   0.00   0.00   6.80    -0.80
  O       40     1.86   4.94   0.00   0.00   6.80    -0.80
  O       41     1.85   4.94   0.00   0.00   6.80    -0.80
  O       42     1.87   4.98   0.00   0.00   6.85    -0.85
  O       43     1.86   4.94   0.00   0.00   6.80    -0.80
  O       44     1.87   4.98   0.00   0.00   6.85    -0.85
  O       45     1.87   4.98   0.00   0.00   6.85    -0.85
  O       46     1.86   4.94   0.00   0.00   6.80    -0.80
  O       47     1.85   4.94   0.00   0.00   6.80    -0.80
  O       48     1.86   4.94   0.00   0.00   6.80    -0.80
  O       49     1.85   4.94   0.00   0.00   6.80    -0.80
  O       50     1.87   4.99   0.00   0.00   6.85    -0.85
  O       51     1.86   4.94   0.00   0.00   6.80    -0.80
  O       52     1.87   4.99   0.00   0.00   6.85    -0.85
  O       53     1.87   4.98   0.00   0.00   6.85    -0.85
  O       54     1.86   4.94   0.00   0.00   6.80    -0.80
  O       55     1.87   4.99   0.00   0.00   6.85    -0.85
  O       56     1.86   4.94   0.00   0.00   6.80    -0.80
  Zr       1     2.37   6.49   1.92   0.00  10.79     1.21
  Zr       2     2.37   6.49   1.92   0.00  10.79     1.21
  Zr       3     2.38   6.48   1.93   0.00  10.78     1.22
  Zr       4     2.38   6.47   1.93   0.00  10.77     1.23
[...]
  La       2     2.06   6.14   1.19   0.00   9.39     1.61
  La       3     2.06   6.15   1.19   0.00   9.40     1.60
  La       4     2.05   6.16   1.19   0.00   9.40     1.60
  La       5     2.10   6.18   1.19   0.00   9.47     1.53
  La       6     2.07   6.16   1.19   0.00   9.43     1.57
  La       7     2.02   6.14   1.19   0.00   9.35     1.65
  La       8     2.09   6.16   1.19   0.00   9.44     1.56
  La       9     2.08   6.16   1.19   0.00   9.43     1.57
  La      10     2.07   6.16   1.19   0.00   9.43     1.57
  La      11     2.09   6.16   1.19   0.00   9.44     1.56
  La      12     2.04   6.14   1.19   0.00   9.38     1.62
  La      13     2.08   6.16   1.19   0.00   9.43     1.57
  La      14     2.02   6.14   1.19   0.00   9.35     1.65
  La      15     2.03   6.15   1.19   0.00   9.38     1.62
  La      16     2.10   6.18   1.19   0.00   9.47     1.53

            Bond              Population      Length (A)
         O 31 -- Sn 4              0.35        2.10147
         O 19 -- Sn 4              0.35        2.10158
         O 24 -- Sn 3              0.35        2.10232
         O 12 -- Sn 1              0.35        2.10250
         O 55 -- Sn 1              0.35        2.10425
         O 52 -- Sn 3              0.35        2.10440
         O 13 -- Sn 2              0.35        2.10569
         O 15 -- Sn 4              0.35        2.10577
         O 25 -- Sn 2              0.35        2.10579
         O 27 -- Sn 4              0.35        2.10581
         O 26 -- Sn 1              0.35        2.10627
         O 14 -- Sn 3              0.35        2.10638
         O 42 -- Sn 2              0.35        2.10772
         O 50 -- Sn 2              0.35        2.10796
         O 9  -- Sn 3              0.35        2.10806
         O 21 -- Sn 1              0.35        2.10821
         O 35 -- Sn 4              0.34        2.10898
         O 45 -- Sn 4              0.34        2.10900
         O 44 -- Sn 3              0.34        2.11005
         O 53 -- Sn 1              0.34        2.11016
         O 54 -- Zr 8              0.42        2.11142
         O 43 -- Zr 2              0.42        2.11321
         O 30 -- Sn 3              0.33        2.11322
         O 18 -- Sn 1              0.33        2.11324
         O 20 -- Zr 5              0.43        2.11386
         O 18 -- Sn 2              0.33        2.11412
         O 30 -- Sn 2              0.33        2.11426
         O 23 -- Zr 6              0.43        2.11519
         O 47 -- Zr 4              0.43        2.11537
         O 32 -- Zr 10             0.42        2.11570
         O 11 -- Zr 10             0.42        2.11588
         O 41 -- Zr 4              0.44        2.11604
         O 31 -- Zr 6              0.46        2.11606
         O 19 -- Zr 9              0.46        2.11631
         O 49 -- Zr 4              0.44        2.11659
         O 23 -- Zr 7              0.42        2.11659
         O 56 -- Zr 9              0.43        2.11668
         O 36 -- Zr 3              0.42        2.11676
         O 24 -- Zr 8              0.45        2.11687
         O 54 -- Zr 1              0.41        2.11698
         O 34 -- Zr 11             0.44        2.11715
         O 46 -- Zr 3              0.42        2.11717
         O 41 -- Zr 12             0.44        2.11721
         O 46 -- Zr 5              0.42        2.11753
         O 12 -- Zr 11             0.45        2.11754
         O 37 -- Zr 9              0.44        2.11759
         O 37 -- Zr 4              0.43        2.11763
         O 20 -- Zr 7              0.42        2.11767
         O 39 -- Zr 8              0.44        2.11781
         O 11 -- Zr 9              0.42        2.11783
         O 47 -- Zr 6              0.44        2.11786
         O 43 -- Zr 11             0.42        2.11797
         O 56 -- Zr 1              0.43        2.11798
         O 36 -- Zr 12             0.42        2.11824
         O 40 -- Zr 7              0.42        2.11862
         O 16 -- Zr 12             0.43        2.11869
         O 32 -- Zr 12             0.42        2.11870
         O 49 -- Zr 5              0.44        2.11881
         O 51 -- Zr 2              0.43        2.11910
         O 28 -- Zr 5              0.43        2.11933
[...]
         O 11 -- O 22             -0.03        2.82640
         O 20 -- O 28             -0.03        2.82659
         O 10 -- O 23             -0.03        2.82661
         O 16 -- O 32             -0.03        2.82682
         O 16 -- O 51             -0.03        2.82689
         O 28 -- O 56             -0.03        2.82700
         O 38 -- O 40             -0.03        2.82778
         O 33 -- O 48             -0.03        2.82778
         O 14 -- O 29             -0.03        2.82950
         O 33 -- O 40             -0.03        2.82963
         O 17 -- O 26             -0.03        2.82995
         O 17 -- O 25             -0.03        2.83119
         O 13 -- O 29             -0.03        2.83163
         O 48 -- O 50             -0.03        2.83476
         O 38 -- O 42             -0.03        2.83487

Writing analysis data to 15.castep_bin

Writing model to 15.check

 A BibTeX formatted list of references used in this run has been written to
 15.bib

Initialisation time =     53.57 s
Calculation time    =  32737.03 s
Finalisation time   =     56.44 s
Total time          =  32847.04 s

Overall parallel efficiency rating: Good (77%)

Data was distributed by:-
G-vector (4-way); efficiency rating: Good (78%)
k-point (14-way); efficiency rating: Excellent (98%)