 Compiled for linux_x86_64_ifort16 on Sat, 23 Jul 2016 23:44:54 +0100
 from code version
 203e84763863+ Castep161_branch Fri, 04 Mar 2016 19:21:07 +0000
 Compiler: Intel Fortran 16.0.3.210; Optimisation: fast
 MATHLIBS: Intel MKL(11.3.3) (LAPACK version 3.6.0)
 FFT Lib : mkl
 Fundamental constants values: CODATA 2010

 Run started: Fri, 29 Dec 2017 01:20:19 +0000
 |           N   N    M   M    RRRR                |
 |           NN  N    MM MM    R   R               |
 |           N N N    M M M    RRRR                |
 |           N  NN    M   M    R  R                |
 |           N   N    M   M    R   R               |
 | Welcome to Materials Studio CASTEP-NMR          |
 | Authors:                                        |
 | J.R. Yates, C.J. Pickard, F. Mauri              |
 | Contributors:                                   |
 | T.F.G. Green, S.A. Joyce                        |
 | Copyright (c) 2004 - 2015                       |
 | Please cite the appropriate publications in all |
 | work arising from your use of CASTEP NMR.       |
 | For NMR Shielding Tensors cite:                 |
 |    "All-electron magnetic response with         |
 |    pseudopotentials: NMR chemical shifts",      |
 |    C. J. Pickard, F. Mauri;                     |
 |    Physical Review B63 245101 (2001), and       |
 |    "Calculation of NMR Chemical Shifts          |
 |    for extended systems using                   |
 |    Ultrasoft Pseudopotentials",                 |
 |    J. R. Yates, C. J. Pickard and F. Mauri      |
 |    Physical Review B76 024401 (2007)            |
 | For Electric Field Gradients cite:              |
 |   "Accurate First Principles Prediction of 17O  |
 |    NMR Parameters in SiO2: Assignment of the    |
 |    Zeolite Ferrierite Spectrum"                 |
 |    M. Profeta, F. Mauri and C. J. Pickard       |
 |    J. Amer. Chem. Soc. 125 541 (2003)           |
 | For Spin-Spin (J) Couplings cite:               |
 |   "A first principles theory of NMR J-coupling  |
 |   in solid-state systems"                       |
 |   S.A. Joyce, J.R. Yates, C.J. Pickard, F. Mauri|
 |   J. Chem. Phys. 127 204107 (2007)              |
 |   "Relativistic NMR J-coupling with ultrasoft   |
 |   pseudopotentials and the zeroth-order regular |
 |   approximation"                                |
 |   T.F.G. Green and J.R. Yates                   |
 |   J. Chem. Phys. 140 234106 (2014)              |

 Atomic calculation performed for O: 1s2 2s2 2p4

 Converged in 44 iterations to an ae energy of -2040.855 eV

 Atomic calculation performed for O: 1s2 2s2 2p4

 Exceeded max iterations: converged to 0.000000062 eV

   | Pseudopotential Report - Date of generation 29-12-2017   |
   | Element: O Ionic charge:  6.00 Level of theory: PBE      |
   | Atomic Solver: ZORA (scalar)                             |
   |               Reference Electronic Structure             |
   |         Orbital         Occupation         Energy        |
   |            2s              2.000           -0.881        |
   |            2p              4.000           -0.332        |
   |                 Pseudopotential Definition               |
   |        Beta     l      e      Rc     scheme   norm       |
   |          1      0   -0.881   1.100     qc      0         |
   |          2      0    0.250   1.100     qc      0         |
   |          3      1   -0.332   1.100     qc      0         |
   |          4      1    0.250   1.100     qc      0         |
   |         loc     2    0.000   1.100     pn      0         |
   | Augmentation charge Rinner = 0.769                       |
   | Partial core correction Rc = 0.769                       |
   | "2|1.1|15|18|20|20:21(qc=7)"                             |
   |      Author: Chris J. Pickard, Cambridge University      |

 Atomic calculation performed for Zr: 1s2 2s2 2p6 3s2 3p6 3d10 4s2 4p6 4d2 5s2

[...]

 Atomic calculation performed for Zr: 1s2 2s2 2p6 3s2 3p6 3d10 4s2 4p6 4d2 5s2

[...]

 Warning: ion_atom_descreen_psp: negative charge density encountered
   | Pseudopotential Report - Date of generation 29-12-2017   |
   | Element: Zr Ionic charge: 12.00 Level of theory: PBE     |
   | Atomic Solver: ZORA (scalar)                             |
   |               Reference Electronic Structure             |
   |         Orbital         Occupation         Energy        |
   |            4s              2.000           -2.003        |
   |            4p              6.000           -1.193        |
   |            5s              2.000           -0.163        |
   |            4d              2.000           -0.132        |
   |                 Pseudopotential Definition               |
   |        Beta     l      e      Rc     scheme   norm       |
   |          1      0   -2.003   2.105     qc      0         |
   |          2      0   -0.163   2.105     qc      0         |
   |          3      0    0.250   2.105     qc      0         |
   |          4      1   -1.193   2.105     qc      0         |
   |          5      1    0.250   2.105     qc      0         |
   |          6      2   -0.132   2.105     qc      0         |
   |          7      2    0.250   2.105     qc      0         |
   |         loc     3    0.000   2.105     pn      0         |
   | Augmentation charge Rinner = 1.471                       |
   | Partial core correction Rc = 1.471                       |
   | "3|2.1|7|8|9|40U:50:41:42"                               |
   |      Author: Chris J. Pickard, Cambridge University      |

 Atomic calculation performed for Sn:

[...]

 Atomic calculation performed for Sn:

[...]

   | Pseudopotential Report - Date of generation 29-12-2017   |
   | Element: Sn Ionic charge: 14.00 Level of theory: PBE     |
   | Atomic Solver: ZORA (scalar)                             |
   |               Reference Electronic Structure             |
   |         Orbital         Occupation         Energy        |
   |            4d             10.000           -0.950        |
   |            5s              2.000           -0.388        |
   |            5p              2.000           -0.136        |
   |                 Pseudopotential Definition               |
   |        Beta     l      e      Rc     scheme   norm       |
   |          1      0   -0.388   2.199     qc      0         |
   |          2      0    0.250   2.199     qc      0         |
   |          3      1   -0.136   2.199     qc      0         |
   |          4      1    0.250   2.199     qc      0         |
   |          5      2   -0.950   2.199     qc      0         |
   |          6      2    0.250   2.199     qc      0         |
   |         loc     3    0.000   2.199     pn      0         |
   | Augmentation charge Rinner = 1.537                       |
   | Partial core correction Rc = 1.537                       |
   | "3|2.2|7|8|9|50:51:42"                                   |
   |      Author: Chris J. Pickard, Cambridge University      |

 Atomic calculation performed for La:

 Converged in 56 iterations to an ae energy of -230121.495 eV

 Atomic calculation performed for La:

 Exceeded max iterations: converged to 0.000000907 eV

 Warning: ion_atom_descreen_psp: negative charge density encountered
   | Pseudopotential Report - Date of generation 29-12-2017   |
   | Element: La Ionic charge: 11.00 Level of theory: PBE     |
   | Atomic Solver: ZORA (scalar)                             |
   |               Reference Electronic Structure             |
   |         Orbital         Occupation         Energy        |
   |            5s              2.000           -1.430        |
   |            5p              6.000           -0.823        |
   |            6s              2.000           -0.135        |
   |            5d              1.000           -0.114        |
   |                 Pseudopotential Definition               |
   |        Beta     l      e      Rc     scheme   norm       |
   |          1      0   -1.430   2.298     qc      0         |
   |          2      0   -0.135   2.298     qc      0         |
   |          3      0    0.250   2.298     qc      0         |
   |          4      1   -0.823   2.298     qc      0         |
   |          5      1    0.250   2.298     qc      0         |
   |          6      2   -0.114   2.298     qc      0         |
   |          7      2    0.250   2.298     qc      0         |
   |         loc     2    0.000   2.298     pn      0         |
   | Augmentation charge Rinner = 1.606                       |
   | Partial core correction Rc = 1.606                       |
   | "2|2.3|5|6|7|50U:60:51:52(qc=4.5)"                       |
   |      Author: Chris J. Pickard, Cambridge University      |

 Pseudo atomic calculation performed for O 2s2 2p4

 Converged in 39 iterations to a total energy of -432.6554 eV

 Pseudo atomic calculation performed for Zr 4s2 4p6 4d2 5s2

[...]

 Calculation parallelised over 56 processes.
 Data is distributed by G-vector(4-way) and k-point(14-way)

 ************************************ Title ************************************
 nmr testing

 ***************************** General Parameters ******************************

 output verbosity                               : normal  (1)
 write checkpoint data to                       : 19.check
 type of calculation                            : Magnetic Resonance
 stress calculation                             : on
 density difference calculation                 : off
 electron localisation func (ELF) calculation   : off
 Hirshfeld analysis                             : off
 unlimited duration calculation
 timing information                             : on
 write final potential to formatted file        : off
 write final density to formatted file          : off
 write structure in CIF formatted file          : on
 write structure in CELL formatted file         : on
 write BibTeX reference list                    : on
 write OTFG pseudopotential files               : on
 checkpoint writing                             : both castep_bin and check files

 output         length unit                     : A
 output           mass unit                     : amu
 output           time unit                     : ps
 output         charge unit                     : e
 output           spin unit                     : hbar/2
 output         energy unit                     : eV
 output          force unit                     : eV/A
 output       velocity unit                     : A/ps
 output       pressure unit                     : GPa
 output     inv_length unit                     : 1/A
 output      frequency unit                     : cm-1
 output force constant unit                     : eV/A**2
 output         volume unit                     : A**3
 output   IR intensity unit                     : (D/A)**2/amu
 output         dipole unit                     : D
 output         efield unit                     : eV/A/e
 output        entropy unit                     : J/mol/K

 wavefunctions paging                           : none
 random number generator seed                   : randomised (12020937)
 data distribution                              : optimal for this architecture
[...]
  |    O          41     -163.98     155.10      0.81   1.067E+00   0.90 |
  |    O          42     -164.06     154.01      0.81   1.063E+00   0.91 |
  |    O          43     -163.96     154.62      0.81   1.066E+00   0.91 |
  |    O          44     -164.00     155.11      0.81   1.069E+00   0.90 |
  |    O          45     -163.96     154.62      0.81   1.066E+00   0.91 |
  |    O          46     -164.00     155.11      0.81   1.069E+00   0.90 |
  |    O          47     -164.06     154.01      0.81   1.063E+00   0.91 |
  |    O          48     -163.98     155.10      0.81   1.067E+00   0.90 |
  |    O          49     -164.06     154.01      0.81   1.063E+00   0.91 |
  |    O          50     -163.98     155.10      0.81   1.067E+00   0.90 |
  |    O          51     -164.00     155.11      0.81   1.069E+00   0.90 |
  |    O          52     -163.96     154.62      0.81   1.066E+00   0.91 |
  |    O          53      -86.43      92.88      0.24  -3.162E+00   0.12 |
  |    O          54      -86.25      92.21      0.24  -3.165E+00   0.12 |
  |    O          55      -86.43      92.88      0.24  -3.162E+00   0.12 |
  |    O          56      -86.25      92.21      0.24  -3.165E+00   0.12 |
  |    Zr          1     1632.04    -126.95      0.10  -3.937E+01   0.07 |
  |    Zr          2     1631.65    -126.90      0.10  -3.938E+01   0.06 |
  |    Zr          3     1631.65    -126.90      0.10  -3.938E+01   0.06 |
  |    Zr          4     1631.81    -126.82      0.09  -3.939E+01   0.08 |
[...]
  |    La          2     4754.94     867.93      0.03  -8.395E+01   0.05 |
  |    La          3     4754.94     867.93      0.03  -8.395E+01   0.05 |
  |    La          4     4754.99     867.69      0.03  -8.393E+01   0.04 |
  |    La          5     4754.94     867.93      0.03  -8.395E+01   0.05 |
  |    La          6     4754.94     867.93      0.03  -8.395E+01   0.05 |
  |    La          7     4659.53     666.26      0.00  -7.962E+01   0.00 |
  |    La          8     4659.70     667.34      0.00  -7.960E+01   0.00 |
  |    La          9     4659.53     666.26      0.00  -7.962E+01   0.00 |
  |    La         10     4659.53     666.26      0.00  -7.962E+01   0.00 |
  |    La         11     4754.99     867.69      0.03  -8.393E+01   0.04 |
  |    La         12     4754.99     867.69      0.03  -8.393E+01   0.04 |
  |    La         13     4754.93     867.28      0.04  -8.386E+01   0.05 |
  |    La         14     4754.94     867.93      0.03  -8.395E+01   0.05 |
  |    La         15     4754.94     867.93      0.03  -8.395E+01   0.05 |
  |    La         16     4754.93     867.28      0.04  -8.386E+01   0.05 |

 *********************** Forces ***********************
 *            Cartesian components (eV/A)             *
 *                   x            y            z      *
 * O         1     -0.00925      0.00856     -0.00837 *
 * O         2      0.00856     -0.00837     -0.00925 *
 * O         3      0.00744      0.00744      0.00744 *
 * O         4     -0.00837     -0.00925      0.00856 *
 * O         5     -0.00744     -0.00744     -0.00744 *
 * O         6      0.00925      0.00837     -0.00856 *
 * O         7     -0.00856      0.00925      0.00837 *
 * O         8      0.00837     -0.00856      0.00925 *
 * O         9     -0.00218     -0.01448     -0.01843 *
 * O        10      0.00387      0.01085     -0.01584 *
 * O        11      0.00630     -0.01426      0.01713 *
 * O        12     -0.00213      0.01141      0.01787 *
 * O        13      0.00054      0.00150     -0.00134 *
 * O        14      0.00095     -0.00361      0.00453 *
 * O        15     -0.00095     -0.00663     -0.00146 *
 * O        16     -0.00002      0.00216      0.00455 *
 * O        17      0.01141      0.01786     -0.00213 *
 * O        18     -0.01425      0.01713      0.00629 *
 * O        19      0.01085     -0.01584      0.00387 *
 * O        20     -0.01447     -0.01843     -0.00217 *
 * O        21      0.01426     -0.00630     -0.01713 *
 * O        22     -0.01141      0.00213     -0.01786 *
 * O        23      0.01447      0.00217      0.01843 *
 * O        24     -0.01085     -0.00387      0.01584 *
 * O        25     -0.00630     -0.01713      0.01426 *
 * O        26      0.00213     -0.01787     -0.01141 *
 * O        27      0.00218      0.01843      0.01448 *
 * O        28     -0.00387      0.01584     -0.01085 *
 * O        29      0.00002     -0.00455     -0.00216 *
 * O        30      0.00095      0.00146      0.00664 *
 * O        31     -0.00095     -0.00452      0.00360 *
 * O        32     -0.00054      0.00134     -0.00151 *
 * O        33      0.00664      0.00095      0.00146 *
 * O        34     -0.00150     -0.00054      0.00134 *
 * O        35     -0.00453      0.00361     -0.00095 *
 * O        36     -0.00455     -0.00216      0.00002 *
 * O        37     -0.01712      0.01426     -0.00630 *
 * O        38      0.01843      0.01447      0.00217 *
 * O        39      0.01713      0.00630     -0.01426 *
 * O        40     -0.01843     -0.00217     -0.01447 *
 * O        41      0.00151     -0.00134      0.00054 *
 * O        42     -0.00664     -0.00146     -0.00095 *
 * O        43      0.00455     -0.00002      0.00216 *
 * O        44      0.00452      0.00095     -0.00361 *
 * O        45      0.00216      0.00455     -0.00002 *
 * O        46     -0.00360      0.00452      0.00095 *
 * O        47     -0.00146     -0.00095     -0.00664 *
 * O        48     -0.00134      0.00054      0.00150 *
 * O        49      0.00146      0.00664      0.00095 *
 * O        50      0.00134     -0.00150     -0.00054 *
 * O        51      0.00361     -0.00095     -0.00452 *
 * O        52     -0.00216      0.00002     -0.00455 *
 * O        53      0.01584     -0.01084     -0.00387 *
 * O        54     -0.01787     -0.01141      0.00213 *
 * O        55     -0.01584      0.00387      0.01085 *
 * O        56      0.01786     -0.00213      0.01141 *
 * Zr        1      0.00001     -0.02393      0.02394 *
 * Zr        2     -0.00112      0.00393      0.02618 *
 * Zr        3      0.00111     -0.02619     -0.00394 *
 * Zr        4     -0.00001      0.00011     -0.00010 *
[...]
 * La        2     -0.00253      0.01892      0.01865 *
 * La        3      0.00254     -0.01864     -0.01891 *
 * La        4      0.00001      0.01881     -0.01881 *
 * La        5     -0.01891      0.00253     -0.01863 *
 * La        6      0.01891      0.01865     -0.00253 *
 * La        7      0.00001      0.00272     -0.00271 *
 * La        8     -0.00001      0.00000      0.00001 *
 * La        9      0.00271     -0.00272     -0.00001 *
 * La       10     -0.00271     -0.00000      0.00271 *
 * La       11      0.01882     -0.01881     -0.00001 *
 * La       12     -0.01882     -0.00001      0.01882 *
 * La       13     -0.01421      0.01422      0.00001 *
 * La       14     -0.01866     -0.01892      0.00253 *
 * La       15      0.01863     -0.00252      0.01891 *
 * La       16      0.01423      0.00000     -0.01423 *

 ***************** Stress Tensor *****************
 *          Cartesian components (GPa)           *
 *             x             y             z     *
 *  x      0.000488      0.000390      0.000387  *
 *  y      0.000390      0.000487      0.000391  *
 *  z      0.000387      0.000391      0.000484  *
 *  Pressure:   -0.0005                          *

[...]

 Pseudo atomic calculation performed for Sn 4d10 5s2 5p2

[...]

 Pseudo atomic calculation performed for La 5s2 5p6 5d1 6s2

 Converged in 34 iterations to a total energy of -968.0372 eV

Charge spilling parameter for spin component 1 = 0.22%

     Atomic Populations (Mulliken)
Species   Ion     s      p      d      f     Total  Charge (e)
  O        1     1.87   5.00   0.00   0.00   6.87    -0.87
  O        2     1.87   5.00   0.00   0.00   6.87    -0.87
  O        3     1.87   5.00   0.00   0.00   6.87    -0.87
  O        4     1.87   5.00   0.00   0.00   6.87    -0.87
  O        5     1.87   5.00   0.00   0.00   6.87    -0.87
  O        6     1.87   5.00   0.00   0.00   6.87    -0.87
  O        7     1.87   5.00   0.00   0.00   6.87    -0.87
  O        8     1.87   5.00   0.00   0.00   6.87    -0.87
  O        9     1.87   4.98   0.00   0.00   6.85    -0.85
  O       10     1.87   4.98   0.00   0.00   6.85    -0.85
  O       11     1.87   4.98   0.00   0.00   6.85    -0.85
  O       12     1.87   4.98   0.00   0.00   6.85    -0.85
  O       13     1.86   4.94   0.00   0.00   6.80    -0.80
  O       14     1.86   4.94   0.00   0.00   6.80    -0.80
  O       15     1.86   4.94   0.00   0.00   6.80    -0.80
  O       16     1.86   4.94   0.00   0.00   6.80    -0.80
  O       17     1.87   4.98   0.00   0.00   6.85    -0.85
  O       18     1.87   4.98   0.00   0.00   6.85    -0.85
  O       19     1.87   4.98   0.00   0.00   6.85    -0.85
  O       20     1.87   4.98   0.00   0.00   6.85    -0.85
  O       21     1.87   4.98   0.00   0.00   6.85    -0.85
  O       22     1.87   4.98   0.00   0.00   6.85    -0.85
  O       23     1.87   4.98   0.00   0.00   6.85    -0.85
  O       24     1.87   4.98   0.00   0.00   6.85    -0.85
  O       25     1.87   4.98   0.00   0.00   6.85    -0.85
  O       26     1.87   4.98   0.00   0.00   6.85    -0.85
  O       27     1.87   4.98   0.00   0.00   6.85    -0.85
  O       28     1.87   4.98   0.00   0.00   6.85    -0.85
  O       29     1.86   4.94   0.00   0.00   6.80    -0.80
  O       30     1.86   4.94   0.00   0.00   6.80    -0.80
  O       31     1.86   4.94   0.00   0.00   6.80    -0.80
  O       32     1.86   4.94   0.00   0.00   6.80    -0.80
  O       33     1.86   4.94   0.00   0.00   6.80    -0.80
  O       34     1.86   4.94   0.00   0.00   6.80    -0.80
  O       35     1.86   4.94   0.00   0.00   6.80    -0.80
  O       36     1.86   4.94   0.00   0.00   6.80    -0.80
  O       37     1.87   4.98   0.00   0.00   6.85    -0.85
  O       38     1.87   4.98   0.00   0.00   6.85    -0.85
  O       39     1.87   4.98   0.00   0.00   6.85    -0.85
  O       40     1.87   4.98   0.00   0.00   6.85    -0.85
  O       41     1.86   4.94   0.00   0.00   6.80    -0.80
  O       42     1.86   4.94   0.00   0.00   6.80    -0.80
  O       43     1.86   4.94   0.00   0.00   6.80    -0.80
  O       44     1.86   4.94   0.00   0.00   6.80    -0.80
  O       45     1.86   4.94   0.00   0.00   6.80    -0.80
  O       46     1.86   4.94   0.00   0.00   6.80    -0.80
  O       47     1.86   4.94   0.00   0.00   6.80    -0.80
  O       48     1.86   4.94   0.00   0.00   6.80    -0.80
  O       49     1.86   4.94   0.00   0.00   6.80    -0.80
  O       50     1.86   4.94   0.00   0.00   6.80    -0.80
  O       51     1.86   4.94   0.00   0.00   6.80    -0.80
  O       52     1.86   4.94   0.00   0.00   6.80    -0.80
  O       53     1.87   4.98   0.00   0.00   6.85    -0.85
  O       54     1.87   4.98   0.00   0.00   6.85    -0.85
  O       55     1.87   4.98   0.00   0.00   6.85    -0.85
  O       56     1.87   4.98   0.00   0.00   6.85    -0.85
  Zr       1     2.38   6.48   1.93   0.00  10.79     1.21
  Zr       2     2.38   6.48   1.93   0.00  10.79     1.21
  Zr       3     2.38   6.48   1.93   0.00  10.79     1.21
  Zr       4     2.38   6.48   1.93   0.00  10.79     1.21
[...]
  La       2     2.05   6.15   1.19   0.00   9.39     1.61
  La       3     2.05   6.15   1.19   0.00   9.39     1.61
  La       4     2.05   6.15   1.19   0.00   9.39     1.61
  La       5     2.05   6.15   1.19   0.00   9.39     1.61
  La       6     2.05   6.15   1.19   0.00   9.39     1.61
  La       7     2.07   6.18   1.19   0.00   9.44     1.56
  La       8     2.07   6.18   1.19   0.00   9.44     1.56
  La       9     2.07   6.18   1.19   0.00   9.44     1.56
  La      10     2.07   6.18   1.19   0.00   9.44     1.56
  La      11     2.05   6.15   1.19   0.00   9.39     1.61
  La      12     2.05   6.15   1.19   0.00   9.39     1.61
  La      13     2.05   6.15   1.19   0.00   9.39     1.61
  La      14     2.05   6.15   1.19   0.00   9.39     1.61
  La      15     2.05   6.15   1.19   0.00   9.39     1.61
  La      16     2.05   6.15   1.19   0.00   9.39     1.61

            Bond              Population      Length (A)
         O 22 -- Sn 4              0.35        2.10583
         O 17 -- Sn 3              0.35        2.10583
         O 54 -- Sn 3              0.35        2.10583
         O 56 -- Sn 4              0.35        2.10583
         O 12 -- Sn 1              0.35        2.10583
         O 26 -- Sn 1              0.35        2.10583
         O 53 -- Sn 1              0.35        2.10584
         O 10 -- Sn 3              0.35        2.10584
         O 28 -- Sn 4              0.35        2.10584
         O 55 -- Sn 1              0.35        2.10584
         O 19 -- Sn 4              0.35        2.10584
         O 24 -- Sn 3              0.35        2.10584
         O 40 -- Sn 2              0.35        2.10584
         O 23 -- Sn 2              0.35        2.10584
         O 27 -- Sn 2              0.35        2.10584
         O 9  -- Sn 2              0.35        2.10584
         O 20 -- Sn 2              0.35        2.10584
         O 38 -- Sn 2              0.35        2.10584
         O 18 -- Sn 1              0.34        2.10587
         O 25 -- Sn 3              0.34        2.10587
         O 11 -- Sn 4              0.34        2.10587
         O 21 -- Sn 1              0.34        2.10587
         O 37 -- Sn 4              0.34        2.10587
         O 39 -- Sn 3              0.34        2.10587
         O 51 -- Zr 2              0.43        2.11702
         O 44 -- Zr 10             0.43        2.11702
         O 46 -- Zr 3              0.43        2.11702
         O 35 -- Zr 11             0.43        2.11702
         O 31 -- Zr 6              0.43        2.11702
         O 14 -- Zr 5              0.43        2.11702
         O 13 -- Zr 8              0.43        2.11776
         O 50 -- Zr 8              0.43        2.11776
         O 32 -- Zr 7              0.43        2.11776
         O 41 -- Zr 4              0.43        2.11776
         O 34 -- Zr 4              0.43        2.11776
         O 48 -- Zr 7              0.43        2.11776
         O 16 -- Zr 12             0.43        2.11777
         O 36 -- Zr 12             0.43        2.11777
         O 45 -- Zr 1              0.43        2.11777
         O 29 -- Zr 9              0.43        2.11777
         O 52 -- Zr 1              0.43        2.11777
         O 43 -- Zr 9              0.43        2.11777
         O 42 -- Zr 2              0.43        2.11861
         O 30 -- Zr 10             0.43        2.11861
         O 33 -- Zr 3              0.43        2.11861
         O 47 -- Zr 6              0.43        2.11861
         O 49 -- Zr 5              0.43        2.11861
         O 15 -- Zr 11             0.43        2.11861
         O 11 -- Zr 7              0.45        2.11920
         O 37 -- Zr 4              0.45        2.11920
         O 25 -- Zr 8              0.45        2.11920
         O 39 -- Zr 4              0.45        2.11920
         O 21 -- Zr 7              0.45        2.11920
         O 18 -- Zr 8              0.45        2.11920
         O 50 -- Zr 1              0.43        2.11962
         O 13 -- Zr 9              0.43        2.11962
         O 48 -- Zr 1              0.43        2.11962
         O 32 -- Zr 12             0.43        2.11962
         O 41 -- Zr 12             0.43        2.11962
         O 34 -- Zr 9              0.43        2.11962
[...]
         O 14 -- O 28             -0.03        2.82300
         O 10 -- O 31             -0.03        2.82300
         O 46 -- O 53             -0.03        2.82300
         O 10 -- O 23             -0.03        2.82358
         O 40 -- O 53             -0.03        2.82358
         O 9  -- O 24             -0.03        2.82358
         O 38 -- O 55             -0.03        2.82358
         O 20 -- O 28             -0.03        2.82358
         O 19 -- O 27             -0.03        2.82358
         O 12 -- O 22             -0.03        2.82362
         O 54 -- O 56             -0.03        2.82362
         O 17 -- O 26             -0.03        2.82362
         O 37 -- O 39             -0.03        2.82364
         O 11 -- O 21             -0.03        2.82364
         O 18 -- O 25             -0.03        2.82364

Writing analysis data to 19.castep_bin

Writing model to 19.check

 A BibTeX formatted list of references used in this run has been written to
 19.bib

Initialisation time =     53.68 s
Calculation time    =  32391.56 s
Finalisation time   =     41.55 s
Total time          =  32486.79 s

Overall parallel efficiency rating: Good (78%)

Data was distributed by:-
G-vector (4-way); efficiency rating: Good (79%)
k-point (14-way); efficiency rating: Excellent (98%)