 Compiled for linux_x86_64_ifort2021 on Fri, 04 Feb 2022 13:31:17 +0000
 from code version
 203e84763863+ Castep161_branch Fri, 04 Mar 2016 19:21:07 +0000
 Compiler: Intel Fortran 2021.5.0; Optimisation: intermediate
 MATHLIBS: Intel MKL(2022.0-Product) (LAPACK version 3.9.0)
 FFT Lib : fftw3 version fftw-3.3.10
 Fundamental constants values: CODATA 2010

 Run started: Sun, 27 Mar 2022 23:29:53 +0100
 |           N   N    M   M    RRRR                |
 |           NN  N    MM MM    R   R               |
 |           N N N    M M M    RRRR                |
 |           N  NN    M   M    R  R                |
 |           N   N    M   M    R   R               |
 | Welcome to Materials Studio CASTEP-NMR          |
 | Authors:                                        |
 | J.R. Yates, C.J. Pickard, F. Mauri              |
 | Contributors:                                   |
 | T.F.G. Green, S.A. Joyce                        |
 | Copyright (c) 2004 - 2015                       |
 | Please cite the appropriate publications in all |
 | work arising from your use of CASTEP NMR.       |
 | For NMR Shielding Tensors cite:                 |
 |    "All-electron magnetic response with         |
 |    pseudopotentials: NMR chemical shifts",      |
 |    C. J. Pickard, F. Mauri;                     |
 |    Physical Review B63 245101 (2001), and       |
 |    "Calculation of NMR Chemical Shifts          |
 |    for extended systems using                   |
 |    Ultrasoft Pseudopotentials",                 |
 |    J. R. Yates, C. J. Pickard and F. Mauri      |
 |    Physical Review B76 024401 (2007)            |
 | For Electric Field Gradients cite:              |
 |   "Accurate First Principles Prediction of 17O  |
 |    NMR Parameters in SiO2: Assignment of the    |
 |    Zeolite Ferrierite Spectrum"                 |
 |    M. Profeta, F. Mauri and C. J. Pickard       |
 |    J. Amer. Chem. Soc. 125 541 (2003)           |
 | For Spin-Spin (J) Couplings cite:               |
 |   "A first principles theory of NMR J-coupling  |
 |   in solid-state systems"                       |
 |   S.A. Joyce, J.R. Yates, C.J. Pickard, F. Mauri|
 |   J. Chem. Phys. 127 204107 (2007)              |
 |   "Relativistic NMR J-coupling with ultrasoft   |
 |   pseudopotentials and the zeroth-order regular |
 |   approximation"                                |
 |   T.F.G. Green and J.R. Yates                   |
 |   J. Chem. Phys. 140 234106 (2014)              |

 Atomic calculation performed for O: 1s2 2s2 2p4

 Converged in 44 iterations to an ae energy of -2040.855 eV

 Atomic calculation performed for O: 1s2 2s2 2p4

 Exceeded max iterations: converged to 0.000000062 eV

   | Pseudopotential Report - Date of generation 27-03-2022   |
   | Element: O Ionic charge:  6.00 Level of theory: PBE      |
   | Atomic Solver: ZORA (scalar)                             |
   |               Reference Electronic Structure             |
   |         Orbital         Occupation         Energy        |
   |            2s              2.000           -0.881        |
   |            2p              4.000           -0.332        |
   |                 Pseudopotential Definition               |
   |        Beta     l      e      Rc     scheme   norm       |
   |          1      0   -0.881   1.100     qc      0         |
   |          2      0    0.250   1.100     qc      0         |
   |          3      1   -0.332   1.100     qc      0         |
   |          4      1    0.250   1.100     qc      0         |
   |         loc     2    0.000   1.100     pn      0         |
   | Augmentation charge Rinner = 0.769                       |
   | Partial core correction Rc = 0.769                       |
   | "2|1.1|15|18|20|20:21(qc=7)"                             |
   |      Author: Chris J. Pickard, Cambridge University      |

 Atomic calculation performed for Zr: 1s2 2s2 2p6 3s2 3p6 3d10 4s2 4p6 4d2 5s2

[...]

 Atomic calculation performed for Zr: 1s2 2s2 2p6 3s2 3p6 3d10 4s2 4p6 4d2 5s2

[...]

 Warning: ion_atom_descreen_psp: negative charge density encountered
   | Pseudopotential Report - Date of generation 27-03-2022   |
   | Element: Zr Ionic charge: 12.00 Level of theory: PBE     |
   | Atomic Solver: ZORA (scalar)                             |
   |               Reference Electronic Structure             |
   |         Orbital         Occupation         Energy        |
   |            4s              2.000           -2.003        |
   |            4p              6.000           -1.193        |
   |            5s              2.000           -0.163        |
   |            4d              2.000           -0.132        |
   |                 Pseudopotential Definition               |
   |        Beta     l      e      Rc     scheme   norm       |
   |          1      0   -2.003   2.105     qc      0         |
   |          2      0   -0.163   2.105     qc      0         |
   |          3      0    0.250   2.105     qc      0         |
   |          4      1   -1.193   2.105     qc      0         |
   |          5      1    0.250   2.105     qc      0         |
   |          6      2   -0.132   2.105     qc      0         |
   |          7      2    0.250   2.105     qc      0         |
   |         loc     3    0.000   2.105     pn      0         |
   | Augmentation charge Rinner = 1.471                       |
   | Partial core correction Rc = 1.471                       |
   | "3|2.1|7|8|9|40U:50:41:42"                               |
   |      Author: Chris J. Pickard, Cambridge University      |

 Atomic calculation performed for Sn:

[...]

 Atomic calculation performed for Sn:

[...]

   | Pseudopotential Report - Date of generation 27-03-2022   |
   | Element: Sn Ionic charge: 14.00 Level of theory: PBE     |
   | Atomic Solver: ZORA (scalar)                             |
   |               Reference Electronic Structure             |
   |         Orbital         Occupation         Energy        |
   |            4d             10.000           -0.950        |
   |            5s              2.000           -0.388        |
   |            5p              2.000           -0.136        |
   |                 Pseudopotential Definition               |
   |        Beta     l      e      Rc     scheme   norm       |
   |          1      0   -0.388   2.199     qc      0         |
   |          2      0    0.250   2.199     qc      0         |
   |          3      1   -0.136   2.199     qc      0         |
   |          4      1    0.250   2.199     qc      0         |
   |          5      2   -0.950   2.199     qc      0         |
   |          6      2    0.250   2.199     qc      0         |
   |         loc     3    0.000   2.199     pn      0         |
   | Augmentation charge Rinner = 1.537                       |
   | Partial core correction Rc = 1.537                       |
   | "3|2.2|7|8|9|50:51:42"                                   |
   |      Author: Chris J. Pickard, Cambridge University      |

 Atomic calculation performed for La:

 Converged in 55 iterations to an ae energy of -230121.495 eV

 Atomic calculation performed for La:

 Exceeded max iterations: converged to 0.000001291 eV

 Warning: ion_atom_descreen_psp: negative charge density encountered
   | Pseudopotential Report - Date of generation 27-03-2022   |
   | Element: La Ionic charge: 11.00 Level of theory: PBE     |
   | Atomic Solver: ZORA (scalar)                             |
   |               Reference Electronic Structure             |
   |         Orbital         Occupation         Energy        |
   |            5s              2.000           -1.430        |
   |            5p              6.000           -0.823        |
   |            6s              2.000           -0.135        |
   |            5d              1.000           -0.114        |
   |                 Pseudopotential Definition               |
   |        Beta     l      e      Rc     scheme   norm       |
   |          1      0   -1.430   2.298     qc      0         |
   |          2      0   -0.135   2.298     qc      0         |
   |          3      0    0.250   2.298     qc      0         |
   |          4      1   -0.823   2.298     qc      0         |
   |          5      1    0.250   2.298     qc      0         |
   |          6      2   -0.114   2.298     qc      0         |
   |          7      2    0.250   2.298     qc      0         |
   |         loc     2    0.000   2.298     pn      0         |
   | Augmentation charge Rinner = 1.606                       |
   | Partial core correction Rc = 1.606                       |
   | "2|2.3|5|6|7|50U:60:51:52(qc=4.5)"                       |
   |      Author: Chris J. Pickard, Cambridge University      |

 Pseudo atomic calculation performed for O 2s2 2p4

 Converged in 39 iterations to a total energy of -432.6554 eV

 Pseudo atomic calculation performed for Zr 4s2 4p6 4d2 5s2

[...]

 Calculation parallelised over 182 processes.
 Data is distributed by G-vector(13-way) and k-point(14-way)

 ************************************ Title ************************************
 nmr testing

 ***************************** General Parameters ******************************

 output verbosity                               : normal  (1)
 write checkpoint data to                       : Zr5_1.check
 type of calculation                            : Magnetic Resonance
 stress calculation                             : on
 density difference calculation                 : off
 electron localisation func (ELF) calculation   : off
 Hirshfeld analysis                             : off
 unlimited duration calculation
 timing information                             : on
 write final potential to formatted file        : off
 write final density to formatted file          : off
 write BibTeX reference list                    : on
 write OTFG pseudopotential files               : on
 checkpoint writing                             : both castep_bin and check files

 output         length unit                     : A
 output           mass unit                     : amu
 output           time unit                     : ps
 output         charge unit                     : e
 output           spin unit                     : hbar/2
 output         energy unit                     : eV
 output          force unit                     : eV/A
 output       velocity unit                     : A/ps
 output       pressure unit                     : GPa
 output     inv_length unit                     : 1/A
 output      frequency unit                     : cm-1
 output force constant unit                     : eV/A**2
 output         volume unit                     : A**3
 output   IR intensity unit                     : (D/A)**2/amu
 output         dipole unit                     : D
 output         efield unit                     : eV/A/e
 output        entropy unit                     : J/mol/K

 wavefunctions paging                           : none
 random number generator seed                   : randomised (232953784)
 data distribution                              : optimal for this architecture
[...]
  |    O          42      -89.53      86.42      0.19  -3.160E+00   0.06 |
  |    O          43      -86.69      84.69      0.21  -3.197E+00   0.06 |
  |    O          44      -85.96      83.78      0.29  -3.167E+00   0.07 |
  |    O          45      -87.70      84.05      0.21  -3.190E+00   0.06 |
  |    O          46     -161.61     155.60      0.83   1.065E+00   0.68 |
  |    O          47      -88.72      85.25      0.06  -3.211E+00   0.08 |
  |    O          48      -89.30      83.43      0.18  -3.176E+00   0.07 |
  |    O          49     -161.61     155.59      0.83   1.065E+00   0.68 |
  |    O          50      -87.70      84.05      0.21  -3.190E+00   0.06 |
  |    O          51      -89.03      83.83      0.22  -3.165E+00   0.06 |
  |    O          52      -92.29      93.03      0.25  -3.168E+00   0.08 |
  |    O          53      -88.72      85.25      0.07  -3.211E+00   0.08 |
  |    O          54      -89.30      83.42      0.18  -3.176E+00   0.07 |
  |    O          55      -89.03      83.83      0.22  -3.165E+00   0.06 |
  |    O          56      -92.29      93.03      0.25  -3.168E+00   0.08 |
  |    Zr          1     1596.77    -112.52      0.04  -3.504E+01   0.06 |
  |    Zr          2     1595.72    -112.73      0.04  -3.475E+01   0.00 |
  |    Zr          3     1610.62    -119.51      0.07  -3.556E+01   0.09 |
  |    Zr          4     1610.62    -119.51      0.07  -3.556E+01   0.09 |
[...]
  |    La          2     4651.09     646.33      0.01  -8.248E+01   0.02 |
  |    La          3     4656.15     642.61      0.00  -8.349E+01   0.01 |
  |    La          4     4656.15     642.61      0.00  -8.349E+01   0.01 |
  |    La          5     4552.16     382.78      0.05  -7.666E+01   0.10 |
  |    La          6     4603.62     521.21      0.08  -7.960E+01   0.09 |
  |    La          7     4603.62     521.20      0.08  -7.960E+01   0.09 |
  |    La          8     4554.13     385.32      0.06  -7.671E+01   0.10 |
  |    La          9     4544.65     389.06      0.07  -7.558E+01   0.11 |
  |    La         10     4552.74     382.45      0.06  -7.662E+01   0.09 |
  |    La         11     4544.65     389.06      0.07  -7.558E+01   0.11 |
  |    La         12     4601.54     511.64      0.07  -7.952E+01   0.09 |
  |    La         13     4554.13     385.32      0.06  -7.671E+01   0.10 |
  |    La         14     4552.74     382.44      0.06  -7.662E+01   0.09 |
  |    La         15     4601.54     511.64      0.07  -7.952E+01   0.09 |
  |    La         16     4605.25     547.22      0.06  -7.962E+01   0.19 |

 *********************** Forces ***********************
 *            Cartesian components (eV/A)             *
 *                   x            y            z      *
 * O         1     -0.00235     -0.00374      0.00357 *
 * O         2     -0.00158      0.00335      0.00469 *
 * O         3      0.00007     -0.00789      0.01073 *
 * O         4     -0.00719     -0.00406      0.00902 *
 * O         5     -0.00335      0.00158     -0.00469 *
 * O         6      0.00374      0.00235     -0.00357 *
 * O         7      0.00406      0.00719     -0.00902 *
 * O         8      0.00789     -0.00007     -0.01073 *
 * O         9     -0.02973      0.00212     -0.01103 *
 * O        10      0.02436      0.00190     -0.01762 *
 * O        11      0.02399      0.01427      0.00193 *
 * O        12     -0.01219      0.00173      0.00247 *
 * O        13     -0.00581     -0.00864     -0.00368 *
 * O        14     -0.02588     -0.01222      0.00617 *
 * O        15      0.01594      0.02286     -0.00475 *
 * O        16      0.00943     -0.02042     -0.00598 *
 * O        17      0.00923     -0.00743     -0.02412 *
 * O        18     -0.00526     -0.01057      0.02157 *
 * O        19      0.01189      0.01851      0.01046 *
 * O        20     -0.01679      0.00118      0.00720 *
 * O        21     -0.00190     -0.02436      0.01762 *
 * O        22     -0.00212      0.02974      0.01103 *
 * O        23     -0.00173      0.01219     -0.00247 *
 * O        24     -0.01427     -0.02399     -0.00193 *
 * O        25     -0.02286     -0.01594      0.00475 *
 * O        26      0.02042     -0.00943      0.00598 *
 * O        27      0.00864      0.00581      0.00368 *
 * O        28      0.01222      0.02588     -0.00617 *
 * O        29     -0.00118      0.01679     -0.00720 *
 * O        30     -0.01851     -0.01189     -0.01046 *
 * O        31      0.01057      0.00526     -0.02157 *
 * O        32      0.00743     -0.00923      0.02412 *
 * O        33      0.01177     -0.02027      0.03910 *
 * O        34     -0.01715      0.01298      0.02832 *
 * O        35      0.02490      0.01310     -0.00664 *
 * O        36      0.02478     -0.02022      0.01972 *
 * O        37     -0.00723      0.03119      0.01681 *
 * O        38      0.00323      0.02411     -0.00896 *
 * O        39      0.02027     -0.01177     -0.03911 *
 * O        40     -0.01298      0.01715     -0.02832 *
 * O        41      0.02022     -0.02477     -0.01972 *
 * O        42     -0.01310     -0.02490      0.00664 *
 * O        43     -0.02411     -0.00323      0.00896 *
 * O        44     -0.03119      0.00723     -0.01681 *
 * O        45      0.01439      0.03262      0.01176 *
 * O        46      0.01394      0.01904      0.00344 *
 * O        47      0.03528     -0.00060     -0.02590 *
 * O        48      0.03374      0.01735      0.01181 *
 * O        49     -0.01904     -0.01394     -0.00344 *
 * O        50     -0.03262     -0.01439     -0.01176 *
 * O        51      0.01664      0.00285     -0.02771 *
 * O        52     -0.02447     -0.01957     -0.02310 *
 * O        53      0.00060     -0.03528      0.02590 *
 * O        54     -0.01735     -0.03374     -0.01181 *
 * O        55     -0.00285     -0.01664      0.02771 *
 * O        56      0.01958      0.02447      0.02310 *
 * Zr        1      0.00507     -0.00507      0.00000 *
 * Zr        2      0.00224     -0.00224     -0.00000 *
 * Zr        3      0.00911      0.01123     -0.00119 *
 * Zr        4     -0.01123     -0.00911      0.00119 *
[...]
 * La        2     -0.00269      0.00269      0.00000 *
 * La        3      0.00694     -0.00633      0.00483 *
 * La        4      0.00633     -0.00694     -0.00483 *
 * La        5      0.00093     -0.00093      0.00000 *
 * La        6      0.00020      0.00325      0.00686 *
 * La        7     -0.00325     -0.00019     -0.00686 *
 * La        8     -0.00519     -0.00520     -0.00696 *
 * La        9      0.00287      0.00205     -0.00071 *
 * La       10     -0.00840      0.00587     -0.00612 *
 * La       11     -0.00205     -0.00287      0.00071 *
 * La       12      0.00454     -0.00719     -0.00277 *
 * La       13      0.00520      0.00519      0.00697 *
 * La       14     -0.00587      0.00840      0.00612 *
 * La       15      0.00719     -0.00454      0.00277 *
 * La       16     -0.00279      0.00279     -0.00000 *

 ***************** Stress Tensor *****************
 *          Cartesian components (GPa)           *
 *             x             y             z     *
 *  x      0.009841     -0.032636      0.008529  *
 *  y     -0.032636      0.009841      0.008529  *
 *  z      0.008529      0.008529     -0.094782  *
 *  Pressure:    0.0250                          *

[...]

 Pseudo atomic calculation performed for Sn 4d10 5s2 5p2

[...]

 Pseudo atomic calculation performed for La 5s2 5p6 5d1 6s2

 Converged in 34 iterations to a total energy of -968.0371 eV

Charge spilling parameter for spin component 1 = 0.25%

     Atomic Populations (Mulliken)
Species   Ion     s      p      d      f     Total  Charge (e)
  O        1     1.87   5.00   0.00   0.00   6.87    -0.87
  O        2     1.87   5.00   0.00   0.00   6.87    -0.87
  O        3     1.87   5.00   0.00   0.00   6.87    -0.87
  O        4     1.87   5.00   0.00   0.00   6.87    -0.87
  O        5     1.87   5.00   0.00   0.00   6.87    -0.87
  O        6     1.87   5.00   0.00   0.00   6.87    -0.87
  O        7     1.87   5.00   0.00   0.00   6.87    -0.87
  O        8     1.87   5.00   0.00   0.00   6.87    -0.87
  O        9     1.88   5.03   0.00   0.00   6.91    -0.91
  O       10     1.88   5.03   0.00   0.00   6.91    -0.91
  O       11     1.88   5.03   0.00   0.00   6.91    -0.91
  O       12     1.88   5.03   0.00   0.00   6.91    -0.91
  O       13     1.88   5.03   0.00   0.00   6.91    -0.91
  O       14     1.87   4.99   0.00   0.00   6.86    -0.86
  O       15     1.88   5.03   0.00   0.00   6.91    -0.91
  O       16     1.88   5.03   0.00   0.00   6.91    -0.91
  O       17     1.88   5.03   0.00   0.00   6.91    -0.91
  O       18     1.88   5.03   0.00   0.00   6.91    -0.91
  O       19     1.88   5.03   0.00   0.00   6.91    -0.91
  O       20     1.87   4.99   0.00   0.00   6.86    -0.86
  O       21     1.88   5.03   0.00   0.00   6.91    -0.91
  O       22     1.88   5.03   0.00   0.00   6.91    -0.91
  O       23     1.88   5.03   0.00   0.00   6.91    -0.91
  O       24     1.88   5.03   0.00   0.00   6.91    -0.91
  O       25     1.88   5.03   0.00   0.00   6.91    -0.91
  O       26     1.88   5.03   0.00   0.00   6.91    -0.91
  O       27     1.88   5.03   0.00   0.00   6.91    -0.91
  O       28     1.87   4.99   0.00   0.00   6.86    -0.86
  O       29     1.87   4.99   0.00   0.00   6.86    -0.86
  O       30     1.88   5.03   0.00   0.00   6.91    -0.91
  O       31     1.88   5.03   0.00   0.00   6.91    -0.91
  O       32     1.88   5.03   0.00   0.00   6.91    -0.91
  O       33     1.87   4.99   0.00   0.00   6.86    -0.86
  O       34     1.87   4.99   0.00   0.00   6.86    -0.86
  O       35     1.87   4.99   0.00   0.00   6.86    -0.86
  O       36     1.87   4.99   0.00   0.00   6.86    -0.86
  O       37     1.87   4.99   0.00   0.00   6.86    -0.86
  O       38     1.87   4.99   0.00   0.00   6.86    -0.86
  O       39     1.87   4.99   0.00   0.00   6.86    -0.86
  O       40     1.87   4.99   0.00   0.00   6.86    -0.86
  O       41     1.87   4.99   0.00   0.00   6.86    -0.86
  O       42     1.87   4.99   0.00   0.00   6.86    -0.86
  O       43     1.87   4.99   0.00   0.00   6.86    -0.86
  O       44     1.87   4.99   0.00   0.00   6.86    -0.86
  O       45     1.87   4.99   0.00   0.00   6.86    -0.86
  O       46     1.86   4.95   0.00   0.00   6.80    -0.80
  O       47     1.87   4.99   0.00   0.00   6.86    -0.86
  O       48     1.87   4.99   0.00   0.00   6.86    -0.86
  O       49     1.86   4.95   0.00   0.00   6.80    -0.80
  O       50     1.87   4.99   0.00   0.00   6.86    -0.86
  O       51     1.87   4.99   0.00   0.00   6.86    -0.86
  O       52     1.87   4.99   0.00   0.00   6.86    -0.86
  O       53     1.87   4.99   0.00   0.00   6.86    -0.86
  O       54     1.87   4.99   0.00   0.00   6.86    -0.86
  O       55     1.87   4.99   0.00   0.00   6.86    -0.86
  O       56     1.87   4.99   0.00   0.00   6.86    -0.86
  Zr       1     2.37   6.50   1.92   0.00  10.78     1.22
  Zr       2     2.37   6.50   1.92   0.00  10.78     1.22
  Zr       3     2.37   6.49   1.92   0.00  10.78     1.22
  Zr       4     2.37   6.49   1.92   0.00  10.78     1.22
[...]
  La       2     2.05   6.17   1.20   0.00   9.41     1.59
  La       3     2.04   6.17   1.20   0.00   9.41     1.59
  La       4     2.04   6.17   1.20   0.00   9.41     1.59
  La       5     2.10   6.19   1.19   0.00   9.49     1.51
  La       6     2.05   6.18   1.19   0.00   9.43     1.57
  La       7     2.05   6.18   1.19   0.00   9.43     1.57
  La       8     2.08   6.20   1.19   0.00   9.47     1.53
  La       9     2.09   6.19   1.19   0.00   9.47     1.53
  La      10     2.08   6.20   1.19   0.00   9.47     1.53
  La      11     2.09   6.19   1.19   0.00   9.47     1.53
  La      12     2.06   6.18   1.19   0.00   9.44     1.56
  La      13     2.08   6.20   1.19   0.00   9.47     1.53
  La      14     2.08   6.20   1.19   0.00   9.47     1.53
  La      15     2.06   6.18   1.19   0.00   9.44     1.56
  La      16     2.06   6.18   1.20   0.00   9.43     1.57

            Bond              Population      Length (A)
         O 38 -- Sn 3              0.35        2.10248
         O 43 -- Sn 8              0.35        2.10248
         O 20 -- Sn 3              0.35        2.10386
         O 29 -- Sn 8              0.35        2.10386
         O 41 -- Sn 11             0.34        2.10416
         O 36 -- Sn 11             0.34        2.10416
         O 33 -- Sn 6              0.34        2.10421
         O 39 -- Sn 4              0.34        2.10421
         O 53 -- Sn 2              0.34        2.10463
         O 47 -- Sn 1              0.34        2.10463
         O 52 -- Sn 9              0.34        2.10489
         O 56 -- Sn 5              0.34        2.10489
         O 50 -- Sn 7              0.34        2.10493
         O 45 -- Sn 10             0.34        2.10493
         O 54 -- Sn 4              0.34        2.10647
         O 48 -- Sn 6              0.34        2.10647
         O 35 -- Sn 10             0.34        2.10689
         O 42 -- Sn 7              0.34        2.10689
         O 28 -- Sn 5              0.34        2.10700
         O 14 -- Sn 9              0.34        2.10700
         O 27 -- Sn 10             0.34        2.10707
         O 13 -- Sn 7              0.34        2.10707
         O 55 -- Sn 2              0.34        2.10708
         O 51 -- Sn 1              0.34        2.10708
         O 40 -- Sn 3              0.34        2.10736
         O 34 -- Sn 8              0.34        2.10736
         O 44 -- Sn 9              0.34        2.10807
         O 37 -- Sn 5              0.34        2.10807
         O 23 -- Sn 3              0.34        2.10902
         O 12 -- Sn 8              0.34        2.10902
         O 30 -- Sn 9              0.34        2.10930
         O 19 -- Sn 5              0.34        2.10930
         O 16 -- Sn 11             0.34        2.11015
         O 26 -- Sn 11             0.34        2.11015
         O 24 -- Sn 4              0.34        2.11022
         O 11 -- Sn 6              0.34        2.11022
         O 31 -- Sn 1              0.34        2.11058
         O 18 -- Sn 2              0.34        2.11058
         O 10 -- Sn 1              0.34        2.11127
         O 21 -- Sn 2              0.34        2.11127
         O 17 -- Sn 4              0.34        2.11147
         O 32 -- Sn 6              0.34        2.11147
         O 25 -- Sn 7              0.34        2.11178
         O 15 -- Sn 10             0.34        2.11178
         O 49 -- Zr 4              0.42        2.11214
         O 46 -- Zr 3              0.42        2.11214
         O 24 -- Sn 9              0.33        2.11252
         O 11 -- Sn 5              0.33        2.11252
         O 12 -- Sn 2              0.33        2.11280
         O 23 -- Sn 1              0.33        2.11280
         O 49 -- Zr 5              0.42        2.11310
         O 46 -- Zr 5              0.42        2.11310
         O 19 -- Sn 10             0.33        2.11319
         O 30 -- Sn 7              0.33        2.11319
         O 22 -- Sn 5              0.34        2.11326
         O 9  -- Sn 9              0.34        2.11326
         O 27 -- Sn 3              0.33        2.11443
         O 13 -- Sn 8              0.33        2.11443
         O 16 -- Sn 1              0.33        2.11549
         O 26 -- Sn 2              0.33        2.11549
[...]
         O 20 -- O 49             -0.03        2.82424
         O 14 -- O 28             -0.03        2.82433
         O 37 -- O 39             -0.03        2.82458
         O 33 -- O 44             -0.03        2.82458
         O 51 -- O 55             -0.03        2.82590
         O 37 -- O 41             -0.03        2.82850
         O 36 -- O 44             -0.03        2.82850
         O 38 -- O 42             -0.03        2.82870
         O 35 -- O 43             -0.03        2.82870
         O 48 -- O 50             -0.03        2.82945
         O 45 -- O 54             -0.03        2.82945
         O 34 -- O 39             -0.03        2.82960
         O 33 -- O 40             -0.03        2.82960
         O 20 -- O 28             -0.03        2.83188
         O 14 -- O 29             -0.03        2.83188

Writing analysis data to Zr5_1.castep_bin

Writing model to Zr5_1.check

 A BibTeX formatted list of references used in this run has been written to
 Zr5_1.bib

Initialisation time =     44.20 s
Calculation time    =   9684.29 s
Finalisation time   =     37.70 s
Total time          =   9766.19 s

Overall parallel efficiency rating: Good (78%)

Data was distributed by:-
G-vector (13-way); efficiency rating: Very good (81%)
k-point (14-way); efficiency rating: Excellent (96%)