 Compiled for linux_x86_64_ifort2021 on Fri, 04 Feb 2022 13:31:17 +0000
 from code version
 203e84763863+ Castep161_branch Fri, 04 Mar 2016 19:21:07 +0000
 Compiler: Intel Fortran 2021.5.0; Optimisation: intermediate
 MATHLIBS: Intel MKL(2022.0-Product) (LAPACK version 3.9.0)
 FFT Lib : fftw3 version fftw-3.3.10
 Fundamental constants values: CODATA 2010

 Run started: Mon, 28 Mar 2022 05:00:44 +0100
 |           N   N    M   M    RRRR                |
 |           NN  N    MM MM    R   R               |
 |           N N N    M M M    RRRR                |
 |           N  NN    M   M    R  R                |
 |           N   N    M   M    R   R               |
 | Welcome to Materials Studio CASTEP-NMR          |
 | Authors:                                        |
 | J.R. Yates, C.J. Pickard, F. Mauri              |
 | Contributors:                                   |
 | T.F.G. Green, S.A. Joyce                        |
 | Copyright (c) 2004 - 2015                       |
 | Please cite the appropriate publications in all |
 | work arising from your use of CASTEP NMR.       |
 | For NMR Shielding Tensors cite:                 |
 |    "All-electron magnetic response with         |
 |    pseudopotentials: NMR chemical shifts",      |
 |    C. J. Pickard, F. Mauri;                     |
 |    Physical Review B63 245101 (2001), and       |
 |    "Calculation of NMR Chemical Shifts          |
 |    for extended systems using                   |
 |    Ultrasoft Pseudopotentials",                 |
 |    J. R. Yates, C. J. Pickard and F. Mauri      |
 |    Physical Review B76 024401 (2007)            |
 | For Electric Field Gradients cite:              |
 |   "Accurate First Principles Prediction of 17O  |
 |    NMR Parameters in SiO2: Assignment of the    |
 |    Zeolite Ferrierite Spectrum"                 |
 |    M. Profeta, F. Mauri and C. J. Pickard       |
 |    J. Amer. Chem. Soc. 125 541 (2003)           |
 | For Spin-Spin (J) Couplings cite:               |
 |   "A first principles theory of NMR J-coupling  |
 |   in solid-state systems"                       |
 |   S.A. Joyce, J.R. Yates, C.J. Pickard, F. Mauri|
 |   J. Chem. Phys. 127 204107 (2007)              |
 |   "Relativistic NMR J-coupling with ultrasoft   |
 |   pseudopotentials and the zeroth-order regular |
 |   approximation"                                |
 |   T.F.G. Green and J.R. Yates                   |
 |   J. Chem. Phys. 140 234106 (2014)              |

 Atomic calculation performed for O: 1s2 2s2 2p4

 Converged in 44 iterations to an ae energy of -2040.855 eV

 Atomic calculation performed for O: 1s2 2s2 2p4

 Exceeded max iterations: converged to 0.000000062 eV

   | Pseudopotential Report - Date of generation 28-03-2022   |
   | Element: O Ionic charge:  6.00 Level of theory: PBE      |
   | Atomic Solver: ZORA (scalar)                             |
   |               Reference Electronic Structure             |
   |         Orbital         Occupation         Energy        |
   |            2s              2.000           -0.881        |
   |            2p              4.000           -0.332        |
   |                 Pseudopotential Definition               |
   |        Beta     l      e      Rc     scheme   norm       |
   |          1      0   -0.881   1.100     qc      0         |
   |          2      0    0.250   1.100     qc      0         |
   |          3      1   -0.332   1.100     qc      0         |
   |          4      1    0.250   1.100     qc      0         |
   |         loc     2    0.000   1.100     pn      0         |
   | Augmentation charge Rinner = 0.769                       |
   | Partial core correction Rc = 0.769                       |
   | "2|1.1|15|18|20|20:21(qc=7)"                             |
   |      Author: Chris J. Pickard, Cambridge University      |

 Atomic calculation performed for Zr: 1s2 2s2 2p6 3s2 3p6 3d10 4s2 4p6 4d2 5s2

[...]

 Atomic calculation performed for Zr: 1s2 2s2 2p6 3s2 3p6 3d10 4s2 4p6 4d2 5s2

[...]

 Warning: ion_atom_descreen_psp: negative charge density encountered
   | Pseudopotential Report - Date of generation 28-03-2022   |
   | Element: Zr Ionic charge: 12.00 Level of theory: PBE     |
   | Atomic Solver: ZORA (scalar)                             |
   |               Reference Electronic Structure             |
   |         Orbital         Occupation         Energy        |
   |            4s              2.000           -2.003        |
   |            4p              6.000           -1.193        |
   |            5s              2.000           -0.163        |
   |            4d              2.000           -0.132        |
   |                 Pseudopotential Definition               |
   |        Beta     l      e      Rc     scheme   norm       |
   |          1      0   -2.003   2.105     qc      0         |
   |          2      0   -0.163   2.105     qc      0         |
   |          3      0    0.250   2.105     qc      0         |
   |          4      1   -1.193   2.105     qc      0         |
   |          5      1    0.250   2.105     qc      0         |
   |          6      2   -0.132   2.105     qc      0         |
   |          7      2    0.250   2.105     qc      0         |
   |         loc     3    0.000   2.105     pn      0         |
   | Augmentation charge Rinner = 1.471                       |
   | Partial core correction Rc = 1.471                       |
   | "3|2.1|7|8|9|40U:50:41:42"                               |
   |      Author: Chris J. Pickard, Cambridge University      |

 Atomic calculation performed for Sn:

[...]

 Atomic calculation performed for Sn:

[...]

   | Pseudopotential Report - Date of generation 28-03-2022   |
   | Element: Sn Ionic charge: 14.00 Level of theory: PBE     |
   | Atomic Solver: ZORA (scalar)                             |
   |               Reference Electronic Structure             |
   |         Orbital         Occupation         Energy        |
   |            4d             10.000           -0.950        |
   |            5s              2.000           -0.388        |
   |            5p              2.000           -0.136        |
   |                 Pseudopotential Definition               |
   |        Beta     l      e      Rc     scheme   norm       |
   |          1      0   -0.388   2.199     qc      0         |
   |          2      0    0.250   2.199     qc      0         |
   |          3      1   -0.136   2.199     qc      0         |
   |          4      1    0.250   2.199     qc      0         |
   |          5      2   -0.950   2.199     qc      0         |
   |          6      2    0.250   2.199     qc      0         |
   |         loc     3    0.000   2.199     pn      0         |
   | Augmentation charge Rinner = 1.537                       |
   | Partial core correction Rc = 1.537                       |
   | "3|2.2|7|8|9|50:51:42"                                   |
   |      Author: Chris J. Pickard, Cambridge University      |

 Atomic calculation performed for La:

 Converged in 55 iterations to an ae energy of -230121.495 eV

 Atomic calculation performed for La:

 Exceeded max iterations: converged to 0.000001291 eV

 Warning: ion_atom_descreen_psp: negative charge density encountered
   | Pseudopotential Report - Date of generation 28-03-2022   |
   | Element: La Ionic charge: 11.00 Level of theory: PBE     |
   | Atomic Solver: ZORA (scalar)                             |
   |               Reference Electronic Structure             |
   |         Orbital         Occupation         Energy        |
   |            5s              2.000           -1.430        |
   |            5p              6.000           -0.823        |
   |            6s              2.000           -0.135        |
   |            5d              1.000           -0.114        |
   |                 Pseudopotential Definition               |
   |        Beta     l      e      Rc     scheme   norm       |
   |          1      0   -1.430   2.298     qc      0         |
   |          2      0   -0.135   2.298     qc      0         |
   |          3      0    0.250   2.298     qc      0         |
   |          4      1   -0.823   2.298     qc      0         |
   |          5      1    0.250   2.298     qc      0         |
   |          6      2   -0.114   2.298     qc      0         |
   |          7      2    0.250   2.298     qc      0         |
   |         loc     2    0.000   2.298     pn      0         |
   | Augmentation charge Rinner = 1.606                       |
   | Partial core correction Rc = 1.606                       |
   | "2|2.3|5|6|7|50U:60:51:52(qc=4.5)"                       |
   |      Author: Chris J. Pickard, Cambridge University      |

 Pseudo atomic calculation performed for O 2s2 2p4

 Converged in 39 iterations to a total energy of -432.6554 eV

 Pseudo atomic calculation performed for Zr 4s2 4p6 4d2 5s2

[...]

 Calculation parallelised over 182 processes.
 Data is distributed by G-vector(13-way) and k-point(14-way)

 ************************************ Title ************************************
 nmr testing

 ***************************** General Parameters ******************************

 output verbosity                               : normal  (1)
 write checkpoint data to                       : Zr5_3.check
 type of calculation                            : Magnetic Resonance
 stress calculation                             : on
 density difference calculation                 : off
 electron localisation func (ELF) calculation   : off
 Hirshfeld analysis                             : off
 unlimited duration calculation
 timing information                             : on
 write final potential to formatted file        : off
 write final density to formatted file          : off
 write BibTeX reference list                    : on
 write OTFG pseudopotential files               : on
 checkpoint writing                             : both castep_bin and check files

 output         length unit                     : A
 output           mass unit                     : amu
 output           time unit                     : ps
 output         charge unit                     : e
 output           spin unit                     : hbar/2
 output         energy unit                     : eV
 output          force unit                     : eV/A
 output       velocity unit                     : A/ps
 output       pressure unit                     : GPa
 output     inv_length unit                     : 1/A
 output      frequency unit                     : cm-1
 output force constant unit                     : eV/A**2
 output         volume unit                     : A**3
 output   IR intensity unit                     : (D/A)**2/amu
 output         dipole unit                     : D
 output         efield unit                     : eV/A/e
 output        entropy unit                     : J/mol/K

 wavefunctions paging                           : none
 random number generator seed                   : randomised (50045248)
 data distribution                              : optimal for this architecture
[...]
  |    O          42      -87.98      85.36      0.27  -3.142E+00   0.07 |
  |    O          43      -82.59      83.53      0.16  -3.202E+00   0.05 |
  |    O          44      -83.69      85.97      0.30  -3.158E+00   0.07 |
  |    O          45      -88.01      84.85      0.18  -3.185E+00   0.06 |
  |    O          46     -161.64     155.29      0.83   1.052E+00   0.69 |
  |    O          47      -19.02     -41.68      0.84   3.875E+00   0.89 |
  |    O          48      -93.37      91.20      0.23  -3.155E+00   0.09 |
  |    O          49      -89.28      85.99      0.07  -3.195E+00   0.06 |
  |    O          50      -91.81      93.29      0.25  -3.168E+00   0.08 |
  |    O          51      -89.28      85.99      0.07  -3.195E+00   0.06 |
  |    O          52      -91.81      93.29      0.25  -3.168E+00   0.08 |
  |    O          53     -161.20     160.30      0.82   1.057E+00   0.75 |
  |    O          54      -86.96      83.38      0.07  -3.188E+00   0.05 |
  |    O          55     -161.64     155.29      0.83   1.052E+00   0.69 |
  |    O          56      -88.01      84.86      0.18  -3.185E+00   0.06 |
  |    Zr          1     1596.92    -111.16      0.03  -3.503E+01   0.04 |
  |    Zr          2     1611.21    -116.21      0.06  -3.509E+01   0.11 |
  |    Zr          3     1624.99    -122.55      0.06  -3.610E+01   0.10 |
  |    Zr          4     1611.21    -116.21      0.06  -3.509E+01   0.11 |
[...]
  |    La          2     4603.54     520.04      0.07  -7.902E+01   0.10 |
  |    La          3     4609.03     515.29      0.06  -8.076E+01   0.10 |
  |    La          4     4652.17     648.93      0.01  -8.264E+01   0.01 |
  |    La          5     4603.54     520.04      0.07  -7.902E+01   0.10 |
  |    La          6     4652.17     648.93      0.01  -8.264E+01   0.01 |
  |    La          7     4609.03     515.29      0.06  -8.076E+01   0.10 |
  |    La          8     4555.59     390.62      0.06  -7.711E+01   0.11 |
  |    La          9     4595.98     515.93      0.07  -7.775E+01   0.08 |
  |    La         10     4601.09     511.77      0.07  -7.950E+01   0.09 |
  |    La         11     4493.70     238.83      0.01  -7.196E+01   0.02 |
  |    La         12     4552.55     382.74      0.05  -7.671E+01   0.10 |
  |    La         13     4555.59     390.62      0.06  -7.711E+01   0.11 |
  |    La         14     4552.55     382.74      0.05  -7.671E+01   0.10 |
  |    La         15     4601.09     511.77      0.07  -7.950E+01   0.09 |
  |    La         16     4604.87     547.54      0.07  -7.999E+01   0.18 |

 *********************** Forces ***********************
 *            Cartesian components (eV/A)             *
 *                   x            y            z      *
 * O         1      0.00390      0.00390      0.00901 *
 * O         2      0.00508      0.00534      0.00264 *
 * O         3      0.00534      0.00508      0.00264 *
 * O         4      0.00250      0.00250      0.01330 *
 * O         5     -0.01163     -0.00018     -0.01289 *
 * O         6     -0.00634     -0.00634     -0.00419 *
 * O         7      0.00102      0.00102     -0.00338 *
 * O         8     -0.00018     -0.01163     -0.01289 *
 * O         9     -0.03079      0.00096     -0.01323 *
 * O        10      0.01536     -0.00294     -0.01200 *
 * O        11      0.02280      0.01122      0.00281 *
 * O        12      0.01704     -0.01667     -0.01291 *
 * O        13      0.00097     -0.03079     -0.01324 *
 * O        14     -0.01962     -0.01230      0.00097 *
 * O        15      0.01122      0.02281      0.00282 *
 * O        16     -0.00301     -0.00587      0.00001 *
 * O        17     -0.00498     -0.00498     -0.00499 *
 * O        18      0.00424     -0.02636     -0.01587 *
 * O        19      0.01345      0.01345      0.00626 *
 * O        20     -0.01376     -0.01154      0.00205 *
 * O        21     -0.00722      0.01149      0.02626 *
 * O        22      0.00770      0.01063      0.00502 *
 * O        23     -0.00549      0.02071      0.00907 *
 * O        24     -0.01090     -0.02166     -0.00371 *
 * O        25     -0.02166     -0.01090     -0.00371 *
 * O        26     -0.01325      0.00379      0.02236 *
 * O        27      0.01063      0.00770      0.00501 *
 * O        28      0.01215      0.02123     -0.00478 *
 * O        29      0.01416      0.01122     -0.01110 *
 * O        30     -0.01578     -0.01578     -0.00933 *
 * O        31      0.00995      0.00746     -0.01877 *
 * O        32      0.00122      0.00122      0.04232 *
 * O        33      0.01149     -0.00722      0.02626 *
 * O        34      0.02071     -0.00549      0.00906 *
 * O        35      0.02123      0.01215     -0.00478 *
 * O        36      0.00379     -0.01325      0.02236 *
 * O        37      0.00747      0.00995     -0.01877 *
 * O        38      0.01122      0.01416     -0.01110 *
 * O        39     -0.00294      0.01537     -0.01200 *
 * O        40     -0.01667      0.01704     -0.01291 *
 * O        41     -0.00587     -0.00301      0.00001 *
 * O        42     -0.01230     -0.01962      0.00097 *
 * O        43     -0.01153     -0.01376      0.00205 *
 * O        44     -0.02636      0.00424     -0.01587 *
 * O        45      0.01312      0.01865      0.00359 *
 * O        46      0.00839      0.01091      0.01196 *
 * O        47      0.01695      0.01695     -0.00507 *
 * O        48      0.01366      0.01366      0.01846 *
 * O        49     -0.00268      0.01547     -0.01694 *
 * O        50     -0.01105     -0.02227     -0.01165 *
 * O        51      0.01547     -0.00268     -0.01694 *
 * O        52     -0.02227     -0.01105     -0.01165 *
 * O        53     -0.01922     -0.01922     -0.00289 *
 * O        54     -0.01162     -0.01162     -0.00460 *
 * O        55      0.01091      0.00839      0.01197 *
 * O        56      0.01864      0.01312      0.00359 *
 * Zr        1      0.00067      0.00067     -0.00239 *
 * Zr        2      0.00212      0.00401      0.00730 *
 * Zr        3      0.00274     -0.00534     -0.00377 *
 * Zr        4      0.00401      0.00212      0.00729 *
[...]
 * La        2      0.00662      0.00618      0.00448 *
 * La        3     -0.00154     -0.00291     -0.00224 *
 * La        4      0.00145     -0.00611      0.00038 *
 * La        5      0.00618      0.00662      0.00448 *
 * La        6     -0.00611      0.00145      0.00038 *
 * La        7     -0.00291     -0.00154     -0.00224 *
 * La        8     -0.00194     -0.00858      0.00391 *
 * La        9     -0.00157     -0.00157     -0.00665 *
 * La       10     -0.00142      0.00796      0.00051 *
 * La       11     -0.00524     -0.00524     -0.00225 *
 * La       12      0.00675     -0.00333      0.00004 *
 * La       13     -0.00858     -0.00193      0.00391 *
 * La       14     -0.00334      0.00674      0.00003 *
 * La       15      0.00796     -0.00142      0.00051 *
 * La       16      0.00654      0.00654     -0.00161 *

 ***************** Stress Tensor *****************
 *          Cartesian components (GPa)           *
 *             x             y             z     *
 *  x     -0.041540     -0.030042     -0.042096  *
 *  y     -0.030042     -0.041546     -0.042099  *
 *  z     -0.042096     -0.042099      0.064549  *
 *  Pressure:    0.0062                          *

[...]

 Pseudo atomic calculation performed for Sn 4d10 5s2 5p2

[...]

 Pseudo atomic calculation performed for La 5s2 5p6 5d1 6s2

 Converged in 34 iterations to a total energy of -968.0371 eV

Charge spilling parameter for spin component 1 = 0.26%

     Atomic Populations (Mulliken)
Species   Ion     s      p      d      f     Total  Charge (e)
  O        1     1.87   5.00   0.00   0.00   6.87    -0.87
  O        2     1.87   5.00   0.00   0.00   6.87    -0.87
  O        3     1.87   5.00   0.00   0.00   6.87    -0.87
  O        4     1.87   5.00   0.00   0.00   6.87    -0.87
  O        5     1.87   5.00   0.00   0.00   6.87    -0.87
  O        6     1.87   5.00   0.00   0.00   6.87    -0.87
  O        7     1.87   5.00   0.00   0.00   6.87    -0.87
  O        8     1.87   5.00   0.00   0.00   6.87    -0.87
  O        9     1.88   5.03   0.00   0.00   6.91    -0.91
  O       10     1.88   5.03   0.00   0.00   6.91    -0.91
  O       11     1.88   5.03   0.00   0.00   6.91    -0.91
  O       12     1.87   4.99   0.00   0.00   6.86    -0.86
  O       13     1.88   5.03   0.00   0.00   6.91    -0.91
  O       14     1.87   4.99   0.00   0.00   6.86    -0.86
  O       15     1.88   5.03   0.00   0.00   6.91    -0.91
  O       16     1.88   5.03   0.00   0.00   6.91    -0.91
  O       17     1.88   5.03   0.00   0.00   6.91    -0.91
  O       18     1.87   4.99   0.00   0.00   6.86    -0.86
  O       19     1.88   5.03   0.00   0.00   6.91    -0.91
  O       20     1.87   4.99   0.00   0.00   6.86    -0.86
  O       21     1.87   4.99   0.00   0.00   6.86    -0.86
  O       22     1.88   5.03   0.00   0.00   6.91    -0.91
  O       23     1.88   5.03   0.00   0.00   6.91    -0.91
  O       24     1.88   5.03   0.00   0.00   6.91    -0.91
  O       25     1.88   5.03   0.00   0.00   6.91    -0.91
  O       26     1.87   4.99   0.00   0.00   6.86    -0.86
  O       27     1.88   5.03   0.00   0.00   6.91    -0.91
  O       28     1.87   4.99   0.00   0.00   6.86    -0.86
  O       29     1.87   4.99   0.00   0.00   6.86    -0.86
  O       30     1.88   5.03   0.00   0.00   6.91    -0.91
  O       31     1.88   5.03   0.00   0.00   6.91    -0.91
  O       32     1.88   5.03   0.00   0.00   6.91    -0.91
  O       33     1.87   4.99   0.00   0.00   6.86    -0.86
  O       34     1.88   5.03   0.00   0.00   6.91    -0.91
  O       35     1.87   4.99   0.00   0.00   6.86    -0.86
  O       36     1.87   4.99   0.00   0.00   6.86    -0.86
  O       37     1.88   5.03   0.00   0.00   6.91    -0.91
  O       38     1.87   4.99   0.00   0.00   6.86    -0.86
  O       39     1.88   5.03   0.00   0.00   6.91    -0.91
  O       40     1.87   4.99   0.00   0.00   6.86    -0.86
  O       41     1.88   5.03   0.00   0.00   6.91    -0.91
  O       42     1.87   4.99   0.00   0.00   6.86    -0.86
  O       43     1.87   4.99   0.00   0.00   6.86    -0.86
  O       44     1.87   4.99   0.00   0.00   6.86    -0.86
  O       45     1.87   4.99   0.00   0.00   6.86    -0.86
  O       46     1.86   4.95   0.00   0.00   6.80    -0.80
  O       47     1.88   5.03   0.00   0.00   6.91    -0.91
  O       48     1.87   4.99   0.00   0.00   6.86    -0.86
  O       49     1.87   4.99   0.00   0.00   6.86    -0.86
  O       50     1.87   4.99   0.00   0.00   6.86    -0.86
  O       51     1.87   4.99   0.00   0.00   6.86    -0.86
  O       52     1.87   4.99   0.00   0.00   6.86    -0.86
  O       53     1.86   4.95   0.00   0.00   6.80    -0.80
  O       54     1.87   4.99   0.00   0.00   6.86    -0.86
  O       55     1.86   4.95   0.00   0.00   6.80    -0.80
  O       56     1.87   4.99   0.00   0.00   6.86    -0.86
  Zr       1     2.37   6.50   1.92   0.00  10.78     1.22
  Zr       2     2.37   6.49   1.92   0.00  10.77     1.23
  Zr       3     2.37   6.48   1.92   0.00  10.77     1.23
  Zr       4     2.37   6.49   1.92   0.00  10.77     1.23
[...]
  La       2     2.08   6.18   1.19   0.00   9.45     1.55
  La       3     2.07   6.18   1.19   0.00   9.45     1.55
  La       4     2.03   6.17   1.20   0.00   9.39     1.61
  La       5     2.08   6.18   1.19   0.00   9.45     1.55
  La       6     2.03   6.17   1.20   0.00   9.39     1.61
  La       7     2.07   6.18   1.19   0.00   9.45     1.55
  La       8     2.08   6.19   1.19   0.00   9.47     1.53
  La       9     2.07   6.18   1.19   0.00   9.44     1.56
  La      10     2.06   6.18   1.19   0.00   9.44     1.56
  La      11     2.12   6.20   1.19   0.00   9.51     1.49
  La      12     2.08   6.20   1.19   0.00   9.47     1.53
  La      13     2.08   6.19   1.19   0.00   9.47     1.53
  La      14     2.08   6.20   1.19   0.00   9.47     1.53
  La      15     2.06   6.18   1.19   0.00   9.44     1.56
  La      16     2.06   6.18   1.20   0.00   9.43     1.57

            Bond              Population      Length (A)
         O 38 -- Sn 3              0.35        2.10133
         O 29 -- Sn 8              0.35        2.10133
         O 52 -- Sn 9              0.34        2.10391
         O 50 -- Sn 7              0.34        2.10391
         O 45 -- Sn 10             0.34        2.10430
         O 56 -- Sn 5              0.34        2.10430
         O 17 -- Sn 4              0.35        2.10465
         O 18 -- Sn 7              0.34        2.10470
         O 44 -- Sn 9              0.34        2.10470
         O 48 -- Sn 6              0.34        2.10497
         O 43 -- Sn 8              0.35        2.10509
         O 20 -- Sn 3              0.35        2.10509
         O 54 -- Sn 4              0.35        2.10556
         O 28 -- Sn 5              0.34        2.10579
         O 35 -- Sn 10             0.34        2.10579
         O 12 -- Sn 8              0.34        2.10587
         O 40 -- Sn 3              0.34        2.10587
         O 26 -- Sn 11             0.34        2.10636
         O 36 -- Sn 11             0.34        2.10636
         O 33 -- Sn 6              0.34        2.10640
         O 21 -- Sn 6              0.34        2.10640
         O 41 -- Sn 11             0.34        2.10678
         O 16 -- Sn 11             0.34        2.10678
         O 27 -- Sn 10             0.34        2.10699
         O 22 -- Sn 5              0.34        2.10699
         O 51 -- Sn 2              0.34        2.10733
         O 49 -- Sn 1              0.34        2.10733
         O 30 -- Sn 7              0.34        2.10801
         O 30 -- Sn 9              0.34        2.10801
         O 41 -- Sn 1              0.33        2.10959
         O 16 -- Sn 2              0.33        2.10959
         O 42 -- Sn 7              0.34        2.10996
         O 14 -- Sn 9              0.34        2.10996
         O 10 -- Sn 2              0.34        2.11008
         O 39 -- Sn 1              0.34        2.11008
         O 53 -- Zr 3              0.42        2.11063
         O 53 -- Zr 5              0.42        2.11063
         O 47 -- Sn 2              0.33        2.11147
         O 47 -- Sn 1              0.33        2.11147
         O 34 -- Sn 8              0.34        2.11169
         O 23 -- Sn 3              0.34        2.11169
         O 11 -- Sn 6              0.34        2.11201
         O 15 -- Sn 6              0.34        2.11201
         O 11 -- Sn 5              0.34        2.11222
         O 15 -- Sn 10             0.34        2.11222
         O 46 -- Zr 4              0.42        2.11282
         O 55 -- Zr 2              0.42        2.11282
         O 9  -- Sn 9              0.34        2.11348
         O 13 -- Sn 7              0.34        2.11348
         O 10 -- Sn 4              0.33        2.11364
         O 39 -- Sn 4              0.33        2.11364
         O 17 -- Sn 11             0.33        2.11370
         O 34 -- Sn 1              0.33        2.11371
         O 23 -- Sn 2              0.33        2.11371
         O 19 -- Sn 5              0.33        2.11400
         O 19 -- Sn 10             0.33        2.11400
         O 27 -- Sn 3              0.33        2.11418
         O 22 -- Sn 8              0.33        2.11418
         O 25 -- Sn 7              0.34        2.11432
         O 24 -- Sn 9              0.34        2.11432
[...]
         O 35 -- O 42             -0.03        2.82525
         O 33 -- O 44             -0.03        2.82685
         O 18 -- O 21             -0.03        2.82685
         O 38 -- O 42             -0.03        2.82767
         O 14 -- O 29             -0.03        2.82767
         O 43 -- O 51             -0.03        2.83047
         O 20 -- O 49             -0.03        2.83047
         O 45 -- O 54             -0.03        2.83048
         O 54 -- O 56             -0.03        2.83048
         O 18 -- O 26             -0.03        2.83176
         O 36 -- O 44             -0.03        2.83176
         O 12 -- O 21             -0.03        2.83207
         O 33 -- O 40             -0.03        2.83207
         O 20 -- O 28             -0.03        2.83241
         O 35 -- O 43             -0.03        2.83241

Writing analysis data to Zr5_3.castep_bin

Writing model to Zr5_3.check

 A BibTeX formatted list of references used in this run has been written to
 Zr5_3.bib

Initialisation time =     44.88 s
Calculation time    =   9883.81 s
Finalisation time   =     36.02 s
Total time          =   9964.71 s

Overall parallel efficiency rating: Good (77%)

Data was distributed by:-
G-vector (13-way); efficiency rating: Very good (81%)
k-point (14-way); efficiency rating: Excellent (94%)