 Compiled for linux_x86_64_ifort2021 on Fri, 04 Feb 2022 13:31:17 +0000
 from code version
 203e84763863+ Castep161_branch Fri, 04 Mar 2016 19:21:07 +0000
 Compiler: Intel Fortran 2021.5.0; Optimisation: intermediate
 MATHLIBS: Intel MKL(2022.0-Product) (LAPACK version 3.9.0)
 FFT Lib : fftw3 version fftw-3.3.10
 Fundamental constants values: CODATA 2010

 Run started: Mon, 28 Mar 2022 07:47:32 +0100
 |           N   N    M   M    RRRR                |
 |           NN  N    MM MM    R   R               |
 |           N N N    M M M    RRRR                |
 |           N  NN    M   M    R  R                |
 |           N   N    M   M    R   R               |
 | Welcome to Materials Studio CASTEP-NMR          |
 | Authors:                                        |
 | J.R. Yates, C.J. Pickard, F. Mauri              |
 | Contributors:                                   |
 | T.F.G. Green, S.A. Joyce                        |
 | Copyright (c) 2004 - 2015                       |
 | Please cite the appropriate publications in all |
 | work arising from your use of CASTEP NMR.       |
 | For NMR Shielding Tensors cite:                 |
 |    "All-electron magnetic response with         |
 |    pseudopotentials: NMR chemical shifts",      |
 |    C. J. Pickard, F. Mauri;                     |
 |    Physical Review B63 245101 (2001), and       |
 |    "Calculation of NMR Chemical Shifts          |
 |    for extended systems using                   |
 |    Ultrasoft Pseudopotentials",                 |
 |    J. R. Yates, C. J. Pickard and F. Mauri      |
 |    Physical Review B76 024401 (2007)            |
 | For Electric Field Gradients cite:              |
 |   "Accurate First Principles Prediction of 17O  |
 |    NMR Parameters in SiO2: Assignment of the    |
 |    Zeolite Ferrierite Spectrum"                 |
 |    M. Profeta, F. Mauri and C. J. Pickard       |
 |    J. Amer. Chem. Soc. 125 541 (2003)           |
 | For Spin-Spin (J) Couplings cite:               |
 |   "A first principles theory of NMR J-coupling  |
 |   in solid-state systems"                       |
 |   S.A. Joyce, J.R. Yates, C.J. Pickard, F. Mauri|
 |   J. Chem. Phys. 127 204107 (2007)              |
 |   "Relativistic NMR J-coupling with ultrasoft   |
 |   pseudopotentials and the zeroth-order regular |
 |   approximation"                                |
 |   T.F.G. Green and J.R. Yates                   |
 |   J. Chem. Phys. 140 234106 (2014)              |

 Atomic calculation performed for O: 1s2 2s2 2p4

 Converged in 44 iterations to an ae energy of -2040.855 eV

 Atomic calculation performed for O: 1s2 2s2 2p4

 Exceeded max iterations: converged to 0.000000062 eV

   | Pseudopotential Report - Date of generation 28-03-2022   |
   | Element: O Ionic charge:  6.00 Level of theory: PBE      |
   | Atomic Solver: ZORA (scalar)                             |
   |               Reference Electronic Structure             |
   |         Orbital         Occupation         Energy        |
   |            2s              2.000           -0.881        |
   |            2p              4.000           -0.332        |
   |                 Pseudopotential Definition               |
   |        Beta     l      e      Rc     scheme   norm       |
   |          1      0   -0.881   1.100     qc      0         |
   |          2      0    0.250   1.100     qc      0         |
   |          3      1   -0.332   1.100     qc      0         |
   |          4      1    0.250   1.100     qc      0         |
   |         loc     2    0.000   1.100     pn      0         |
   | Augmentation charge Rinner = 0.769                       |
   | Partial core correction Rc = 0.769                       |
   | "2|1.1|15|18|20|20:21(qc=7)"                             |
   |      Author: Chris J. Pickard, Cambridge University      |

 Atomic calculation performed for Zr: 1s2 2s2 2p6 3s2 3p6 3d10 4s2 4p6 4d2 5s2

[...]

 Atomic calculation performed for Zr: 1s2 2s2 2p6 3s2 3p6 3d10 4s2 4p6 4d2 5s2

[...]

 Warning: ion_atom_descreen_psp: negative charge density encountered
   | Pseudopotential Report - Date of generation 28-03-2022   |
   | Element: Zr Ionic charge: 12.00 Level of theory: PBE     |
   | Atomic Solver: ZORA (scalar)                             |
   |               Reference Electronic Structure             |
   |         Orbital         Occupation         Energy        |
   |            4s              2.000           -2.003        |
   |            4p              6.000           -1.193        |
   |            5s              2.000           -0.163        |
   |            4d              2.000           -0.132        |
   |                 Pseudopotential Definition               |
   |        Beta     l      e      Rc     scheme   norm       |
   |          1      0   -2.003   2.105     qc      0         |
   |          2      0   -0.163   2.105     qc      0         |
   |          3      0    0.250   2.105     qc      0         |
   |          4      1   -1.193   2.105     qc      0         |
   |          5      1    0.250   2.105     qc      0         |
   |          6      2   -0.132   2.105     qc      0         |
   |          7      2    0.250   2.105     qc      0         |
   |         loc     3    0.000   2.105     pn      0         |
   | Augmentation charge Rinner = 1.471                       |
   | Partial core correction Rc = 1.471                       |
   | "3|2.1|7|8|9|40U:50:41:42"                               |
   |      Author: Chris J. Pickard, Cambridge University      |

 Atomic calculation performed for Sn:

[...]

 Atomic calculation performed for Sn:

[...]

   | Pseudopotential Report - Date of generation 28-03-2022   |
   | Element: Sn Ionic charge: 14.00 Level of theory: PBE     |
   | Atomic Solver: ZORA (scalar)                             |
   |               Reference Electronic Structure             |
   |         Orbital         Occupation         Energy        |
   |            4d             10.000           -0.950        |
   |            5s              2.000           -0.388        |
   |            5p              2.000           -0.136        |
   |                 Pseudopotential Definition               |
   |        Beta     l      e      Rc     scheme   norm       |
   |          1      0   -0.388   2.199     qc      0         |
   |          2      0    0.250   2.199     qc      0         |
   |          3      1   -0.136   2.199     qc      0         |
   |          4      1    0.250   2.199     qc      0         |
   |          5      2   -0.950   2.199     qc      0         |
   |          6      2    0.250   2.199     qc      0         |
   |         loc     3    0.000   2.199     pn      0         |
   | Augmentation charge Rinner = 1.537                       |
   | Partial core correction Rc = 1.537                       |
   | "3|2.2|7|8|9|50:51:42"                                   |
   |      Author: Chris J. Pickard, Cambridge University      |

 Atomic calculation performed for La:

 Converged in 55 iterations to an ae energy of -230121.495 eV

 Atomic calculation performed for La:

 Exceeded max iterations: converged to 0.000001291 eV

 Warning: ion_atom_descreen_psp: negative charge density encountered
   | Pseudopotential Report - Date of generation 28-03-2022   |
   | Element: La Ionic charge: 11.00 Level of theory: PBE     |
   | Atomic Solver: ZORA (scalar)                             |
   |               Reference Electronic Structure             |
   |         Orbital         Occupation         Energy        |
   |            5s              2.000           -1.430        |
   |            5p              6.000           -0.823        |
   |            6s              2.000           -0.135        |
   |            5d              1.000           -0.114        |
   |                 Pseudopotential Definition               |
   |        Beta     l      e      Rc     scheme   norm       |
   |          1      0   -1.430   2.298     qc      0         |
   |          2      0   -0.135   2.298     qc      0         |
   |          3      0    0.250   2.298     qc      0         |
   |          4      1   -0.823   2.298     qc      0         |
   |          5      1    0.250   2.298     qc      0         |
   |          6      2   -0.114   2.298     qc      0         |
   |          7      2    0.250   2.298     qc      0         |
   |         loc     2    0.000   2.298     pn      0         |
   | Augmentation charge Rinner = 1.606                       |
   | Partial core correction Rc = 1.606                       |
   | "2|2.3|5|6|7|50U:60:51:52(qc=4.5)"                       |
   |      Author: Chris J. Pickard, Cambridge University      |

 Pseudo atomic calculation performed for O 2s2 2p4

 Converged in 39 iterations to a total energy of -432.6554 eV

 Pseudo atomic calculation performed for Zr 4s2 4p6 4d2 5s2

[...]

 Calculation parallelised over 182 processes.
 Data is distributed by G-vector(13-way) and k-point(14-way)

 ************************************ Title ************************************
 nmr testing

 ***************************** General Parameters ******************************

 output verbosity                               : normal  (1)
 write checkpoint data to                       : Zr5_4.check
 type of calculation                            : Magnetic Resonance
 stress calculation                             : on
 density difference calculation                 : off
 electron localisation func (ELF) calculation   : off
 Hirshfeld analysis                             : off
 unlimited duration calculation
 timing information                             : on
 write final potential to formatted file        : off
 write final density to formatted file          : off
 write BibTeX reference list                    : on
 write OTFG pseudopotential files               : on
 checkpoint writing                             : both castep_bin and check files

 output         length unit                     : A
 output           mass unit                     : amu
 output           time unit                     : ps
 output         charge unit                     : e
 output           spin unit                     : hbar/2
 output         energy unit                     : eV
 output          force unit                     : eV/A
 output       velocity unit                     : A/ps
 output       pressure unit                     : GPa
 output     inv_length unit                     : 1/A
 output      frequency unit                     : cm-1
 output force constant unit                     : eV/A**2
 output         volume unit                     : A**3
 output   IR intensity unit                     : (D/A)**2/amu
 output         dipole unit                     : D
 output         efield unit                     : eV/A/e
 output        entropy unit                     : J/mol/K

 wavefunctions paging                           : none
 random number generator seed                   : randomised (74733099)
 data distribution                              : optimal for this architecture
[...]
  |    O          42      -90.02      85.21      0.05  -3.186E+00   0.09 |
  |    O          43      -84.96      84.60      0.15  -3.188E+00   0.05 |
  |    O          44      -81.93      85.42      0.26  -3.151E+00   0.06 |
  |    O          45      -85.69      87.26      0.21  -3.213E+00   0.05 |
  |    O          46     -159.89     148.78      0.78   1.041E+00   0.60 |
  |    O          47      -21.32      38.87      0.64   3.923E+00   0.85 |
  |    O          48      -90.49      83.54      0.21  -3.149E+00   0.07 |
  |    O          49      -88.94      79.34      0.03  -3.248E+00   0.08 |
  |    O          50      -88.83      85.06      0.24  -3.158E+00   0.06 |
  |    O          51      -86.05      86.03      0.19  -3.147E+00   0.04 |
  |    O          52      -88.82      95.96      0.27  -3.199E+00   0.06 |
  |    O          53      -88.95      79.98      0.14  -3.267E+00   0.10 |
  |    O          54      -88.95      85.71      0.09  -3.158E+00   0.05 |
  |    O          55      -88.34      86.17      0.28  -3.209E+00   0.08 |
  |    O          56      -89.04      86.02      0.19  -3.155E+00   0.07 |
  |    Zr          1     1595.95    -110.29      0.06  -3.430E+01   0.10 |
  |    Zr          2     1609.95    -117.45      0.14  -3.485E+01   0.09 |
  |    Zr          3     1615.38    -117.15      0.09  -3.589E+01   0.04 |
  |    Zr          4     1615.43    -115.18      0.11  -3.581E+01   0.07 |
[...]
  |    La          2     4603.51     525.44      0.07  -7.985E+01   0.08 |
  |    La          3     4609.99     515.83      0.06  -8.089E+01   0.08 |
  |    La          4     4701.33     765.26      0.03  -8.707E+01   0.08 |
  |    La          5     4552.79     383.04      0.06  -7.630E+01   0.08 |
  |    La          6     4603.53     523.36      0.07  -7.961E+01   0.08 |
  |    La          7     4657.65     656.00      0.08  -8.426E+01   0.16 |
  |    La          8     4503.52     231.63      0.01  -7.303E+01   0.01 |
  |    La          9     4594.91     514.17      0.09  -7.771E+01   0.09 |
  |    La         10     4602.82     515.66      0.07  -7.927E+01   0.07 |
  |    La         11     4546.49     394.92      0.08  -7.516E+01   0.12 |
  |    La         12     4602.90     512.03      0.08  -7.905E+01   0.09 |
  |    La         13     4545.61     393.73      0.07  -7.502E+01   0.11 |
  |    La         14     4562.05     379.28      0.04  -7.823E+01   0.10 |
  |    La         15     4609.49     507.29      0.07  -8.099E+01   0.09 |
  |    La         16     4597.44     550.88      0.09  -7.827E+01   0.20 |

 *********************** Forces ***********************
 *            Cartesian components (eV/A)             *
 *                   x            y            z      *
 * O         1      0.01514     -0.00933      0.00114 *
 * O         2     -0.00324     -0.01169     -0.00137 *
 * O         3      0.00379      0.00389      0.00717 *
 * O         4     -0.00238     -0.00413      0.00091 *
 * O         5     -0.01721      0.00021     -0.01938 *
 * O         6     -0.01737      0.00084      0.00676 *
 * O         7      0.01229     -0.00071      0.01019 *
 * O         8      0.01356      0.00443     -0.01497 *
 * O         9      0.00052     -0.00412     -0.01531 *
 * O        10      0.00466     -0.00944     -0.01713 *
 * O        11      0.02638      0.00747      0.00109 *
 * O        12     -0.01320     -0.00233      0.00658 *
 * O        13     -0.00260     -0.02124     -0.00579 *
 * O        14     -0.00449     -0.00133     -0.01040 *
 * O        15      0.00635      0.01419     -0.00097 *
 * O        16      0.00482     -0.01196     -0.00725 *
 * O        17      0.00049     -0.01081     -0.01549 *
 * O        18     -0.01610     -0.00296      0.00701 *
 * O        19      0.00653      0.01565     -0.00111 *
 * O        20     -0.00434      0.00058     -0.01126 *
 * O        21      0.00568     -0.01432      0.00491 *
 * O        22      0.00000      0.01710      0.00564 *
 * O        23      0.01686     -0.00708      0.02315 *
 * O        24     -0.00037     -0.01252     -0.01041 *
 * O        25     -0.02723     -0.00066     -0.00910 *
 * O        26      0.01441     -0.01603      0.00042 *
 * O        27     -0.00942      0.01610      0.00934 *
 * O        28      0.01427      0.00991      0.02315 *
 * O        29     -0.01672      0.00413      0.00042 *
 * O        30     -0.00949     -0.00899     -0.00007 *
 * O        31      0.01520      0.00238     -0.02849 *
 * O        32     -0.00068     -0.00815      0.02792 *
 * O        33      0.01402      0.02049      0.00523 *
 * O        34      0.01412      0.00030      0.00730 *
 * O        35     -0.00037      0.01010      0.01363 *
 * O        36     -0.02352     -0.01275     -0.00530 *
 * O        37      0.00480      0.01111     -0.01094 *
 * O        38     -0.00393      0.00858      0.01008 *
 * O        39     -0.01036      0.00539     -0.00241 *
 * O        40      0.00645     -0.00531     -0.00030 *
 * O        41     -0.00283     -0.00071     -0.00049 *
 * O        42     -0.01366     -0.00031     -0.02655 *
 * O        43      0.01302      0.01359      0.00005 *
 * O        44     -0.00284     -0.01721     -0.01100 *
 * O        45      0.01522      0.00535     -0.01228 *
 * O        46      0.00775      0.00210      0.00905 *
 * O        47      0.00593      0.00617     -0.01445 *
 * O        48      0.00121     -0.01130      0.00285 *
 * O        49     -0.01445      0.01992      0.01148 *
 * O        50      0.00419     -0.01117      0.01292 *
 * O        51      0.00183     -0.02242      0.00880 *
 * O        52     -0.01844      0.00578      0.00168 *
 * O        53     -0.01866     -0.00031      0.03005 *
 * O        54      0.01430      0.01402     -0.00279 *
 * O        55      0.00963     -0.01761     -0.00705 *
 * O        56     -0.00282      0.00864     -0.01599 *
 * Zr        1     -0.00934      0.00014      0.01101 *
 * Zr        2     -0.00299     -0.00380      0.00389 *
 * Zr        3      0.02176      0.00495      0.01271 *
 * Zr        4      0.01671      0.00890     -0.01267 *
[...]
 * La        2      0.01666      0.01324      0.00159 *
 * La        3     -0.01669      0.00697     -0.01836 *
 * La        4     -0.01341      0.00133      0.00869 *
 * La        5     -0.01798     -0.02092      0.02179 *
 * La        6      0.02335     -0.01295      0.02587 *
 * La        7     -0.00460      0.00020     -0.00273 *
 * La        8      0.01074      0.00082      0.00891 *
 * La        9      0.01359      0.00685     -0.00496 *
 * La       10     -0.01410     -0.00556      0.00285 *
 * La       11     -0.00915      0.00208     -0.01582 *
 * La       12      0.00675      0.01531     -0.00138 *
 * La       13     -0.00626      0.00253      0.01099 *
 * La       14      0.01774     -0.01652     -0.01739 *
 * La       15     -0.00190      0.00426      0.01202 *
 * La       16     -0.01712     -0.00852     -0.02028 *

 ***************** Stress Tensor *****************
 *          Cartesian components (GPa)           *
 *             x             y             z     *
 *  x     -0.003843     -0.019288      0.023831  *
 *  y     -0.019288     -0.003787     -0.021613  *
 *  z      0.023831     -0.021613      0.006586  *
 *  Pressure:    0.0003                          *

[...]

 Pseudo atomic calculation performed for Sn 4d10 5s2 5p2

[...]

 Pseudo atomic calculation performed for La 5s2 5p6 5d1 6s2

 Converged in 34 iterations to a total energy of -968.0371 eV

Charge spilling parameter for spin component 1 = 0.26%

     Atomic Populations (Mulliken)
Species   Ion     s      p      d      f     Total  Charge (e)
  O        1     1.87   5.00   0.00   0.00   6.87    -0.87
  O        2     1.87   5.00   0.00   0.00   6.87    -0.87
  O        3     1.87   5.00   0.00   0.00   6.87    -0.87
  O        4     1.87   5.00   0.00   0.00   6.87    -0.87
  O        5     1.87   5.00   0.00   0.00   6.87    -0.87
  O        6     1.87   5.00   0.00   0.00   6.87    -0.87
  O        7     1.87   5.00   0.00   0.00   6.87    -0.87
  O        8     1.87   5.00   0.00   0.00   6.87    -0.87
  O        9     1.87   4.99   0.00   0.00   6.86    -0.86
  O       10     1.88   5.03   0.00   0.00   6.91    -0.91
  O       11     1.88   5.03   0.00   0.00   6.91    -0.91
  O       12     1.88   5.03   0.00   0.00   6.91    -0.91
  O       13     1.88   5.03   0.00   0.00   6.91    -0.91
  O       14     1.87   4.99   0.00   0.00   6.86    -0.86
  O       15     1.88   5.03   0.00   0.00   6.91    -0.91
  O       16     1.88   5.03   0.00   0.00   6.91    -0.91
  O       17     1.88   5.03   0.00   0.00   6.91    -0.91
  O       18     1.88   5.03   0.00   0.00   6.91    -0.91
  O       19     1.88   5.03   0.00   0.00   6.91    -0.91
  O       20     1.86   4.95   0.00   0.00   6.80    -0.80
  O       21     1.88   5.03   0.00   0.00   6.91    -0.91
  O       22     1.88   5.03   0.00   0.00   6.91    -0.91
  O       23     1.87   4.99   0.00   0.00   6.86    -0.86
  O       24     1.88   5.03   0.00   0.00   6.91    -0.91
  O       25     1.88   5.03   0.00   0.00   6.91    -0.91
  O       26     1.88   5.03   0.00   0.00   6.91    -0.91
  O       27     1.87   4.99   0.00   0.00   6.86    -0.86
  O       28     1.87   4.99   0.00   0.00   6.86    -0.86
  O       29     1.87   4.99   0.00   0.00   6.86    -0.86
  O       30     1.88   5.03   0.00   0.00   6.91    -0.91
  O       31     1.88   5.03   0.00   0.00   6.91    -0.91
  O       32     1.88   5.03   0.00   0.00   6.91    -0.91
  O       33     1.87   4.99   0.00   0.00   6.86    -0.86
  O       34     1.88   5.03   0.00   0.00   6.91    -0.91
  O       35     1.87   4.99   0.00   0.00   6.86    -0.86
  O       36     1.87   4.99   0.00   0.00   6.86    -0.86
  O       37     1.88   5.03   0.00   0.00   6.91    -0.91
  O       38     1.86   4.95   0.00   0.00   6.80    -0.80
  O       39     1.88   5.03   0.00   0.00   6.91    -0.91
  O       40     1.86   4.95   0.00   0.00   6.80    -0.80
  O       41     1.88   5.03   0.00   0.00   6.91    -0.91
  O       42     1.87   4.99   0.00   0.00   6.86    -0.86
  O       43     1.87   4.99   0.00   0.00   6.86    -0.86
  O       44     1.87   4.99   0.00   0.00   6.86    -0.86
  O       45     1.87   4.99   0.00   0.00   6.86    -0.86
  O       46     1.86   4.95   0.00   0.00   6.80    -0.80
  O       47     1.88   5.03   0.00   0.00   6.91    -0.91
  O       48     1.87   4.99   0.00   0.00   6.86    -0.86
  O       49     1.87   4.99   0.00   0.00   6.86    -0.86
  O       50     1.87   4.99   0.00   0.00   6.86    -0.86
  O       51     1.87   4.99   0.00   0.00   6.86    -0.86
  O       52     1.87   4.99   0.00   0.00   6.86    -0.86
  O       53     1.87   4.99   0.00   0.00   6.86    -0.86
  O       54     1.87   4.99   0.00   0.00   6.86    -0.86
  O       55     1.87   4.99   0.00   0.00   6.86    -0.86
  O       56     1.87   4.99   0.00   0.00   6.86    -0.86
  Zr       1     2.37   6.50   1.92   0.00  10.78     1.22
  Zr       2     2.37   6.49   1.92   0.00  10.77     1.23
  Zr       3     2.37   6.48   1.92   0.00  10.77     1.23
  Zr       4     2.36   6.48   1.92   0.00  10.77     1.23
[...]
  La       2     2.08   6.18   1.20   0.00   9.45     1.55
  La       3     2.07   6.19   1.19   0.00   9.45     1.55
  La       4     2.01   6.16   1.20   0.00   9.37     1.63
  La       5     2.10   6.19   1.19   0.00   9.49     1.51
  La       6     2.06   6.18   1.19   0.00   9.43     1.57
  La       7     2.03   6.17   1.20   0.00   9.40     1.60
  La       8     2.13   6.21   1.19   0.00   9.53     1.47
  La       9     2.07   6.18   1.19   0.00   9.45     1.55
  La      10     2.06   6.18   1.19   0.00   9.44     1.56
  La      11     2.09   6.19   1.19   0.00   9.48     1.52
  La      12     2.06   6.18   1.19   0.00   9.44     1.56
  La      13     2.09   6.19   1.19   0.00   9.48     1.52
  La      14     2.08   6.20   1.19   0.00   9.47     1.53
  La      15     2.06   6.19   1.19   0.00   9.44     1.56
  La      16     2.07   6.17   1.20   0.00   9.44     1.56

            Bond              Population      Length (A)
         O 27 -- Sn 10             0.35        2.09870
         O 29 -- Sn 8              0.35        2.09897
         O 52 -- Sn 9              0.34        2.09925
         O 53 -- Sn 3              0.34        2.09948
         O 43 -- Sn 8              0.35        2.10032
         O 45 -- Sn 10             0.35        2.10095
         O 33 -- Sn 6              0.34        2.10099
         O 36 -- Sn 11             0.35        2.10165
         O 49 -- Sn 1              0.35        2.10173
         O 28 -- Sn 5              0.34        2.10247
         O 55 -- Sn 3              0.34        2.10360
         O 9  -- Sn 9              0.35        2.10406
         O 42 -- Sn 7              0.34        2.10460
         O 23 -- Sn 2              0.34        2.10539
         O 50 -- Sn 7              0.34        2.10617
         O 56 -- Sn 5              0.34        2.10617
         O 30 -- Sn 7              0.33        2.10672
         O 30 -- Sn 9              0.34        2.10681
         O 16 -- Sn 11             0.34        2.10696
         O 48 -- Sn 6              0.34        2.10718
         O 54 -- Sn 4              0.34        2.10732
         O 10 -- Sn 2              0.34        2.10756
         O 47 -- Sn 1              0.33        2.10781
         O 35 -- Sn 10             0.34        2.10787
         O 24 -- Sn 4              0.34        2.10797
         O 44 -- Sn 9              0.34        2.10844
         O 19 -- Sn 5              0.33        2.10849
         O 47 -- Sn 2              0.33        2.10871
         O 51 -- Sn 2              0.34        2.10933
         O 15 -- Sn 10             0.34        2.10988
         O 41 -- Sn 11             0.34        2.10994
         O 17 -- Sn 4              0.34        2.10997
         O 16 -- Sn 2              0.34        2.11033
         O 39 -- Sn 1              0.34        2.11044
         O 10 -- Sn 4              0.33        2.11062
         O 14 -- Sn 9              0.34        2.11094
         O 39 -- Sn 4              0.33        2.11098
         O 38 -- Zr 2              0.42        2.11101
         O 15 -- Sn 6              0.33        2.11108
         O 18 -- Sn 3              0.34        2.11113
         O 24 -- Sn 9              0.33        2.11121
         O 22 -- Sn 5              0.34        2.11223
         O 13 -- Sn 7              0.34        2.11225
         O 21 -- Sn 3              0.34        2.11254
         O 12 -- Sn 8              0.33        2.11273
         O 18 -- Sn 7              0.33        2.11320
         O 19 -- Sn 10             0.33        2.11329
         O 41 -- Sn 1              0.33        2.11336
         O 26 -- Sn 11             0.34        2.11337
         O 11 -- Sn 6              0.34        2.11352
         O 52 -- Zr 1              0.44        2.11380
         O 38 -- Zr 5              0.41        2.11384
         O 21 -- Sn 6              0.33        2.11388
         O 11 -- Sn 5              0.34        2.11488
         O 37 -- Sn 1              0.33        2.11514
         O 37 -- Sn 5              0.33        2.11518
         O 17 -- Sn 11             0.33        2.11539
         O 32 -- Sn 6              0.34        2.11546
         O 34 -- Sn 8              0.33        2.11566
         O 20 -- Zr 5              0.42        2.11611
[...]
         O 20 -- O 27             -0.03        2.82696
         O 29 -- O 46             -0.03        2.82741
         O 9  -- O 38             -0.03        2.82790
         O 33 -- O 40             -0.03        2.82803
         O 36 -- O 46             -0.03        2.82911
         O 48 -- O 50             -0.03        2.83146
         O 20 -- O 23             -0.03        2.83156
         O 51 -- O 55             -0.03        2.83216
         O 54 -- O 56             -0.03        2.83284
         O 45 -- O 54             -0.03        2.83309
         O 14 -- O 29             -0.03        2.83483
         O 9  -- O 23             -0.03        2.83503
         O 35 -- O 43             -0.03        2.83595
         O 36 -- O 44             -0.03        2.83659
         O 43 -- O 51             -0.03        2.83728

Writing analysis data to Zr5_4.castep_bin

Writing model to Zr5_4.check

 A BibTeX formatted list of references used in this run has been written to
 Zr5_4.bib

Initialisation time =     44.48 s
Calculation time    =   9940.41 s
Finalisation time   =     31.49 s
Total time          =  10016.38 s

Overall parallel efficiency rating: Good (74%)

Data was distributed by:-
G-vector (13-way); efficiency rating: Good (78%)
k-point (14-way); efficiency rating: Excellent (93%)