 Compiled for linux_x86_64_ifort2021 on Fri, 04 Feb 2022 13:31:17 +0000
 from code version
 203e84763863+ Castep161_branch Fri, 04 Mar 2016 19:21:07 +0000
 Compiler: Intel Fortran 2021.5.0; Optimisation: intermediate
 MATHLIBS: Intel MKL(2022.0-Product) (LAPACK version 3.9.0)
 FFT Lib : fftw3 version fftw-3.3.10
 Fundamental constants values: CODATA 2010

 Run started: Mon, 28 Mar 2022 10:35:13 +0100
 |           N   N    M   M    RRRR                |
 |           NN  N    MM MM    R   R               |
 |           N N N    M M M    RRRR                |
 |           N  NN    M   M    R  R                |
 |           N   N    M   M    R   R               |
 | Welcome to Materials Studio CASTEP-NMR          |
 | Authors:                                        |
 | J.R. Yates, C.J. Pickard, F. Mauri              |
 | Contributors:                                   |
 | T.F.G. Green, S.A. Joyce                        |
 | Copyright (c) 2004 - 2015                       |
 | Please cite the appropriate publications in all |
 | work arising from your use of CASTEP NMR.       |
 | For NMR Shielding Tensors cite:                 |
 |    "All-electron magnetic response with         |
 |    pseudopotentials: NMR chemical shifts",      |
 |    C. J. Pickard, F. Mauri;                     |
 |    Physical Review B63 245101 (2001), and       |
 |    "Calculation of NMR Chemical Shifts          |
 |    for extended systems using                   |
 |    Ultrasoft Pseudopotentials",                 |
 |    J. R. Yates, C. J. Pickard and F. Mauri      |
 |    Physical Review B76 024401 (2007)            |
 | For Electric Field Gradients cite:              |
 |   "Accurate First Principles Prediction of 17O  |
 |    NMR Parameters in SiO2: Assignment of the    |
 |    Zeolite Ferrierite Spectrum"                 |
 |    M. Profeta, F. Mauri and C. J. Pickard       |
 |    J. Amer. Chem. Soc. 125 541 (2003)           |
 | For Spin-Spin (J) Couplings cite:               |
 |   "A first principles theory of NMR J-coupling  |
 |   in solid-state systems"                       |
 |   S.A. Joyce, J.R. Yates, C.J. Pickard, F. Mauri|
 |   J. Chem. Phys. 127 204107 (2007)              |
 |   "Relativistic NMR J-coupling with ultrasoft   |
 |   pseudopotentials and the zeroth-order regular |
 |   approximation"                                |
 |   T.F.G. Green and J.R. Yates                   |
 |   J. Chem. Phys. 140 234106 (2014)              |

 Atomic calculation performed for O: 1s2 2s2 2p4

 Converged in 44 iterations to an ae energy of -2040.855 eV

 Atomic calculation performed for O: 1s2 2s2 2p4

 Exceeded max iterations: converged to 0.000000062 eV

   | Pseudopotential Report - Date of generation 28-03-2022   |
   | Element: O Ionic charge:  6.00 Level of theory: PBE      |
   | Atomic Solver: ZORA (scalar)                             |
   |               Reference Electronic Structure             |
   |         Orbital         Occupation         Energy        |
   |            2s              2.000           -0.881        |
   |            2p              4.000           -0.332        |
   |                 Pseudopotential Definition               |
   |        Beta     l      e      Rc     scheme   norm       |
   |          1      0   -0.881   1.100     qc      0         |
   |          2      0    0.250   1.100     qc      0         |
   |          3      1   -0.332   1.100     qc      0         |
   |          4      1    0.250   1.100     qc      0         |
   |         loc     2    0.000   1.100     pn      0         |
   | Augmentation charge Rinner = 0.769                       |
   | Partial core correction Rc = 0.769                       |
   | "2|1.1|15|18|20|20:21(qc=7)"                             |
   |      Author: Chris J. Pickard, Cambridge University      |

 Atomic calculation performed for Zr: 1s2 2s2 2p6 3s2 3p6 3d10 4s2 4p6 4d2 5s2

[...]

 Atomic calculation performed for Zr: 1s2 2s2 2p6 3s2 3p6 3d10 4s2 4p6 4d2 5s2

[...]

 Warning: ion_atom_descreen_psp: negative charge density encountered
   | Pseudopotential Report - Date of generation 28-03-2022   |
   | Element: Zr Ionic charge: 12.00 Level of theory: PBE     |
   | Atomic Solver: ZORA (scalar)                             |
   |               Reference Electronic Structure             |
   |         Orbital         Occupation         Energy        |
   |            4s              2.000           -2.003        |
   |            4p              6.000           -1.193        |
   |            5s              2.000           -0.163        |
   |            4d              2.000           -0.132        |
   |                 Pseudopotential Definition               |
   |        Beta     l      e      Rc     scheme   norm       |
   |          1      0   -2.003   2.105     qc      0         |
   |          2      0   -0.163   2.105     qc      0         |
   |          3      0    0.250   2.105     qc      0         |
   |          4      1   -1.193   2.105     qc      0         |
   |          5      1    0.250   2.105     qc      0         |
   |          6      2   -0.132   2.105     qc      0         |
   |          7      2    0.250   2.105     qc      0         |
   |         loc     3    0.000   2.105     pn      0         |
   | Augmentation charge Rinner = 1.471                       |
   | Partial core correction Rc = 1.471                       |
   | "3|2.1|7|8|9|40U:50:41:42"                               |
   |      Author: Chris J. Pickard, Cambridge University      |

 Atomic calculation performed for Sn:

[...]

 Atomic calculation performed for Sn:

[...]

   | Pseudopotential Report - Date of generation 28-03-2022   |
   | Element: Sn Ionic charge: 14.00 Level of theory: PBE     |
   | Atomic Solver: ZORA (scalar)                             |
   |               Reference Electronic Structure             |
   |         Orbital         Occupation         Energy        |
   |            4d             10.000           -0.950        |
   |            5s              2.000           -0.388        |
   |            5p              2.000           -0.136        |
   |                 Pseudopotential Definition               |
   |        Beta     l      e      Rc     scheme   norm       |
   |          1      0   -0.388   2.199     qc      0         |
   |          2      0    0.250   2.199     qc      0         |
   |          3      1   -0.136   2.199     qc      0         |
   |          4      1    0.250   2.199     qc      0         |
   |          5      2   -0.950   2.199     qc      0         |
   |          6      2    0.250   2.199     qc      0         |
   |         loc     3    0.000   2.199     pn      0         |
   | Augmentation charge Rinner = 1.537                       |
   | Partial core correction Rc = 1.537                       |
   | "3|2.2|7|8|9|50:51:42"                                   |
   |      Author: Chris J. Pickard, Cambridge University      |

 Atomic calculation performed for La:

 Converged in 55 iterations to an ae energy of -230121.495 eV

 Atomic calculation performed for La:

 Exceeded max iterations: converged to 0.000001291 eV

 Warning: ion_atom_descreen_psp: negative charge density encountered
   | Pseudopotential Report - Date of generation 28-03-2022   |
   | Element: La Ionic charge: 11.00 Level of theory: PBE     |
   | Atomic Solver: ZORA (scalar)                             |
   |               Reference Electronic Structure             |
   |         Orbital         Occupation         Energy        |
   |            5s              2.000           -1.430        |
   |            5p              6.000           -0.823        |
   |            6s              2.000           -0.135        |
   |            5d              1.000           -0.114        |
   |                 Pseudopotential Definition               |
   |        Beta     l      e      Rc     scheme   norm       |
   |          1      0   -1.430   2.298     qc      0         |
   |          2      0   -0.135   2.298     qc      0         |
   |          3      0    0.250   2.298     qc      0         |
   |          4      1   -0.823   2.298     qc      0         |
   |          5      1    0.250   2.298     qc      0         |
   |          6      2   -0.114   2.298     qc      0         |
   |          7      2    0.250   2.298     qc      0         |
   |         loc     2    0.000   2.298     pn      0         |
   | Augmentation charge Rinner = 1.606                       |
   | Partial core correction Rc = 1.606                       |
   | "2|2.3|5|6|7|50U:60:51:52(qc=4.5)"                       |
   |      Author: Chris J. Pickard, Cambridge University      |

 Pseudo atomic calculation performed for O 2s2 2p4

 Converged in 39 iterations to a total energy of -432.6554 eV

 Pseudo atomic calculation performed for Zr 4s2 4p6 4d2 5s2

[...]

 Calculation parallelised over 182 processes.
 Data is distributed by G-vector(13-way) and k-point(14-way)

 ************************************ Title ************************************
 nmr testing

 ***************************** General Parameters ******************************

 output verbosity                               : normal  (1)
 write checkpoint data to                       : Zr5_5.check
 type of calculation                            : Magnetic Resonance
 stress calculation                             : on
 density difference calculation                 : off
 electron localisation func (ELF) calculation   : off
 Hirshfeld analysis                             : off
 unlimited duration calculation
 timing information                             : on
 write final potential to formatted file        : off
 write final density to formatted file          : off
 write BibTeX reference list                    : on
 write OTFG pseudopotential files               : on
 checkpoint writing                             : both castep_bin and check files

 output         length unit                     : A
 output           mass unit                     : amu
 output           time unit                     : ps
 output         charge unit                     : e
 output           spin unit                     : hbar/2
 output         energy unit                     : eV
 output          force unit                     : eV/A
 output       velocity unit                     : A/ps
 output       pressure unit                     : GPa
 output     inv_length unit                     : 1/A
 output      frequency unit                     : cm-1
 output force constant unit                     : eV/A**2
 output         volume unit                     : A**3
 output   IR intensity unit                     : (D/A)**2/amu
 output         dipole unit                     : D
 output         efield unit                     : eV/A/e
 output        entropy unit                     : J/mol/K

 wavefunctions paging                           : none
 random number generator seed                   : randomised (103514125)
 data distribution                              : optimal for this architecture
[...]
  |    O          42      -88.94      85.96      0.19  -3.180E+00   0.06 |
  |    O          43      -87.71      85.03      0.12  -3.185E+00   0.04 |
  |    O          44      -88.62      94.35      0.31  -3.174E+00   0.08 |
  |    O          45      -87.32      85.34      0.08  -3.235E+00   0.07 |
  |    O          46     -162.17     149.95      0.83   1.060E+00   0.62 |
  |    O          47       -8.55      55.88      0.86   3.876E+00   0.90 |
  |    O          48      -89.45      82.75      0.19  -3.156E+00   0.08 |
  |    O          49      -86.82      88.07      0.11  -3.224E+00   0.05 |
  |    O          50      -85.21      83.93      0.14  -3.180E+00   0.06 |
  |    O          51      -87.85      85.10      0.12  -3.184E+00   0.04 |
  |    O          52      -88.74      95.34      0.31  -3.172E+00   0.07 |
  |    O          53      -87.57      86.52      0.08  -3.233E+00   0.07 |
  |    O          54     -162.18     149.30      0.84   1.063E+00   0.62 |
  |    O          55      -89.95      87.04      0.19  -3.146E+00   0.06 |
  |    O          56      -88.86      85.17      0.04  -3.219E+00   0.08 |
  |    Zr          1     1610.76    -118.41      0.12  -3.564E+01   0.06 |
  |    Zr          2     1596.12    -109.96      0.07  -3.424E+01   0.03 |
  |    Zr          3     1610.58    -118.63      0.13  -3.569E+01   0.04 |
  |    Zr          4     1611.43    -113.77      0.06  -3.479E+01   0.11 |
[...]
  |    La          2     4597.60     521.47      0.08  -7.744E+01   0.08 |
  |    La          3     4655.19     650.40      0.08  -8.342E+01   0.14 |
  |    La          4     4657.53     646.37      0.01  -8.416E+01   0.02 |
  |    La          5     4545.66     385.89      0.07  -7.454E+01   0.10 |
  |    La          6     4604.25     522.42      0.07  -7.976E+01   0.07 |
  |    La          7     4656.26     653.83      0.08  -8.397E+01   0.15 |
  |    La          8     4553.54     383.54      0.05  -7.677E+01   0.08 |
  |    La          9     4545.70     385.56      0.07  -7.451E+01   0.10 |
  |    La         10     4604.56     545.47      0.06  -7.967E+01   0.16 |
  |    La         11     4484.44     243.97      0.01  -7.051E+01   0.01 |
  |    La         12     4553.53     383.84      0.05  -7.685E+01   0.08 |
  |    La         13     4604.21     521.77      0.07  -7.968E+01   0.07 |
  |    La         14     4560.84     377.57      0.03  -7.835E+01   0.08 |
  |    La         15     4656.56     655.85      0.08  -8.407E+01   0.15 |
  |    La         16     4604.45     544.64      0.06  -7.959E+01   0.16 |

 *********************** Forces ***********************
 *            Cartesian components (eV/A)             *
 *                   x            y            z      *
 * O         1     -0.00245     -0.00308      0.00638 *
 * O         2     -0.00663     -0.00006      0.00058 *
 * O         3     -0.00180     -0.00355      0.00342 *
 * O         4     -0.00887     -0.00269      0.00698 *
 * O         5      0.00173     -0.00044     -0.00611 *
 * O         6      0.00430      0.00360     -0.00124 *
 * O         7      0.00665      0.00350     -0.00148 *
 * O         8      0.00758      0.00237     -0.00770 *
 * O         9     -0.01593      0.00691     -0.02399 *
 * O        10     -0.01001     -0.01338     -0.00379 *
 * O        11      0.03709      0.00915     -0.00664 *
 * O        12     -0.00604     -0.00711     -0.00296 *
 * O        13      0.00883     -0.00956     -0.01902 *
 * O        14     -0.01454     -0.01242     -0.00671 *
 * O        15      0.02430      0.02369     -0.00893 *
 * O        16      0.00787     -0.02140     -0.00142 *
 * O        17     -0.00849     -0.02596      0.00970 *
 * O        18      0.00476     -0.00943      0.00636 *
 * O        19      0.02072      0.01131      0.00331 *
 * O        20     -0.00562     -0.00714      0.00297 *
 * O        21     -0.00865     -0.02290      0.02369 *
 * O        22     -0.00209      0.02077      0.00694 *
 * O        23     -0.01908      0.00929      0.01007 *
 * O        24     -0.00614      0.01267     -0.01845 *
 * O        25      0.00268      0.00854     -0.00958 *
 * O        26      0.00297     -0.01029      0.02110 *
 * O        27      0.00640      0.00834      0.00340 *
 * O        28      0.01311      0.02505     -0.00634 *
 * O        29      0.00059      0.01516     -0.00758 *
 * O        30     -0.02398     -0.00726     -0.01341 *
 * O        31     -0.00335      0.00626     -0.00539 *
 * O        32     -0.00693     -0.00882      0.03662 *
 * O        33      0.01178     -0.02301      0.04001 *
 * O        34      0.00257     -0.01143      0.01870 *
 * O        35      0.02123      0.01686     -0.00135 *
 * O        36      0.00712     -0.02396      0.03691 *
 * O        37     -0.00071      0.00633     -0.00476 *
 * O        38      0.00147      0.01985     -0.01009 *
 * O        39     -0.01325     -0.01158     -0.00561 *
 * O        40     -0.01184      0.01805     -0.02648 *
 * O        41     -0.00518     -0.00677     -0.00143 *
 * O        42     -0.01032     -0.01875      0.00068 *
 * O        43     -0.01472     -0.00825      0.00202 *
 * O        44     -0.02199      0.01568     -0.02907 *
 * O        45      0.02495      0.03497     -0.00065 *
 * O        46      0.01864      0.00728     -0.00395 *
 * O        47      0.01833      0.01125      0.00220 *
 * O        48      0.03862      0.02287      0.00855 *
 * O        49     -0.00207      0.01154     -0.01443 *
 * O        50     -0.03026     -0.01703     -0.01626 *
 * O        51      0.00309      0.00863     -0.01605 *
 * O        52     -0.02917     -0.01649     -0.02575 *
 * O        53      0.00270     -0.03591      0.02619 *
 * O        54     -0.00726     -0.00774      0.01296 *
 * O        55      0.00011     -0.01748      0.02046 *
 * O        56      0.03365      0.02497      0.00190 *
 * Zr        1     -0.00740     -0.01340      0.01719 *
 * Zr        2      0.00382      0.00084      0.00479 *
 * Zr        3      0.00409      0.00981      0.00738 *
 * Zr        4      0.00575      0.00830      0.00707 *
[...]
 * La        2      0.00434      0.00232      0.00695 *
 * La        3      0.00919     -0.00700      0.00712 *
 * La        4      0.00249      0.00285     -0.00115 *
 * La        5      0.00641      0.00883     -0.00054 *
 * La        6      0.00600      0.00643      0.00378 *
 * La        7      0.00039      0.00499     -0.00148 *
 * La        8     -0.01190     -0.00452      0.00001 *
 * La        9     -0.00296     -0.00686      0.00616 *
 * La       10     -0.00742     -0.00816     -0.00212 *
 * La       11     -0.00510     -0.00083     -0.00535 *
 * La       12     -0.00204      0.00467     -0.00904 *
 * La       13      0.00309     -0.00577      0.00598 *
 * La       14     -0.00165     -0.00033     -0.00046 *
 * La       15     -0.00041     -0.00328     -0.00100 *
 * La       16      0.00153      0.00531     -0.00751 *

 ***************** Stress Tensor *****************
 *          Cartesian components (GPa)           *
 *             x             y             z     *
 *  x      0.050180      0.017977     -0.003561  *
 *  y      0.017977     -0.014055     -0.017552  *
 *  z     -0.003561     -0.017552      0.069429  *
 *  Pressure:   -0.0352                          *

[...]

 Pseudo atomic calculation performed for Sn 4d10 5s2 5p2

[...]

 Pseudo atomic calculation performed for La 5s2 5p6 5d1 6s2

 Converged in 34 iterations to a total energy of -968.0371 eV

Charge spilling parameter for spin component 1 = 0.25%

     Atomic Populations (Mulliken)
Species   Ion     s      p      d      f     Total  Charge (e)
  O        1     1.87   5.00   0.00   0.00   6.87    -0.87
  O        2     1.87   5.00   0.00   0.00   6.87    -0.87
  O        3     1.87   5.00   0.00   0.00   6.87    -0.87
  O        4     1.87   5.00   0.00   0.00   6.87    -0.87
  O        5     1.87   5.00   0.00   0.00   6.87    -0.87
  O        6     1.87   5.00   0.00   0.00   6.87    -0.87
  O        7     1.87   5.00   0.00   0.00   6.87    -0.87
  O        8     1.87   5.00   0.00   0.00   6.87    -0.87
  O        9     1.88   5.03   0.00   0.00   6.91    -0.91
  O       10     1.87   4.99   0.00   0.00   6.86    -0.86
  O       11     1.88   5.03   0.00   0.00   6.91    -0.91
  O       12     1.88   5.03   0.00   0.00   6.91    -0.91
  O       13     1.88   5.03   0.00   0.00   6.91    -0.91
  O       14     1.87   4.99   0.00   0.00   6.86    -0.86
  O       15     1.88   5.03   0.00   0.00   6.91    -0.91
  O       16     1.88   5.03   0.00   0.00   6.91    -0.91
  O       17     1.87   4.99   0.00   0.00   6.86    -0.86
  O       18     1.88   5.03   0.00   0.00   6.91    -0.91
  O       19     1.88   5.03   0.00   0.00   6.91    -0.91
  O       20     1.87   4.99   0.00   0.00   6.86    -0.86
  O       21     1.88   5.03   0.00   0.00   6.91    -0.91
  O       22     1.88   5.03   0.00   0.00   6.91    -0.91
  O       23     1.88   5.03   0.00   0.00   6.91    -0.91
  O       24     1.87   4.99   0.00   0.00   6.86    -0.86
  O       25     1.87   4.99   0.00   0.00   6.86    -0.86
  O       26     1.88   5.03   0.00   0.00   6.91    -0.91
  O       27     1.88   5.03   0.00   0.00   6.91    -0.91
  O       28     1.87   4.99   0.00   0.00   6.86    -0.86
  O       29     1.87   4.99   0.00   0.00   6.86    -0.86
  O       30     1.88   5.03   0.00   0.00   6.91    -0.91
  O       31     1.88   5.03   0.00   0.00   6.91    -0.91
  O       32     1.88   5.03   0.00   0.00   6.91    -0.91
  O       33     1.87   4.99   0.00   0.00   6.86    -0.86
  O       34     1.88   5.03   0.00   0.00   6.91    -0.91
  O       35     1.87   4.99   0.00   0.00   6.86    -0.86
  O       36     1.87   4.99   0.00   0.00   6.86    -0.86
  O       37     1.88   5.03   0.00   0.00   6.91    -0.91
  O       38     1.87   4.99   0.00   0.00   6.86    -0.86
  O       39     1.87   4.99   0.00   0.00   6.86    -0.86
  O       40     1.87   4.99   0.00   0.00   6.86    -0.86
  O       41     1.88   5.03   0.00   0.00   6.91    -0.91
  O       42     1.87   4.99   0.00   0.00   6.86    -0.86
  O       43     1.87   4.99   0.00   0.00   6.86    -0.86
  O       44     1.87   4.99   0.00   0.00   6.86    -0.86
  O       45     1.87   4.99   0.00   0.00   6.86    -0.86
  O       46     1.86   4.95   0.00   0.00   6.80    -0.80
  O       47     1.88   5.03   0.00   0.00   6.91    -0.91
  O       48     1.87   4.99   0.00   0.00   6.86    -0.86
  O       49     1.87   4.99   0.00   0.00   6.86    -0.86
  O       50     1.87   4.99   0.00   0.00   6.86    -0.86
  O       51     1.87   4.99   0.00   0.00   6.86    -0.86
  O       52     1.87   4.99   0.00   0.00   6.86    -0.86
  O       53     1.87   4.99   0.00   0.00   6.86    -0.86
  O       54     1.86   4.95   0.00   0.00   6.80    -0.80
  O       55     1.87   4.99   0.00   0.00   6.86    -0.86
  O       56     1.87   4.99   0.00   0.00   6.86    -0.86
  Zr       1     2.37   6.49   1.92   0.00  10.78     1.22
  Zr       2     2.37   6.50   1.92   0.00  10.78     1.22
  Zr       3     2.37   6.49   1.92   0.00  10.78     1.22
  Zr       4     2.36   6.49   1.92   0.00  10.77     1.23
[...]
  La       2     2.09   6.18   1.19   0.00   9.46     1.54
  La       3     2.05   6.17   1.20   0.00   9.42     1.58
  La       4     2.02   6.17   1.19   0.00   9.39     1.61
  La       5     2.11   6.19   1.19   0.00   9.49     1.51
  La       6     2.05   6.18   1.19   0.00   9.43     1.57
  La       7     2.03   6.17   1.20   0.00   9.40     1.60
  La       8     2.08   6.20   1.19   0.00   9.47     1.53
  La       9     2.11   6.19   1.19   0.00   9.49     1.51
  La      10     2.06   6.18   1.20   0.00   9.43     1.57
  La      11     2.12   6.20   1.19   0.00   9.51     1.49
  La      12     2.08   6.20   1.19   0.00   9.47     1.53
  La      13     2.05   6.18   1.19   0.00   9.43     1.57
  La      14     2.08   6.20   1.19   0.00   9.47     1.53
  La      15     2.03   6.17   1.20   0.00   9.40     1.60
  La      16     2.06   6.18   1.20   0.00   9.43     1.57

            Bond              Population      Length (A)
         O 45 -- Sn 10             0.34        2.10291
         O 53 -- Sn 3              0.34        2.10294
         O 39 -- Sn 1              0.35        2.10413
         O 49 -- Sn 1              0.35        2.10435
         O 56 -- Sn 5              0.34        2.10441
         O 36 -- Sn 11             0.34        2.10454
         O 29 -- Sn 8              0.35        2.10474
         O 10 -- Sn 2              0.35        2.10478
         O 42 -- Sn 7              0.34        2.10512
         O 38 -- Sn 4              0.34        2.10526
         O 48 -- Sn 6              0.34        2.10572
         O 33 -- Sn 6              0.34        2.10584
         O 44 -- Sn 9              0.34        2.10589
         O 52 -- Sn 9              0.34        2.10598
         O 43 -- Sn 8              0.35        2.10608
         O 14 -- Sn 9              0.34        2.10627
         O 51 -- Sn 2              0.35        2.10645
         O 18 -- Sn 3              0.34        2.10648
         O 24 -- Sn 9              0.34        2.10648
         O 27 -- Sn 10             0.34        2.10655
         O 50 -- Sn 7              0.34        2.10756
         O 40 -- Sn 4              0.34        2.10764
         O 20 -- Sn 4              0.35        2.10803
         O 25 -- Sn 7              0.35        2.10823
         O 17 -- Sn 11             0.34        2.10826
         O 28 -- Sn 5              0.34        2.10834
         O 13 -- Sn 7              0.34        2.10908
         O 23 -- Sn 4              0.34        2.10928
         O 55 -- Sn 3              0.34        2.10972
         O 35 -- Sn 10             0.34        2.10978
         O 16 -- Sn 11             0.34        2.11056
         O 9  -- Sn 9              0.34        2.11083
         O 22 -- Sn 5              0.34        2.11087
         O 30 -- Sn 9              0.34        2.11103
         O 19 -- Sn 5              0.33        2.11187
         O 26 -- Sn 11             0.33        2.11190
         O 31 -- Sn 2              0.33        2.11191
         O 12 -- Sn 8              0.33        2.11197
         O 34 -- Sn 8              0.33        2.11200
         O 47 -- Sn 2              0.33        2.11205
         O 41 -- Sn 11             0.33        2.11227
         O 18 -- Sn 7              0.33        2.11227
         O 37 -- Sn 5              0.33        2.11233
         O 27 -- Sn 4              0.33        2.11239
         O 23 -- Sn 2              0.33        2.11313
         O 13 -- Sn 8              0.33        2.11324
         O 19 -- Sn 10             0.33        2.11331
         O 26 -- Sn 3              0.33        2.11335
         O 47 -- Sn 1              0.33        2.11340
         O 34 -- Sn 1              0.33        2.11341
         O 37 -- Sn 1              0.33        2.11342
         O 41 -- Sn 1              0.33        2.11351
         O 12 -- Sn 3              0.33        2.11380
         O 31 -- Sn 10             0.33        2.11381
         O 30 -- Sn 7              0.33        2.11382
         O 9  -- Sn 4              0.33        2.11397
         O 32 -- Sn 6              0.34        2.11398
         O 11 -- Sn 6              0.34        2.11410
         O 15 -- Sn 10             0.34        2.11424
         O 21 -- Sn 3              0.34        2.11426
[...]
         O 14 -- O 28             -0.03        2.82451
         O 39 -- O 54             -0.03        2.82512
         O 46 -- O 49             -0.03        2.82568
         O 38 -- O 42             -0.03        2.82779
         O 35 -- O 43             -0.03        2.82974
         O 14 -- O 29             -0.03        2.82996
         O 51 -- O 55             -0.03        2.83021
         O 10 -- O 24             -0.03        2.83040
         O 43 -- O 51             -0.03        2.83062
         O 20 -- O 28             -0.03        2.83083
         O 17 -- O 25             -0.03        2.83100
         O 20 -- O 49             -0.03        2.83120
         O 25 -- O 39             -0.03        2.83170
         O 48 -- O 50             -0.03        2.83173
         O 33 -- O 40             -0.03        2.83190

Writing analysis data to Zr5_5.castep_bin

Writing model to Zr5_5.check

 A BibTeX formatted list of references used in this run has been written to
 Zr5_5.bib

Initialisation time =     46.36 s
Calculation time    =   9844.15 s
Finalisation time   =     26.54 s
Total time          =   9917.05 s

Overall parallel efficiency rating: Good (78%)

Data was distributed by:-
G-vector (13-way); efficiency rating: Very good (82%)
k-point (14-way); efficiency rating: Excellent (94%)