 Compiled for linux_x86_64_ifort2021 on Fri, 04 Feb 2022 13:31:17 +0000
 from code version
 203e84763863+ Castep161_branch Fri, 04 Mar 2016 19:21:07 +0000
 Compiler: Intel Fortran 2021.5.0; Optimisation: intermediate
 MATHLIBS: Intel MKL(2022.0-Product) (LAPACK version 3.9.0)
 FFT Lib : fftw3 version fftw-3.3.10
 Fundamental constants values: CODATA 2010

 Run started: Mon, 11 Apr 2022 14:35:31 +0100
 |           N   N    M   M    RRRR                |
 |           NN  N    MM MM    R   R               |
 |           N N N    M M M    RRRR                |
 |           N  NN    M   M    R  R                |
 |           N   N    M   M    R   R               |
 | Welcome to Materials Studio CASTEP-NMR          |
 | Authors:                                        |
 | J.R. Yates, C.J. Pickard, F. Mauri              |
 | Contributors:                                   |
 | T.F.G. Green, S.A. Joyce                        |
 | Copyright (c) 2004 - 2015                       |
 | Please cite the appropriate publications in all |
 | work arising from your use of CASTEP NMR.       |
 | For NMR Shielding Tensors cite:                 |
 |    "All-electron magnetic response with         |
 |    pseudopotentials: NMR chemical shifts",      |
 |    C. J. Pickard, F. Mauri;                     |
 |    Physical Review B63 245101 (2001), and       |
 |    "Calculation of NMR Chemical Shifts          |
 |    for extended systems using                   |
 |    Ultrasoft Pseudopotentials",                 |
 |    J. R. Yates, C. J. Pickard and F. Mauri      |
 |    Physical Review B76 024401 (2007)            |
 | For Electric Field Gradients cite:              |
 |   "Accurate First Principles Prediction of 17O  |
 |    NMR Parameters in SiO2: Assignment of the    |
 |    Zeolite Ferrierite Spectrum"                 |
 |    M. Profeta, F. Mauri and C. J. Pickard       |
 |    J. Amer. Chem. Soc. 125 541 (2003)           |
 | For Spin-Spin (J) Couplings cite:               |
 |   "A first principles theory of NMR J-coupling  |
 |   in solid-state systems"                       |
 |   S.A. Joyce, J.R. Yates, C.J. Pickard, F. Mauri|
 |   J. Chem. Phys. 127 204107 (2007)              |
 |   "Relativistic NMR J-coupling with ultrasoft   |
 |   pseudopotentials and the zeroth-order regular |
 |   approximation"                                |
 |   T.F.G. Green and J.R. Yates                   |
 |   J. Chem. Phys. 140 234106 (2014)              |

 Atomic calculation performed for O: 1s2 2s2 2p4

 Converged in 44 iterations to an ae energy of -2040.855 eV

 Atomic calculation performed for O: 1s2 2s2 2p4

 Exceeded max iterations: converged to 0.000000062 eV

   | Pseudopotential Report - Date of generation 11-04-2022   |
   | Element: O Ionic charge:  6.00 Level of theory: PBE      |
   | Atomic Solver: ZORA (scalar)                             |
   |               Reference Electronic Structure             |
   |         Orbital         Occupation         Energy        |
   |            2s              2.000           -0.881        |
   |            2p              4.000           -0.332        |
   |                 Pseudopotential Definition               |
   |        Beta     l      e      Rc     scheme   norm       |
   |          1      0   -0.881   1.100     qc      0         |
   |          2      0    0.250   1.100     qc      0         |
   |          3      1   -0.332   1.100     qc      0         |
   |          4      1    0.250   1.100     qc      0         |
   |         loc     2    0.000   1.100     pn      0         |
   | Augmentation charge Rinner = 0.769                       |
   | Partial core correction Rc = 0.769                       |
   | "2|1.1|15|18|20|20:21(qc=7)"                             |
   |      Author: Chris J. Pickard, Cambridge University      |

 Atomic calculation performed for Zr: 1s2 2s2 2p6 3s2 3p6 3d10 4s2 4p6 4d2 5s2

[...]

 Atomic calculation performed for Zr: 1s2 2s2 2p6 3s2 3p6 3d10 4s2 4p6 4d2 5s2

[...]

 Warning: ion_atom_descreen_psp: negative charge density encountered
   | Pseudopotential Report - Date of generation 11-04-2022   |
   | Element: Zr Ionic charge: 12.00 Level of theory: PBE     |
   | Atomic Solver: ZORA (scalar)                             |
   |               Reference Electronic Structure             |
   |         Orbital         Occupation         Energy        |
   |            4s              2.000           -2.003        |
   |            4p              6.000           -1.193        |
   |            5s              2.000           -0.163        |
   |            4d              2.000           -0.132        |
   |                 Pseudopotential Definition               |
   |        Beta     l      e      Rc     scheme   norm       |
   |          1      0   -2.003   2.105     qc      0         |
   |          2      0   -0.163   2.105     qc      0         |
   |          3      0    0.250   2.105     qc      0         |
   |          4      1   -1.193   2.105     qc      0         |
   |          5      1    0.250   2.105     qc      0         |
   |          6      2   -0.132   2.105     qc      0         |
   |          7      2    0.250   2.105     qc      0         |
   |         loc     3    0.000   2.105     pn      0         |
   | Augmentation charge Rinner = 1.471                       |
   | Partial core correction Rc = 1.471                       |
   | "3|2.1|7|8|9|40U:50:41:42"                               |
   |      Author: Chris J. Pickard, Cambridge University      |

 Atomic calculation performed for Sn:

[...]

 Atomic calculation performed for Sn:

[...]

   | Pseudopotential Report - Date of generation 11-04-2022   |
   | Element: Sn Ionic charge: 14.00 Level of theory: PBE     |
   | Atomic Solver: ZORA (scalar)                             |
   |               Reference Electronic Structure             |
   |         Orbital         Occupation         Energy        |
   |            4d             10.000           -0.950        |
   |            5s              2.000           -0.388        |
   |            5p              2.000           -0.136        |
   |                 Pseudopotential Definition               |
   |        Beta     l      e      Rc     scheme   norm       |
   |          1      0   -0.388   2.199     qc      0         |
   |          2      0    0.250   2.199     qc      0         |
   |          3      1   -0.136   2.199     qc      0         |
   |          4      1    0.250   2.199     qc      0         |
   |          5      2   -0.950   2.199     qc      0         |
   |          6      2    0.250   2.199     qc      0         |
   |         loc     3    0.000   2.199     pn      0         |
   | Augmentation charge Rinner = 1.537                       |
   | Partial core correction Rc = 1.537                       |
   | "3|2.2|7|8|9|50:51:42"                                   |
   |      Author: Chris J. Pickard, Cambridge University      |

 Atomic calculation performed for La:

 Converged in 55 iterations to an ae energy of -230121.495 eV

 Atomic calculation performed for La:

 Exceeded max iterations: converged to 0.000001291 eV

 Warning: ion_atom_descreen_psp: negative charge density encountered
   | Pseudopotential Report - Date of generation 11-04-2022   |
   | Element: La Ionic charge: 11.00 Level of theory: PBE     |
   | Atomic Solver: ZORA (scalar)                             |
   |               Reference Electronic Structure             |
   |         Orbital         Occupation         Energy        |
   |            5s              2.000           -1.430        |
   |            5p              6.000           -0.823        |
   |            6s              2.000           -0.135        |
   |            5d              1.000           -0.114        |
   |                 Pseudopotential Definition               |
   |        Beta     l      e      Rc     scheme   norm       |
   |          1      0   -1.430   2.298     qc      0         |
   |          2      0   -0.135   2.298     qc      0         |
   |          3      0    0.250   2.298     qc      0         |
   |          4      1   -0.823   2.298     qc      0         |
   |          5      1    0.250   2.298     qc      0         |
   |          6      2   -0.114   2.298     qc      0         |
   |          7      2    0.250   2.298     qc      0         |
   |         loc     2    0.000   2.298     pn      0         |
   | Augmentation charge Rinner = 1.606                       |
   | Partial core correction Rc = 1.606                       |
   | "2|2.3|5|6|7|50U:60:51:52(qc=4.5)"                       |
   |      Author: Chris J. Pickard, Cambridge University      |

 Pseudo atomic calculation performed for O 2s2 2p4

 Converged in 39 iterations to a total energy of -432.6554 eV

 Pseudo atomic calculation performed for Zr 4s2 4p6 4d2 5s2

[...]

 Calculation parallelised over 182 processes.
 Data is distributed by G-vector(13-way) and k-point(14-way)

 ************************************ Title ************************************
 nmr testing

 ***************************** General Parameters ******************************

 output verbosity                               : normal  (1)
 write checkpoint data to                       : Zr5_6.check
 type of calculation                            : Magnetic Resonance
 stress calculation                             : on
 density difference calculation                 : off
 electron localisation func (ELF) calculation   : off
 Hirshfeld analysis                             : off
 unlimited duration calculation
 timing information                             : on
 write final potential to formatted file        : off
 write final density to formatted file          : off
 write BibTeX reference list                    : on
 write OTFG pseudopotential files               : on
 checkpoint writing                             : both castep_bin and check files

 output         length unit                     : A
 output           mass unit                     : amu
 output           time unit                     : ps
 output         charge unit                     : e
 output           spin unit                     : hbar/2
 output         energy unit                     : eV
 output          force unit                     : eV/A
 output       velocity unit                     : A/ps
 output       pressure unit                     : GPa
 output     inv_length unit                     : 1/A
 output      frequency unit                     : cm-1
 output force constant unit                     : eV/A**2
 output         volume unit                     : A**3
 output   IR intensity unit                     : (D/A)**2/amu
 output         dipole unit                     : D
 output         efield unit                     : eV/A/e
 output        entropy unit                     : J/mol/K

 wavefunctions paging                           : none
 random number generator seed                   : randomised (143531950)
 data distribution                              : optimal for this architecture
[...]
  |    O          42      -91.66      84.45      0.17  -3.151E+00   0.07 |
  |    O          43      -87.43      85.30      0.19  -3.194E+00   0.07 |
  |    O          44      -85.43      85.82      0.31  -3.167E+00   0.06 |
  |    O          45      -84.89      87.62      0.29  -3.189E+00   0.06 |
  |    O          46     -160.43     149.51      0.83   1.087E+00   0.60 |
  |    O          47      -16.39     -40.09      0.85   3.890E+00   0.89 |
  |    O          48      -87.82      83.19      0.13  -3.153E+00   0.07 |
  |    O          49      -85.65      88.65      0.20  -3.201E+00   0.06 |
  |    O          50      -87.55      84.07      0.22  -3.168E+00   0.07 |
  |    O          51      -89.41      84.61      0.07  -3.163E+00   0.05 |
  |    O          52      -91.24      95.08      0.24  -3.222E+00   0.09 |
  |    O          53      -89.04      87.79      0.07  -3.198E+00   0.07 |
  |    O          54      -88.03      83.76      0.11  -3.217E+00   0.07 |
  |    O          55      -87.79      86.75      0.21  -3.177E+00   0.05 |
  |    O          56     -161.74     154.78      0.83   1.053E+00   0.69 |
  |    Zr          1     1610.82    -117.79      0.12  -3.542E+01   0.12 |
  |    Zr          2     1596.05    -110.97      0.08  -3.471E+01   0.08 |
  |    Zr          3     1609.54    -117.04      0.11  -3.522E+01   0.08 |
  |    Zr          4     1625.99    -122.41      0.16  -3.581E+01   0.19 |
[...]
  |    La          2     4650.77     655.43      0.09  -8.227E+01   0.15 |
  |    La          3     4602.10     517.64      0.07  -7.916E+01   0.08 |
  |    La          4     4657.09     646.38      0.00  -8.451E+01   0.01 |
  |    La          5     4554.33     386.04      0.05  -7.647E+01   0.10 |
  |    La          6     4596.90     522.87      0.09  -7.805E+01   0.10 |
  |    La          7     4655.04     631.15      0.00  -8.413E+01   0.01 |
  |    La          8     4554.75     384.55      0.05  -7.620E+01   0.11 |
  |    La          9     4598.26     548.64      0.09  -7.830E+01   0.19 |
  |    La         10     4552.77     381.99      0.06  -7.613E+01   0.08 |
  |    La         11     4493.41     239.54      0.02  -7.222E+01   0.03 |
  |    La         12     4545.16     388.58      0.08  -7.507E+01   0.11 |
  |    La         13     4554.55     384.13      0.06  -7.611E+01   0.09 |
  |    La         14     4610.72     519.79      0.06  -8.157E+01   0.10 |
  |    La         15     4608.98     510.15      0.07  -8.137E+01   0.09 |
  |    La         16     4653.12     660.93      0.08  -8.201E+01   0.14 |

 *********************** Forces ***********************
 *            Cartesian components (eV/A)             *
 *                   x            y            z      *
 * O         1     -0.00556     -0.00731     -0.00461 *
 * O         2     -0.00052     -0.00646     -0.00119 *
 * O         3     -0.00703     -0.01083      0.00394 *
 * O         4     -0.00366     -0.00902     -0.00187 *
 * O         5     -0.00598      0.00846     -0.00016 *
 * O         6     -0.00140      0.00461      0.00392 *
 * O         7      0.00841      0.01161      0.00195 *
 * O         8      0.01388      0.00348     -0.00418 *
 * O         9     -0.01955      0.00877     -0.00620 *
 * O        10      0.01101     -0.00141     -0.01303 *
 * O        11     -0.00488      0.01142     -0.00791 *
 * O        12      0.00787     -0.01037      0.00839 *
 * O        13      0.00726     -0.01734     -0.00325 *
 * O        14     -0.00876     -0.02272      0.00101 *
 * O        15      0.01393      0.02645     -0.00122 *
 * O        16      0.01021     -0.00848     -0.00137 *
 * O        17      0.00957     -0.00250     -0.00784 *
 * O        18     -0.00568     -0.01205      0.01508 *
 * O        19      0.01268      0.02223     -0.02451 *
 * O        20      0.00745     -0.00120      0.01262 *
 * O        21     -0.00586     -0.00695      0.00917 *
 * O        22      0.00048     -0.01620      0.01149 *
 * O        23     -0.01001      0.01489      0.00210 *
 * O        24     -0.01214     -0.01368     -0.00518 *
 * O        25     -0.02960     -0.00509      0.00299 *
 * O        26      0.00743     -0.01107      0.00706 *
 * O        27     -0.00618      0.01480     -0.00569 *
 * O        28     -0.00947      0.01032      0.00640 *
 * O        29     -0.00744      0.00296     -0.01251 *
 * O        30     -0.01970     -0.01260     -0.00506 *
 * O        31      0.00579      0.01443     -0.01501 *
 * O        32     -0.00826      0.00257      0.01859 *
 * O        33      0.01130     -0.00131      0.01845 *
 * O        34      0.01780     -0.00835      0.00675 *
 * O        35      0.00812      0.02648     -0.00642 *
 * O        36     -0.00267     -0.01709      0.00644 *
 * O        37      0.01543      0.00603      0.01625 *
 * O        38     -0.00538      0.01052     -0.01587 *
 * O        39      0.00474     -0.00087     -0.00477 *
 * O        40      0.00219      0.01775     -0.00988 *
 * O        41      0.01653     -0.00490      0.01001 *
 * O        42     -0.01555     -0.01481     -0.00141 *
 * O        43      0.00390     -0.01209      0.01476 *
 * O        44     -0.02187     -0.00230     -0.01882 *
 * O        45      0.02271      0.02520      0.00158 *
 * O        46      0.01424      0.00478     -0.00205 *
 * O        47      0.01646      0.01274     -0.00457 *
 * O        48      0.01989      0.00759      0.01512 *
 * O        49     -0.00241      0.01784     -0.01132 *
 * O        50     -0.01762     -0.01855     -0.00230 *
 * O        51      0.00860      0.00308     -0.00648 *
 * O        52     -0.03377     -0.00162     -0.01869 *
 * O        53     -0.00939     -0.02045      0.02418 *
 * O        54     -0.01473     -0.00049     -0.01708 *
 * O        55      0.00047     -0.01945      0.01806 *
 * O        56      0.01145     -0.00240     -0.00093 *
 * Zr        1      0.00453     -0.00950      0.00426 *
 * Zr        2      0.00209     -0.00318     -0.00023 *
 * Zr        3      0.00629      0.00047     -0.00166 *
 * Zr        4     -0.00365      0.00520     -0.00286 *
[...]
 * La        2      0.00155     -0.00225      0.00106 *
 * La        3     -0.00356     -0.00272     -0.00014 *
 * La        4     -0.00022     -0.00089     -0.00219 *
 * La        5     -0.00394      0.00159     -0.00185 *
 * La        6     -0.00066      0.00409      0.00091 *
 * La        7     -0.01083     -0.00306     -0.00556 *
 * La        8      0.00489     -0.00206     -0.00220 *
 * La        9      0.00264      0.00072      0.00534 *
 * La       10     -0.00395     -0.00216      0.00308 *
 * La       11     -0.00239     -0.00153     -0.00322 *
 * La       12      0.00605     -0.00358     -0.00502 *
 * La       13     -0.00296     -0.00190     -0.00034 *
 * La       14      0.00363      0.00620     -0.00220 *
 * La       15      0.00705     -0.00364      0.00632 *
 * La       16     -0.00637      0.00306      0.00223 *

 ***************** Stress Tensor *****************
 *          Cartesian components (GPa)           *
 *             x             y             z     *
 *  x      0.034516      0.019095      0.062849  *
 *  y      0.019095     -0.003188     -0.001105  *
 *  z      0.062849     -0.001105     -0.038477  *
 *  Pressure:    0.0024                          *

[...]

 Pseudo atomic calculation performed for Sn 4d10 5s2 5p2

[...]

 Pseudo atomic calculation performed for La 5s2 5p6 5d1 6s2

 Converged in 34 iterations to a total energy of -968.0371 eV

Charge spilling parameter for spin component 1 = 0.26%

     Atomic Populations (Mulliken)
Species   Ion     s      p      d      f     Total  Charge (e)
  O        1     1.87   5.00   0.00   0.00   6.87    -0.87
  O        2     1.87   5.00   0.00   0.00   6.87    -0.87
  O        3     1.87   5.00   0.00   0.00   6.87    -0.87
  O        4     1.87   5.00   0.00   0.00   6.87    -0.87
  O        5     1.87   5.00   0.00   0.00   6.87    -0.87
  O        6     1.87   5.00   0.00   0.00   6.87    -0.87
  O        7     1.87   5.00   0.00   0.00   6.87    -0.87
  O        8     1.87   5.00   0.00   0.00   6.87    -0.87
  O        9     1.88   5.03   0.00   0.00   6.91    -0.91
  O       10     1.88   5.03   0.00   0.00   6.91    -0.91
  O       11     1.87   4.99   0.00   0.00   6.86    -0.86
  O       12     1.88   5.03   0.00   0.00   6.91    -0.91
  O       13     1.88   5.03   0.00   0.00   6.91    -0.91
  O       14     1.87   4.99   0.00   0.00   6.86    -0.86
  O       15     1.88   5.03   0.00   0.00   6.91    -0.91
  O       16     1.88   5.03   0.00   0.00   6.91    -0.91
  O       17     1.88   5.03   0.00   0.00   6.91    -0.91
  O       18     1.88   5.03   0.00   0.00   6.91    -0.91
  O       19     1.87   4.99   0.00   0.00   6.86    -0.86
  O       20     1.87   4.99   0.00   0.00   6.86    -0.86
  O       21     1.88   5.03   0.00   0.00   6.91    -0.91
  O       22     1.87   4.99   0.00   0.00   6.86    -0.86
  O       23     1.88   5.03   0.00   0.00   6.91    -0.91
  O       24     1.88   5.03   0.00   0.00   6.91    -0.91
  O       25     1.88   5.03   0.00   0.00   6.91    -0.91
  O       26     1.88   5.03   0.00   0.00   6.91    -0.91
  O       27     1.88   5.03   0.00   0.00   6.91    -0.91
  O       28     1.86   4.95   0.00   0.00   6.80    -0.80
  O       29     1.87   4.99   0.00   0.00   6.86    -0.86
  O       30     1.88   5.03   0.00   0.00   6.91    -0.91
  O       31     1.88   5.03   0.00   0.00   6.91    -0.91
  O       32     1.88   5.03   0.00   0.00   6.91    -0.91
  O       33     1.87   4.99   0.00   0.00   6.86    -0.86
  O       34     1.88   5.03   0.00   0.00   6.91    -0.91
  O       35     1.87   4.99   0.00   0.00   6.86    -0.86
  O       36     1.87   4.99   0.00   0.00   6.86    -0.86
  O       37     1.87   4.99   0.00   0.00   6.86    -0.86
  O       38     1.87   4.99   0.00   0.00   6.86    -0.86
  O       39     1.88   5.03   0.00   0.00   6.91    -0.91
  O       40     1.87   4.99   0.00   0.00   6.86    -0.86
  O       41     1.88   5.03   0.00   0.00   6.91    -0.91
  O       42     1.87   4.99   0.00   0.00   6.86    -0.86
  O       43     1.87   4.99   0.00   0.00   6.86    -0.86
  O       44     1.87   4.99   0.00   0.00   6.86    -0.86
  O       45     1.87   4.99   0.00   0.00   6.86    -0.86
  O       46     1.86   4.95   0.00   0.00   6.80    -0.80
  O       47     1.88   5.03   0.00   0.00   6.91    -0.91
  O       48     1.87   4.99   0.00   0.00   6.86    -0.86
  O       49     1.87   4.99   0.00   0.00   6.86    -0.86
  O       50     1.87   4.99   0.00   0.00   6.86    -0.86
  O       51     1.87   4.99   0.00   0.00   6.86    -0.86
  O       52     1.87   4.99   0.00   0.00   6.86    -0.86
  O       53     1.87   4.99   0.00   0.00   6.86    -0.86
  O       54     1.87   4.99   0.00   0.00   6.86    -0.86
  O       55     1.87   4.99   0.00   0.00   6.86    -0.86
  O       56     1.86   4.95   0.00   0.00   6.80    -0.80
  Zr       1     2.37   6.49   1.92   0.00  10.78     1.22
  Zr       2     2.37   6.50   1.92   0.00  10.78     1.22
  Zr       3     2.37   6.49   1.92   0.00  10.77     1.23
  Zr       4     2.36   6.48   1.92   0.00  10.77     1.23
[...]
  La       2     2.06   6.17   1.20   0.00   9.42     1.58
  La       3     2.08   6.18   1.19   0.00   9.45     1.55
  La       4     2.02   6.17   1.20   0.00   9.39     1.61
  La       5     2.10   6.19   1.19   0.00   9.49     1.51
  La       6     2.06   6.18   1.20   0.00   9.44     1.56
  La       7     2.03   6.18   1.19   0.00   9.40     1.60
  La       8     2.08   6.19   1.19   0.00   9.47     1.53
  La       9     2.07   6.17   1.20   0.00   9.44     1.56
  La      10     2.10   6.19   1.19   0.00   9.49     1.51
  La      11     2.12   6.20   1.19   0.00   9.51     1.49
  La      12     2.09   6.19   1.19   0.00   9.48     1.52
  La      13     2.08   6.20   1.19   0.00   9.47     1.53
  La      14     2.05   6.19   1.19   0.00   9.43     1.57
  La      15     2.06   6.19   1.19   0.00   9.44     1.56
  La      16     2.04   6.17   1.20   0.00   9.40     1.60

            Bond              Population      Length (A)
         O 33 -- Sn 6              0.35        2.10109
         O 38 -- Sn 4              0.35        2.10228
         O 52 -- Sn 9              0.34        2.10245
         O 43 -- Sn 8              0.35        2.10245
         O 20 -- Sn 4              0.35        2.10390
         O 29 -- Sn 8              0.35        2.10399
         O 50 -- Sn 7              0.34        2.10413
         O 11 -- Sn 6              0.35        2.10436
         O 53 -- Sn 3              0.34        2.10513
         O 27 -- Sn 10             0.34        2.10527
         O 35 -- Sn 10             0.34        2.10549
         O 41 -- Sn 11             0.34        2.10563
         O 54 -- Sn 5              0.35        2.10564
         O 55 -- Sn 3              0.34        2.10577
         O 45 -- Sn 10             0.34        2.10612
         O 36 -- Sn 11             0.34        2.10676
         O 14 -- Sn 9              0.34        2.10709
         O 19 -- Sn 10             0.34        2.10731
         O 22 -- Sn 8              0.34        2.10743
         O 49 -- Sn 1              0.34        2.10750
         O 37 -- Sn 1              0.34        2.10766
         O 42 -- Sn 7              0.34        2.10796
         O 39 -- Sn 1              0.34        2.10812
         O 39 -- Sn 5              0.33        2.10820
         O 21 -- Sn 3              0.34        2.10830
         O 51 -- Sn 2              0.34        2.10832
         O 44 -- Sn 9              0.34        2.10837
         O 47 -- Sn 2              0.33        2.10840
         O 47 -- Sn 1              0.34        2.10873
         O 27 -- Sn 4              0.33        2.10930
         O 48 -- Sn 6              0.34        2.10930
         O 40 -- Sn 4              0.34        2.10931
         O 17 -- Sn 5              0.34        2.10974
         O 10 -- Sn 2              0.34        2.11016
         O 16 -- Sn 11             0.34        2.11022
         O 41 -- Sn 1              0.33        2.11033
         O 12 -- Sn 8              0.33        2.11060
         O 30 -- Sn 9              0.34        2.11074
         O 12 -- Sn 3              0.33        2.11079
         O 13 -- Sn 7              0.34        2.11093
         O 30 -- Sn 7              0.33        2.11137
         O 28 -- Zr 4              0.41        2.11168
         O 24 -- Sn 5              0.34        2.11205
         O 31 -- Sn 2              0.34        2.11230
         O 28 -- Zr 5              0.41        2.11231
         O 46 -- Zr 3              0.42        2.11248
         O 18 -- Sn 3              0.34        2.11257
         O 21 -- Sn 6              0.33        2.11276
         O 26 -- Sn 11             0.34        2.11280
         O 32 -- Sn 6              0.34        2.11294
         O 24 -- Sn 9              0.34        2.11311
         O 56 -- Zr 1              0.42        2.11315
         O 13 -- Sn 8              0.33        2.11334
         O 31 -- Sn 10             0.33        2.11350
         O 9  -- Sn 9              0.34        2.11378
         O 16 -- Sn 2              0.33        2.11382
         O 18 -- Sn 7              0.33        2.11395
         O 23 -- Sn 4              0.34        2.11412
         O 46 -- Zr 4              0.41        2.11442
         O 56 -- Zr 5              0.42        2.11451
[...]
         O 54 -- O 56             -0.03        2.82538
         O 46 -- O 49             -0.03        2.82599
         O 20 -- O 28             -0.03        2.82719
         O 29 -- O 46             -0.03        2.82740
         O 51 -- O 55             -0.03        2.82919
         O 14 -- O 29             -0.03        2.82938
         O 38 -- O 42             -0.03        2.82964
         O 36 -- O 44             -0.03        2.83044
         O 43 -- O 51             -0.03        2.83077
         O 20 -- O 49             -0.03        2.83079
         O 45 -- O 54             -0.03        2.83104
         O 33 -- O 40             -0.03        2.83145
         O 11 -- O 37             -0.03        2.83350
         O 48 -- O 50             -0.03        2.83403
         O 11 -- O 22             -0.03        2.83550

Writing analysis data to Zr5_6.castep_bin

Writing model to Zr5_6.check

 A BibTeX formatted list of references used in this run has been written to
 Zr5_6.bib

Initialisation time =     44.27 s
Calculation time    =   9967.92 s
Finalisation time   =     35.16 s
Total time          =  10047.35 s

Overall parallel efficiency rating: Good (75%)

Data was distributed by:-
G-vector (13-way); efficiency rating: Very good (81%)
k-point (14-way); efficiency rating: Excellent (91%)