 Compiled for linux_x86_64_ifort2021 on Fri, 04 Feb 2022 13:31:17 +0000
 from code version
 203e84763863+ Castep161_branch Fri, 04 Mar 2016 19:21:07 +0000
 Compiler: Intel Fortran 2021.5.0; Optimisation: intermediate
 MATHLIBS: Intel MKL(2022.0-Product) (LAPACK version 3.9.0)
 FFT Lib : fftw3 version fftw-3.3.10
 Fundamental constants values: CODATA 2010

 Run started: Wed, 30 Mar 2022 11:29:11 +0100
 |           N   N    M   M    RRRR                |
 |           NN  N    MM MM    R   R               |
 |           N N N    M M M    RRRR                |
 |           N  NN    M   M    R  R                |
 |           N   N    M   M    R   R               |
 | Welcome to Materials Studio CASTEP-NMR          |
 | Authors:                                        |
 | J.R. Yates, C.J. Pickard, F. Mauri              |
 | Contributors:                                   |
 | T.F.G. Green, S.A. Joyce                        |
 | Copyright (c) 2004 - 2015                       |
 | Please cite the appropriate publications in all |
 | work arising from your use of CASTEP NMR.       |
 | For NMR Shielding Tensors cite:                 |
 |    "All-electron magnetic response with         |
 |    pseudopotentials: NMR chemical shifts",      |
 |    C. J. Pickard, F. Mauri;                     |
 |    Physical Review B63 245101 (2001), and       |
 |    "Calculation of NMR Chemical Shifts          |
 |    for extended systems using                   |
 |    Ultrasoft Pseudopotentials",                 |
 |    J. R. Yates, C. J. Pickard and F. Mauri      |
 |    Physical Review B76 024401 (2007)            |
 | For Electric Field Gradients cite:              |
 |   "Accurate First Principles Prediction of 17O  |
 |    NMR Parameters in SiO2: Assignment of the    |
 |    Zeolite Ferrierite Spectrum"                 |
 |    M. Profeta, F. Mauri and C. J. Pickard       |
 |    J. Amer. Chem. Soc. 125 541 (2003)           |
 | For Spin-Spin (J) Couplings cite:               |
 |   "A first principles theory of NMR J-coupling  |
 |   in solid-state systems"                       |
 |   S.A. Joyce, J.R. Yates, C.J. Pickard, F. Mauri|
 |   J. Chem. Phys. 127 204107 (2007)              |
 |   "Relativistic NMR J-coupling with ultrasoft   |
 |   pseudopotentials and the zeroth-order regular |
 |   approximation"                                |
 |   T.F.G. Green and J.R. Yates                   |
 |   J. Chem. Phys. 140 234106 (2014)              |

 Atomic calculation performed for O: 1s2 2s2 2p4

 Converged in 44 iterations to an ae energy of -2040.855 eV

 Atomic calculation performed for O: 1s2 2s2 2p4

 Exceeded max iterations: converged to 0.000000062 eV

   | Pseudopotential Report - Date of generation 30-03-2022   |
   | Element: O Ionic charge:  6.00 Level of theory: PBE      |
   | Atomic Solver: ZORA (scalar)                             |
   |               Reference Electronic Structure             |
   |         Orbital         Occupation         Energy        |
   |            2s              2.000           -0.881        |
   |            2p              4.000           -0.332        |
   |                 Pseudopotential Definition               |
   |        Beta     l      e      Rc     scheme   norm       |
   |          1      0   -0.881   1.100     qc      0         |
   |          2      0    0.250   1.100     qc      0         |
   |          3      1   -0.332   1.100     qc      0         |
   |          4      1    0.250   1.100     qc      0         |
   |         loc     2    0.000   1.100     pn      0         |
   | Augmentation charge Rinner = 0.769                       |
   | Partial core correction Rc = 0.769                       |
   | "2|1.1|15|18|20|20:21(qc=7)"                             |
   |      Author: Chris J. Pickard, Cambridge University      |

 Atomic calculation performed for Zr: 1s2 2s2 2p6 3s2 3p6 3d10 4s2 4p6 4d2 5s2

[...]

 Atomic calculation performed for Zr: 1s2 2s2 2p6 3s2 3p6 3d10 4s2 4p6 4d2 5s2

[...]

 Warning: ion_atom_descreen_psp: negative charge density encountered
   | Pseudopotential Report - Date of generation 30-03-2022   |
   | Element: Zr Ionic charge: 12.00 Level of theory: PBE     |
   | Atomic Solver: ZORA (scalar)                             |
   |               Reference Electronic Structure             |
   |         Orbital         Occupation         Energy        |
   |            4s              2.000           -2.003        |
   |            4p              6.000           -1.193        |
   |            5s              2.000           -0.163        |
   |            4d              2.000           -0.132        |
   |                 Pseudopotential Definition               |
   |        Beta     l      e      Rc     scheme   norm       |
   |          1      0   -2.003   2.105     qc      0         |
   |          2      0   -0.163   2.105     qc      0         |
   |          3      0    0.250   2.105     qc      0         |
   |          4      1   -1.193   2.105     qc      0         |
   |          5      1    0.250   2.105     qc      0         |
   |          6      2   -0.132   2.105     qc      0         |
   |          7      2    0.250   2.105     qc      0         |
   |         loc     3    0.000   2.105     pn      0         |
   | Augmentation charge Rinner = 1.471                       |
   | Partial core correction Rc = 1.471                       |
   | "3|2.1|7|8|9|40U:50:41:42"                               |
   |      Author: Chris J. Pickard, Cambridge University      |

 Atomic calculation performed for Sn:

[...]

 Atomic calculation performed for Sn:

[...]

   | Pseudopotential Report - Date of generation 30-03-2022   |
   | Element: Sn Ionic charge: 14.00 Level of theory: PBE     |
   | Atomic Solver: ZORA (scalar)                             |
   |               Reference Electronic Structure             |
   |         Orbital         Occupation         Energy        |
   |            4d             10.000           -0.950        |
   |            5s              2.000           -0.388        |
   |            5p              2.000           -0.136        |
   |                 Pseudopotential Definition               |
   |        Beta     l      e      Rc     scheme   norm       |
   |          1      0   -0.388   2.199     qc      0         |
   |          2      0    0.250   2.199     qc      0         |
   |          3      1   -0.136   2.199     qc      0         |
   |          4      1    0.250   2.199     qc      0         |
   |          5      2   -0.950   2.199     qc      0         |
   |          6      2    0.250   2.199     qc      0         |
   |         loc     3    0.000   2.199     pn      0         |
   | Augmentation charge Rinner = 1.537                       |
   | Partial core correction Rc = 1.537                       |
   | "3|2.2|7|8|9|50:51:42"                                   |
   |      Author: Chris J. Pickard, Cambridge University      |

 Atomic calculation performed for La:

 Converged in 55 iterations to an ae energy of -230121.495 eV

 Atomic calculation performed for La:

 Exceeded max iterations: converged to 0.000001291 eV

 Warning: ion_atom_descreen_psp: negative charge density encountered
   | Pseudopotential Report - Date of generation 30-03-2022   |
   | Element: La Ionic charge: 11.00 Level of theory: PBE     |
   | Atomic Solver: ZORA (scalar)                             |
   |               Reference Electronic Structure             |
   |         Orbital         Occupation         Energy        |
   |            5s              2.000           -1.430        |
   |            5p              6.000           -0.823        |
   |            6s              2.000           -0.135        |
   |            5d              1.000           -0.114        |
   |                 Pseudopotential Definition               |
   |        Beta     l      e      Rc     scheme   norm       |
   |          1      0   -1.430   2.298     qc      0         |
   |          2      0   -0.135   2.298     qc      0         |
   |          3      0    0.250   2.298     qc      0         |
   |          4      1   -0.823   2.298     qc      0         |
   |          5      1    0.250   2.298     qc      0         |
   |          6      2   -0.114   2.298     qc      0         |
   |          7      2    0.250   2.298     qc      0         |
   |         loc     2    0.000   2.298     pn      0         |
   | Augmentation charge Rinner = 1.606                       |
   | Partial core correction Rc = 1.606                       |
   | "2|2.3|5|6|7|50U:60:51:52(qc=4.5)"                       |
   |      Author: Chris J. Pickard, Cambridge University      |

 Pseudo atomic calculation performed for O 2s2 2p4

 Converged in 39 iterations to a total energy of -432.6554 eV

 Pseudo atomic calculation performed for Zr 4s2 4p6 4d2 5s2

[...]

 Calculation parallelised over 182 processes.
 Data is distributed by G-vector(13-way) and k-point(14-way)

 ************************************ Title ************************************
 nmr testing

 ***************************** General Parameters ******************************

 output verbosity                               : normal  (1)
 write checkpoint data to                       : Zr5_8.check
 type of calculation                            : Magnetic Resonance
 stress calculation                             : on
 density difference calculation                 : off
 electron localisation func (ELF) calculation   : off
 Hirshfeld analysis                             : off
 unlimited duration calculation
 timing information                             : on
 write final potential to formatted file        : off
 write final density to formatted file          : off
 write BibTeX reference list                    : on
 write OTFG pseudopotential files               : on
 checkpoint writing                             : both castep_bin and check files

 output         length unit                     : A
 output           mass unit                     : amu
 output           time unit                     : ps
 output         charge unit                     : e
 output           spin unit                     : hbar/2
 output         energy unit                     : eV
 output          force unit                     : eV/A
 output       velocity unit                     : A/ps
 output       pressure unit                     : GPa
 output     inv_length unit                     : 1/A
 output      frequency unit                     : cm-1
 output force constant unit                     : eV/A**2
 output         volume unit                     : A**3
 output   IR intensity unit                     : (D/A)**2/amu
 output         dipole unit                     : D
 output         efield unit                     : eV/A/e
 output        entropy unit                     : J/mol/K

 wavefunctions paging                           : none
 random number generator seed                   : randomised (112911997)
 data distribution                              : optimal for this architecture
[...]
  |    O          42     -162.55     155.16      0.83   1.039E+00   0.71 |
  |    O          43      -82.81      83.03      0.17  -3.188E+00   0.05 |
  |    O          44      -83.00      86.23      0.30  -3.201E+00   0.06 |
  |    O          45      -87.68      86.28      0.28  -3.241E+00   0.08 |
  |    O          46     -162.25     151.25      0.83   1.063E+00   0.62 |
  |    O          47      -19.36     -39.40      0.89   3.872E+00   0.89 |
  |    O          48      -90.11      83.63      0.05  -3.205E+00   0.09 |
  |    O          49      -87.36      88.26      0.12  -3.214E+00   0.06 |
  |    O          50     -161.72     155.09      0.83   1.053E+00   0.69 |
  |    O          51      -88.14      84.98      0.14  -3.146E+00   0.05 |
  |    O          52      -89.02      96.18      0.31  -3.171E+00   0.07 |
  |    O          53      -86.29      87.71      0.08  -3.242E+00   0.07 |
  |    O          54      -85.55      84.35      0.12  -3.165E+00   0.05 |
  |    O          55      -85.60      86.03      0.17  -3.166E+00   0.06 |
  |    O          56      -88.32      84.61      0.19  -3.161E+00   0.07 |
  |    Zr          1     1610.57    -117.99      0.13  -3.542E+01   0.12 |
  |    Zr          2     1610.86    -117.99      0.12  -3.521E+01   0.07 |
  |    Zr          3     1610.68    -116.80      0.08  -3.525E+01   0.08 |
  |    Zr          4     1610.90    -115.80      0.12  -3.530E+01   0.08 |
[...]
  |    La          2     4604.04     522.54      0.07  -7.955E+01   0.08 |
  |    La          3     4602.25     516.57      0.08  -7.922E+01   0.10 |
  |    La          4     4701.55     767.70      0.03  -8.706E+01   0.09 |
  |    La          5     4601.54     511.32      0.07  -7.928E+01   0.07 |
  |    La          6     4596.62     523.46      0.08  -7.798E+01   0.07 |
  |    La          7     4610.48     518.63      0.07  -8.150E+01   0.11 |
  |    La          8     4554.94     385.23      0.05  -7.623E+01   0.11 |
  |    La          9     4545.34     388.50      0.07  -7.521E+01   0.09 |
  |    La         10     4544.93     388.77      0.08  -7.499E+01   0.09 |
  |    La         11     4546.89     393.60      0.08  -7.532E+01   0.09 |
  |    La         12     4552.91     381.46      0.06  -7.622E+01   0.10 |
  |    La         13     4554.71     384.51      0.06  -7.613E+01   0.09 |
  |    La         14     4562.00     380.00      0.05  -7.849E+01   0.10 |
  |    La         15     4657.27     658.60      0.08  -8.439E+01   0.16 |
  |    La         16     4652.88     660.04      0.08  -8.202E+01   0.14 |

 *********************** Forces ***********************
 *            Cartesian components (eV/A)             *
 *                   x            y            z      *
 * O         1     -0.00154     -0.00671      0.00194 *
 * O         2     -0.00767     -0.00385     -0.00482 *
 * O         3     -0.00135     -0.01018     -0.00377 *
 * O         4     -0.00519     -0.01004      0.00360 *
 * O         5      0.00040      0.00883     -0.00829 *
 * O         6      0.00301      0.00491      0.00977 *
 * O         7      0.00735      0.01043      0.00661 *
 * O         8      0.00756      0.00570     -0.00843 *
 * O         9     -0.01406     -0.00538     -0.00216 *
 * O        10      0.01269     -0.00662     -0.00832 *
 * O        11      0.03056      0.00425     -0.00229 *
 * O        12     -0.01197      0.00021      0.00234 *
 * O        13     -0.00093      0.01624     -0.01217 *
 * O        14     -0.00929     -0.02604      0.00503 *
 * O        15      0.01311      0.01415      0.00006 *
 * O        16      0.00968     -0.00718      0.00051 *
 * O        17      0.01349     -0.01297     -0.00134 *
 * O        18     -0.01604     -0.00520     -0.01462 *
 * O        19      0.01793      0.01353      0.00343 *
 * O        20     -0.00345      0.00192      0.00740 *
 * O        21     -0.00632     -0.00893      0.00670 *
 * O        22     -0.00835      0.01717      0.00280 *
 * O        23     -0.01002      0.01638      0.00224 *
 * O        24     -0.01328     -0.02605     -0.00286 *
 * O        25      0.00652     -0.01054      0.00839 *
 * O        26     -0.00224     -0.00618     -0.00326 *
 * O        27     -0.00087      0.00088     -0.00136 *
 * O        28      0.01371      0.01716     -0.00142 *
 * O        29     -0.01422      0.01722     -0.01870 *
 * O        30     -0.01479     -0.02256      0.02210 *
 * O        31      0.00926      0.00946     -0.01422 *
 * O        32     -0.00462     -0.00833      0.02557 *
 * O        33      0.01384     -0.00534      0.02253 *
 * O        34     -0.00214      0.00233      0.00078 *
 * O        35      0.00751      0.02245     -0.00242 *
 * O        36     -0.00406     -0.01613      0.00974 *
 * O        37      0.00512      0.01205     -0.01441 *
 * O        38     -0.01601      0.01405     -0.01975 *
 * O        39      0.00428     -0.00282     -0.00794 *
 * O        40      0.00269      0.01885     -0.01001 *
 * O        41      0.00680      0.00039     -0.00063 *
 * O        42      0.00623     -0.00838     -0.00828 *
 * O        43     -0.00312      0.00210      0.00727 *
 * O        44     -0.01882     -0.00647     -0.01642 *
 * O        45      0.02507      0.01027      0.00755 *
 * O        46      0.01373      0.00418     -0.00052 *
 * O        47      0.01708      0.01101     -0.00471 *
 * O        48      0.02448     -0.00611      0.02229 *
 * O        49     -0.00234      0.01671     -0.01284 *
 * O        50     -0.01229      0.00150      0.00276 *
 * O        51      0.00945      0.00278     -0.00549 *
 * O        52     -0.03126     -0.01616     -0.01235 *
 * O        53     -0.00871     -0.02365      0.02355 *
 * O        54     -0.00996     -0.01453     -0.00948 *
 * O        55      0.00085     -0.01974      0.01647 *
 * O        56      0.01729      0.01720      0.00269 *
 * Zr        1     -0.00441      0.00966     -0.00471 *
 * Zr        2      0.00893     -0.00193      0.00505 *
 * Zr        3      0.00750      0.00402      0.00368 *
 * Zr        4      0.00299      0.00653      0.00275 *
[...]
 * La        2      0.00783      0.00329      0.01013 *
 * La        3      0.00053     -0.00241      0.00240 *
 * La        4      0.00820      0.00142      0.00255 *
 * La        5      0.00280      0.00687      0.00726 *
 * La        6      0.00382      0.00378      0.00315 *
 * La        7     -0.00166     -0.00162      0.00070 *
 * La        8     -0.00552     -0.00391      0.00717 *
 * La        9      0.00074     -0.00090     -0.00283 *
 * La       10     -0.00488      0.00213      0.00366 *
 * La       11     -0.00430     -0.00331     -0.01117 *
 * La       12      0.00505      0.00074     -0.00402 *
 * La       13     -0.00206     -0.00091      0.00757 *
 * La       14     -0.00025      0.00430     -0.00389 *
 * La       15      0.00262     -0.00516      0.00290 *
 * La       16      0.00514      0.00452     -0.01085 *

 ***************** Stress Tensor *****************
 *          Cartesian components (GPa)           *
 *             x             y             z     *
 *  x      0.033825      0.018608      0.061749  *
 *  y      0.018608     -0.005477     -0.000627  *
 *  z      0.061749     -0.000627     -0.043710  *
 *  Pressure:    0.0051                          *

[...]

 Pseudo atomic calculation performed for Sn 4d10 5s2 5p2

[...]

 Pseudo atomic calculation performed for La 5s2 5p6 5d1 6s2

 Converged in 34 iterations to a total energy of -968.0371 eV

Charge spilling parameter for spin component 1 = 0.25%

     Atomic Populations (Mulliken)
Species   Ion     s      p      d      f     Total  Charge (e)
  O        1     1.87   5.00   0.00   0.00   6.87    -0.87
  O        2     1.87   5.00   0.00   0.00   6.87    -0.87
  O        3     1.87   5.00   0.00   0.00   6.87    -0.87
  O        4     1.87   5.00   0.00   0.00   6.87    -0.87
  O        5     1.87   5.00   0.00   0.00   6.87    -0.87
  O        6     1.87   5.00   0.00   0.00   6.87    -0.87
  O        7     1.87   5.00   0.00   0.00   6.87    -0.87
  O        8     1.87   5.00   0.00   0.00   6.87    -0.87
  O        9     1.88   5.03   0.00   0.00   6.91    -0.91
  O       10     1.88   5.03   0.00   0.00   6.91    -0.91
  O       11     1.88   5.03   0.00   0.00   6.91    -0.91
  O       12     1.88   5.03   0.00   0.00   6.91    -0.91
  O       13     1.87   4.99   0.00   0.00   6.86    -0.86
  O       14     1.87   4.99   0.00   0.00   6.86    -0.86
  O       15     1.88   5.03   0.00   0.00   6.91    -0.91
  O       16     1.88   5.03   0.00   0.00   6.91    -0.91
  O       17     1.88   5.03   0.00   0.00   6.91    -0.91
  O       18     1.87   4.99   0.00   0.00   6.86    -0.86
  O       19     1.88   5.03   0.00   0.00   6.91    -0.91
  O       20     1.87   4.99   0.00   0.00   6.86    -0.86
  O       21     1.88   5.03   0.00   0.00   6.91    -0.91
  O       22     1.88   5.03   0.00   0.00   6.91    -0.91
  O       23     1.88   5.03   0.00   0.00   6.91    -0.91
  O       24     1.88   5.03   0.00   0.00   6.91    -0.91
  O       25     1.87   4.99   0.00   0.00   6.86    -0.86
  O       26     1.88   5.03   0.00   0.00   6.91    -0.91
  O       27     1.88   5.03   0.00   0.00   6.91    -0.91
  O       28     1.87   4.99   0.00   0.00   6.86    -0.86
  O       29     1.87   4.99   0.00   0.00   6.86    -0.86
  O       30     1.87   4.99   0.00   0.00   6.86    -0.86
  O       31     1.88   5.03   0.00   0.00   6.91    -0.91
  O       32     1.88   5.03   0.00   0.00   6.91    -0.91
  O       33     1.87   4.99   0.00   0.00   6.86    -0.86
  O       34     1.88   5.03   0.00   0.00   6.91    -0.91
  O       35     1.87   4.99   0.00   0.00   6.86    -0.86
  O       36     1.87   4.99   0.00   0.00   6.86    -0.86
  O       37     1.88   5.03   0.00   0.00   6.91    -0.91
  O       38     1.87   4.99   0.00   0.00   6.86    -0.86
  O       39     1.88   5.03   0.00   0.00   6.91    -0.91
  O       40     1.87   4.99   0.00   0.00   6.86    -0.86
  O       41     1.88   5.03   0.00   0.00   6.91    -0.91
  O       42     1.86   4.95   0.00   0.00   6.80    -0.80
  O       43     1.87   4.99   0.00   0.00   6.86    -0.86
  O       44     1.87   4.99   0.00   0.00   6.86    -0.86
  O       45     1.87   4.99   0.00   0.00   6.86    -0.86
  O       46     1.86   4.95   0.00   0.00   6.80    -0.80
  O       47     1.88   5.03   0.00   0.00   6.91    -0.91
  O       48     1.87   4.99   0.00   0.00   6.86    -0.86
  O       49     1.87   4.99   0.00   0.00   6.86    -0.86
  O       50     1.86   4.95   0.00   0.00   6.80    -0.80
  O       51     1.87   4.99   0.00   0.00   6.86    -0.86
  O       52     1.87   4.99   0.00   0.00   6.86    -0.86
  O       53     1.87   4.99   0.00   0.00   6.86    -0.86
  O       54     1.87   4.99   0.00   0.00   6.86    -0.86
  O       55     1.87   4.99   0.00   0.00   6.86    -0.86
  O       56     1.87   4.99   0.00   0.00   6.86    -0.86
  Zr       1     2.37   6.49   1.92   0.00  10.78     1.22
  Zr       2     2.37   6.49   1.92   0.00  10.77     1.23
  Zr       3     2.37   6.49   1.92   0.00  10.77     1.23
  Zr       4     2.37   6.49   1.92   0.00  10.77     1.23
[...]
  La       2     2.08   6.18   1.20   0.00   9.45     1.55
  La       3     2.08   6.18   1.19   0.00   9.45     1.55
  La       4     2.01   6.16   1.20   0.00   9.37     1.63
  La       5     2.08   6.18   1.19   0.00   9.46     1.54
  La       6     2.06   6.18   1.20   0.00   9.44     1.56
  La       7     2.05   6.19   1.19   0.00   9.43     1.57
  La       8     2.09   6.19   1.19   0.00   9.47     1.53
  La       9     2.09   6.19   1.19   0.00   9.48     1.52
  La      10     2.09   6.19   1.19   0.00   9.48     1.52
  La      11     2.09   6.19   1.19   0.00   9.47     1.53
  La      12     2.10   6.19   1.19   0.00   9.49     1.51
  La      13     2.08   6.20   1.19   0.00   9.47     1.53
  La      14     2.08   6.20   1.19   0.00   9.47     1.53
  La      15     2.03   6.17   1.20   0.00   9.40     1.60
  La      16     2.04   6.17   1.20   0.00   9.40     1.60

            Bond              Population      Length (A)
         O 53 -- Sn 3              0.35        2.10060
         O 38 -- Sn 4              0.35        2.10105
         O 29 -- Sn 8              0.35        2.10113
         O 30 -- Sn 9              0.35        2.10211
         O 45 -- Sn 10             0.34        2.10266
         O 18 -- Sn 3              0.35        2.10299
         O 44 -- Sn 9              0.35        2.10317
         O 56 -- Sn 6              0.34        2.10442
         O 35 -- Sn 10             0.34        2.10482
         O 49 -- Sn 1              0.34        2.10498
         O 20 -- Sn 4              0.35        2.10508
         O 43 -- Sn 8              0.35        2.10524
         O 48 -- Sn 7              0.34        2.10527
         O 52 -- Sn 9              0.34        2.10584
         O 28 -- Sn 6              0.34        2.10588
         O 33 -- Sn 7              0.34        2.10597
         O 39 -- Sn 1              0.34        2.10607
         O 51 -- Sn 2              0.34        2.10639
         O 36 -- Sn 11             0.34        2.10654
         O 27 -- Sn 10             0.34        2.10723
         O 14 -- Sn 9              0.34        2.10754
         O 17 -- Sn 5              0.34        2.10755
         O 13 -- Sn 8              0.34        2.10758
         O 55 -- Sn 3              0.34        2.10805
         O 41 -- Sn 11             0.34        2.10903
         O 25 -- Sn 5              0.34        2.10921
         O 10 -- Sn 2              0.34        2.10924
         O 26 -- Sn 11             0.34        2.10934
         O 54 -- Sn 5              0.34        2.10965
         O 40 -- Sn 4              0.34        2.10974
         O 39 -- Sn 5              0.33        2.10985
         O 47 -- Sn 2              0.34        2.10985
         O 16 -- Sn 11             0.34        2.11034
         O 21 -- Sn 3              0.34        2.11037
         O 10 -- Sn 5              0.34        2.11062
         O 22 -- Sn 6              0.34        2.11081
         O 21 -- Sn 7              0.33        2.11114
         O 9  -- Sn 9              0.34        2.11162
         O 41 -- Sn 1              0.33        2.11167
         O 15 -- Sn 10             0.34        2.11180
         O 34 -- Sn 1              0.34        2.11181
         O 27 -- Sn 4              0.33        2.11192
         O 17 -- Sn 11             0.33        2.11213
         O 19 -- Sn 6              0.33        2.11279
         O 42 -- Zr 2              0.42        2.11294
         O 22 -- Sn 8              0.33        2.11313
         O 47 -- Sn 1              0.33        2.11323
         O 34 -- Sn 8              0.33        2.11332
         O 50 -- Zr 1              0.42        2.11342
         O 23 -- Sn 4              0.34        2.11365
         O 9  -- Sn 4              0.33        2.11379
         O 15 -- Sn 7              0.33        2.11381
         O 31 -- Sn 2              0.34        2.11396
         O 50 -- Zr 5              0.42        2.11398
         O 16 -- Sn 2              0.33        2.11433
         O 46 -- Zr 3              0.42        2.11455
         O 11 -- Sn 6              0.34        2.11471
         O 42 -- Zr 5              0.42        2.11473
         O 11 -- Sn 7              0.34        2.11495
         O 12 -- Sn 8              0.33        2.11507
[...]
         O 48 -- O 50             -0.03        2.82428
         O 33 -- O 44             -0.03        2.82432
         O 13 -- O 30             -0.03        2.82468
         O 18 -- O 50             -0.03        2.82471
         O 35 -- O 43             -0.03        2.83029
         O 33 -- O 40             -0.03        2.83032
         O 45 -- O 54             -0.03        2.83059
         O 36 -- O 44             -0.03        2.83080
         O 51 -- O 55             -0.03        2.83158
         O 20 -- O 49             -0.03        2.83178
         O 18 -- O 25             -0.03        2.83333
         O 20 -- O 28             -0.03        2.83341
         O 43 -- O 51             -0.03        2.83443
         O 13 -- O 25             -0.03        2.83459
         O 54 -- O 56             -0.03        2.83532

Writing analysis data to Zr5_8.castep_bin

Writing model to Zr5_8.check

 A BibTeX formatted list of references used in this run has been written to
 Zr5_8.bib

Initialisation time =     44.77 s
Calculation time    =   9752.64 s
Finalisation time   =     26.91 s
Total time          =   9824.32 s

Overall parallel efficiency rating: Good (79%)

Data was distributed by:-
G-vector (13-way); efficiency rating: Very good (81%)
k-point (14-way); efficiency rating: Excellent (96%)