 Compiled for linux_x86_64_ifort2021 on Fri, 04 Feb 2022 13:31:17 +0000
 from code version
 203e84763863+ Castep161_branch Fri, 04 Mar 2016 19:21:07 +0000
 Compiler: Intel Fortran 2021.5.0; Optimisation: intermediate
 MATHLIBS: Intel MKL(2022.0-Product) (LAPACK version 3.9.0)
 FFT Lib : fftw3 version fftw-3.3.10
 Fundamental constants values: CODATA 2010

 Run started: Fri, 08 Apr 2022 06:58:23 +0100
 |           N   N    M   M    RRRR                |
 |           NN  N    MM MM    R   R               |
 |           N N N    M M M    RRRR                |
 |           N  NN    M   M    R  R                |
 |           N   N    M   M    R   R               |
 | Welcome to Materials Studio CASTEP-NMR          |
 | Authors:                                        |
 | J.R. Yates, C.J. Pickard, F. Mauri              |
 | Contributors:                                   |
 | T.F.G. Green, S.A. Joyce                        |
 | Copyright (c) 2004 - 2015                       |
 | Please cite the appropriate publications in all |
 | work arising from your use of CASTEP NMR.       |
 | For NMR Shielding Tensors cite:                 |
 |    "All-electron magnetic response with         |
 |    pseudopotentials: NMR chemical shifts",      |
 |    C. J. Pickard, F. Mauri;                     |
 |    Physical Review B63 245101 (2001), and       |
 |    "Calculation of NMR Chemical Shifts          |
 |    for extended systems using                   |
 |    Ultrasoft Pseudopotentials",                 |
 |    J. R. Yates, C. J. Pickard and F. Mauri      |
 |    Physical Review B76 024401 (2007)            |
 | For Electric Field Gradients cite:              |
 |   "Accurate First Principles Prediction of 17O  |
 |    NMR Parameters in SiO2: Assignment of the    |
 |    Zeolite Ferrierite Spectrum"                 |
 |    M. Profeta, F. Mauri and C. J. Pickard       |
 |    J. Amer. Chem. Soc. 125 541 (2003)           |
 | For Spin-Spin (J) Couplings cite:               |
 |   "A first principles theory of NMR J-coupling  |
 |   in solid-state systems"                       |
 |   S.A. Joyce, J.R. Yates, C.J. Pickard, F. Mauri|
 |   J. Chem. Phys. 127 204107 (2007)              |
 |   "Relativistic NMR J-coupling with ultrasoft   |
 |   pseudopotentials and the zeroth-order regular |
 |   approximation"                                |
 |   T.F.G. Green and J.R. Yates                   |
 |   J. Chem. Phys. 140 234106 (2014)              |

 Atomic calculation performed for O: 1s2 2s2 2p4

 Converged in 44 iterations to an ae energy of -2040.855 eV

 Atomic calculation performed for O: 1s2 2s2 2p4

 Exceeded max iterations: converged to 0.000000062 eV

   | Pseudopotential Report - Date of generation  8-04-2022   |
   | Element: O Ionic charge:  6.00 Level of theory: PBE      |
   | Atomic Solver: ZORA (scalar)                             |
   |               Reference Electronic Structure             |
   |         Orbital         Occupation         Energy        |
   |            2s              2.000           -0.881        |
   |            2p              4.000           -0.332        |
   |                 Pseudopotential Definition               |
   |        Beta     l      e      Rc     scheme   norm       |
   |          1      0   -0.881   1.100     qc      0         |
   |          2      0    0.250   1.100     qc      0         |
   |          3      1   -0.332   1.100     qc      0         |
   |          4      1    0.250   1.100     qc      0         |
   |         loc     2    0.000   1.100     pn      0         |
   | Augmentation charge Rinner = 0.769                       |
   | Partial core correction Rc = 0.769                       |
   | "2|1.1|15|18|20|20:21(qc=7)"                             |
   |      Author: Chris J. Pickard, Cambridge University      |

 Atomic calculation performed for Zr: 1s2 2s2 2p6 3s2 3p6 3d10 4s2 4p6 4d2 5s2

[...]

 Atomic calculation performed for Zr: 1s2 2s2 2p6 3s2 3p6 3d10 4s2 4p6 4d2 5s2

[...]

 Warning: ion_atom_descreen_psp: negative charge density encountered
   | Pseudopotential Report - Date of generation  8-04-2022   |
   | Element: Zr Ionic charge: 12.00 Level of theory: PBE     |
   | Atomic Solver: ZORA (scalar)                             |
   |               Reference Electronic Structure             |
   |         Orbital         Occupation         Energy        |
   |            4s              2.000           -2.003        |
   |            4p              6.000           -1.193        |
   |            5s              2.000           -0.163        |
   |            4d              2.000           -0.132        |
   |                 Pseudopotential Definition               |
   |        Beta     l      e      Rc     scheme   norm       |
   |          1      0   -2.003   2.105     qc      0         |
   |          2      0   -0.163   2.105     qc      0         |
   |          3      0    0.250   2.105     qc      0         |
   |          4      1   -1.193   2.105     qc      0         |
   |          5      1    0.250   2.105     qc      0         |
   |          6      2   -0.132   2.105     qc      0         |
   |          7      2    0.250   2.105     qc      0         |
   |         loc     3    0.000   2.105     pn      0         |
   | Augmentation charge Rinner = 1.471                       |
   | Partial core correction Rc = 1.471                       |
   | "3|2.1|7|8|9|40U:50:41:42"                               |
   |      Author: Chris J. Pickard, Cambridge University      |

 Atomic calculation performed for Sn:

[...]

 Atomic calculation performed for Sn:

[...]

   | Pseudopotential Report - Date of generation  8-04-2022   |
   | Element: Sn Ionic charge: 14.00 Level of theory: PBE     |
   | Atomic Solver: ZORA (scalar)                             |
   |               Reference Electronic Structure             |
   |         Orbital         Occupation         Energy        |
   |            4d             10.000           -0.950        |
   |            5s              2.000           -0.388        |
   |            5p              2.000           -0.136        |
   |                 Pseudopotential Definition               |
   |        Beta     l      e      Rc     scheme   norm       |
   |          1      0   -0.388   2.199     qc      0         |
   |          2      0    0.250   2.199     qc      0         |
   |          3      1   -0.136   2.199     qc      0         |
   |          4      1    0.250   2.199     qc      0         |
   |          5      2   -0.950   2.199     qc      0         |
   |          6      2    0.250   2.199     qc      0         |
   |         loc     3    0.000   2.199     pn      0         |
   | Augmentation charge Rinner = 1.537                       |
   | Partial core correction Rc = 1.537                       |
   | "3|2.2|7|8|9|50:51:42"                                   |
   |      Author: Chris J. Pickard, Cambridge University      |

 Atomic calculation performed for La:

 Converged in 55 iterations to an ae energy of -230121.495 eV

 Atomic calculation performed for La:

 Exceeded max iterations: converged to 0.000001291 eV

 Warning: ion_atom_descreen_psp: negative charge density encountered
   | Pseudopotential Report - Date of generation  8-04-2022   |
   | Element: La Ionic charge: 11.00 Level of theory: PBE     |
   | Atomic Solver: ZORA (scalar)                             |
   |               Reference Electronic Structure             |
   |         Orbital         Occupation         Energy        |
   |            5s              2.000           -1.430        |
   |            5p              6.000           -0.823        |
   |            6s              2.000           -0.135        |
   |            5d              1.000           -0.114        |
   |                 Pseudopotential Definition               |
   |        Beta     l      e      Rc     scheme   norm       |
   |          1      0   -1.430   2.298     qc      0         |
   |          2      0   -0.135   2.298     qc      0         |
   |          3      0    0.250   2.298     qc      0         |
   |          4      1   -0.823   2.298     qc      0         |
   |          5      1    0.250   2.298     qc      0         |
   |          6      2   -0.114   2.298     qc      0         |
   |          7      2    0.250   2.298     qc      0         |
   |         loc     2    0.000   2.298     pn      0         |
   | Augmentation charge Rinner = 1.606                       |
   | Partial core correction Rc = 1.606                       |
   | "2|2.3|5|6|7|50U:60:51:52(qc=4.5)"                       |
   |      Author: Chris J. Pickard, Cambridge University      |

 Pseudo atomic calculation performed for O 2s2 2p4

 Converged in 39 iterations to a total energy of -432.6554 eV

 Pseudo atomic calculation performed for Zr 4s2 4p6 4d2 5s2

[...]

 Calculation parallelised over 182 processes.
 Data is distributed by G-vector(13-way) and k-point(14-way)

 ************************************ Title ************************************
 nmr testing

 ***************************** General Parameters ******************************

 output verbosity                               : normal  (1)
 write checkpoint data to                       : Zr5_10.check
 type of calculation                            : Magnetic Resonance
 stress calculation                             : on
 density difference calculation                 : off
 electron localisation func (ELF) calculation   : off
 Hirshfeld analysis                             : off
 unlimited duration calculation
 timing information                             : on
 write final potential to formatted file        : off
 write final density to formatted file          : off
 write BibTeX reference list                    : on
 write OTFG pseudopotential files               : on
 checkpoint writing                             : both castep_bin and check files

 output         length unit                     : A
 output           mass unit                     : amu
 output           time unit                     : ps
 output         charge unit                     : e
 output           spin unit                     : hbar/2
 output         energy unit                     : eV
 output          force unit                     : eV/A
 output       velocity unit                     : A/ps
 output       pressure unit                     : GPa
 output     inv_length unit                     : 1/A
 output      frequency unit                     : cm-1
 output force constant unit                     : eV/A**2
 output         volume unit                     : A**3
 output   IR intensity unit                     : (D/A)**2/amu
 output         dipole unit                     : D
 output         efield unit                     : eV/A/e
 output        entropy unit                     : J/mol/K

 wavefunctions paging                           : none
 random number generator seed                   : randomised (65824136)
 data distribution                              : optimal for this architecture
[...]
  |    O          42      -90.03      87.32      0.30  -3.194E+00   0.09 |
  |    O          43      -85.44      86.36      0.11  -3.234E+00   0.07 |
  |    O          44      -86.05      86.13      0.27  -3.168E+00   0.07 |
  |    O          45     -161.04     157.71      0.82   1.079E+00   0.65 |
  |    O          46     -161.27     152.06      0.83   1.073E+00   0.59 |
  |    O          47      -16.13     -40.15      0.84   3.887E+00   0.89 |
  |    O          48      -88.02      84.44      0.29  -3.148E+00   0.08 |
  |    O          49      -88.14      87.42      0.15  -3.209E+00   0.06 |
  |    O          50      -87.99      85.08      0.32  -3.226E+00   0.09 |
  |    O          51      -86.05      85.55      0.13  -3.150E+00   0.05 |
  |    O          52      -90.26      95.24      0.29  -3.164E+00   0.07 |
  |    O          53      -88.33      85.63      0.06  -3.219E+00   0.08 |
  |    O          54      -87.59      83.47      0.15  -3.218E+00   0.08 |
  |    O          55      -87.12      86.44      0.23  -3.153E+00   0.06 |
  |    O          56      -86.52      86.55      0.28  -3.164E+00   0.07 |
  |    Zr          1     1609.95    -116.28      0.03  -3.515E+01   0.18 |
  |    Zr          2     1610.74    -115.96      0.04  -3.493E+01   0.13 |
  |    Zr          3     1609.98    -115.53      0.05  -3.521E+01   0.09 |
  |    Zr          4     1610.44    -113.89      0.03  -3.504E+01   0.14 |
[...]
  |    La          2     4603.48     522.03      0.06  -7.958E+01   0.09 |
  |    La          3     4654.00     625.49      0.01  -8.331E+01   0.01 |
  |    La          4     4650.90     650.39      0.01  -8.342E+01   0.02 |
  |    La          5     4600.95     510.41      0.07  -7.916E+01   0.09 |
  |    La          6     4603.55     520.72      0.07  -7.946E+01   0.09 |
  |    La          7     4602.33     522.77      0.07  -8.018E+01   0.10 |
  |    La          8     4503.65     231.09      0.02  -7.307E+01   0.01 |
  |    La          9     4597.39     526.93      0.08  -7.811E+01   0.09 |
  |    La         10     4554.29     385.06      0.06  -7.623E+01   0.08 |
  |    La         11     4493.30     238.68      0.02  -7.171E+01   0.02 |
  |    La         12     4604.89     524.38      0.07  -7.955E+01   0.10 |
  |    La         13     4604.33     524.09      0.07  -7.956E+01   0.11 |
  |    La         14     4552.17     384.16      0.06  -7.704E+01   0.11 |
  |    La         15     4607.24     505.95      0.07  -8.117E+01   0.09 |
  |    La         16     4651.76     660.07      0.08  -8.232E+01   0.15 |

 *********************** Forces ***********************
 *            Cartesian components (eV/A)             *
 *                   x            y            z      *
 * O         1      0.01507     -0.01326     -0.00624 *
 * O         2     -0.00668     -0.01330      0.00424 *
 * O         3      0.00170     -0.00166      0.00327 *
 * O         4     -0.00497     -0.00184     -0.00339 *
 * O         5     -0.01441      0.01377     -0.00370 *
 * O         6     -0.01374      0.00005      0.00322 *
 * O         7      0.01143      0.00435      0.00491 *
 * O         8      0.01227      0.00118     -0.00450 *
 * O         9     -0.03127      0.00615     -0.00553 *
 * O        10      0.00640      0.00107     -0.00139 *
 * O        11      0.04224      0.00315     -0.00190 *
 * O        12     -0.01095     -0.00034      0.00604 *
 * O        13      0.00601     -0.01297     -0.00161 *
 * O        14     -0.00900     -0.00693     -0.01536 *
 * O        15     -0.00211     -0.00796      0.02239 *
 * O        16      0.00668      0.00164      0.00585 *
 * O        17      0.01032     -0.00571     -0.00896 *
 * O        18     -0.01012     -0.00722      0.01680 *
 * O        19      0.00236      0.03579     -0.01790 *
 * O        20     -0.00576      0.01859      0.00594 *
 * O        21      0.01022     -0.02100      0.00573 *
 * O        22      0.00723      0.01079      0.00007 *
 * O        23     -0.00243      0.02774      0.00755 *
 * O        24     -0.00646     -0.02339     -0.01290 *
 * O        25     -0.02098      0.00056     -0.00372 *
 * O        26      0.01377     -0.01536      0.00250 *
 * O        27     -0.02027     -0.00398     -0.01245 *
 * O        28      0.01687     -0.00661      0.00944 *
 * O        29     -0.02029     -0.00021     -0.00794 *
 * O        30     -0.01349     -0.01628     -0.00956 *
 * O        31      0.02837     -0.00307      0.00826 *
 * O        32      0.00696     -0.01156      0.02062 *
 * O        33      0.01627      0.00578     -0.00631 *
 * O        34      0.01437     -0.00334      0.00315 *
 * O        35      0.01565     -0.00448      0.00320 *
 * O        36     -0.02330     -0.01568     -0.00556 *
 * O        37      0.01100      0.00943     -0.01604 *
 * O        38     -0.01842      0.00115     -0.00695 *
 * O        39     -0.00499      0.00870     -0.00619 *
 * O        40     -0.00015      0.01939      0.01103 *
 * O        41     -0.00060      0.00017      0.00354 *
 * O        42     -0.01370      0.01178     -0.01209 *
 * O        43      0.00677      0.01972      0.00674 *
 * O        44     -0.00863     -0.01993     -0.01104 *
 * O        45     -0.00279      0.01503     -0.00306 *
 * O        46      0.00757     -0.00215      0.00265 *
 * O        47      0.01371      0.01129     -0.00240 *
 * O        48      0.00162     -0.01789      0.00726 *
 * O        49     -0.01978      0.00783      0.00194 *
 * O        50      0.01586     -0.01704      0.01178 *
 * O        51      0.00604     -0.01055      0.01115 *
 * O        52     -0.02483      0.00925      0.00593 *
 * O        53     -0.02485     -0.00840      0.01988 *
 * O        54      0.02390      0.00854     -0.00961 *
 * O        55      0.01735     -0.01275     -0.00242 *
 * O        56     -0.00106      0.01514     -0.02107 *
 * Zr        1     -0.00372     -0.00796     -0.00160 *
 * Zr        2     -0.00620     -0.01550     -0.00065 *
 * Zr        3      0.01220      0.00637      0.00399 *
 * Zr        4      0.01475      0.00696      0.00283 *
[...]
 * La        2      0.01275      0.00664     -0.00401 *
 * La        3     -0.01205     -0.00169     -0.00844 *
 * La        4     -0.00802      0.00161      0.00575 *
 * La        5     -0.01329     -0.00770      0.00235 *
 * La        6      0.01885     -0.01729      0.01509 *
 * La        7      0.00219     -0.00390     -0.00831 *
 * La        8     -0.00032     -0.01035     -0.00343 *
 * La        9      0.01643      0.00450     -0.00373 *
 * La       10     -0.01872      0.00487      0.00036 *
 * La       11     -0.01935     -0.00441      0.00383 *
 * La       12      0.01240      0.00841     -0.00441 *
 * La       13     -0.00070      0.00886      0.00097 *
 * La       14      0.00302     -0.00252     -0.00644 *
 * La       15      0.00205     -0.00169      0.00300 *
 * La       16     -0.00833     -0.00507     -0.00632 *

 ***************** Stress Tensor *****************
 *          Cartesian components (GPa)           *
 *             x             y             z     *
 *  x      0.000372      0.007027      0.043697  *
 *  y      0.007027     -0.005651     -0.015094  *
 *  z      0.043697     -0.015094     -0.012533  *
 *  Pressure:    0.0059                          *

[...]

 Pseudo atomic calculation performed for Sn 4d10 5s2 5p2

[...]

 Pseudo atomic calculation performed for La 5s2 5p6 5d1 6s2

 Converged in 34 iterations to a total energy of -968.0371 eV

Charge spilling parameter for spin component 1 = 0.26%

     Atomic Populations (Mulliken)
Species   Ion     s      p      d      f     Total  Charge (e)
  O        1     1.87   5.00   0.00   0.00   6.87    -0.87
  O        2     1.87   5.00   0.00   0.00   6.87    -0.87
  O        3     1.87   5.00   0.00   0.00   6.87    -0.87
  O        4     1.87   5.00   0.00   0.00   6.87    -0.87
  O        5     1.87   5.00   0.00   0.00   6.87    -0.87
  O        6     1.87   5.00   0.00   0.00   6.87    -0.87
  O        7     1.87   5.00   0.00   0.00   6.87    -0.87
  O        8     1.87   5.00   0.00   0.00   6.87    -0.87
  O        9     1.88   5.03   0.00   0.00   6.91    -0.91
  O       10     1.88   5.03   0.00   0.00   6.91    -0.91
  O       11     1.88   5.03   0.00   0.00   6.91    -0.91
  O       12     1.88   5.03   0.00   0.00   6.91    -0.91
  O       13     1.88   5.03   0.00   0.00   6.91    -0.91
  O       14     1.87   4.99   0.00   0.00   6.86    -0.86
  O       15     1.87   4.99   0.00   0.00   6.86    -0.86
  O       16     1.88   5.03   0.00   0.00   6.91    -0.91
  O       17     1.88   5.03   0.00   0.00   6.91    -0.91
  O       18     1.88   5.03   0.00   0.00   6.91    -0.91
  O       19     1.87   4.99   0.00   0.00   6.86    -0.86
  O       20     1.87   4.99   0.00   0.00   6.86    -0.86
  O       21     1.88   5.03   0.00   0.00   6.91    -0.91
  O       22     1.88   5.03   0.00   0.00   6.91    -0.91
  O       23     1.88   5.03   0.00   0.00   6.91    -0.91
  O       24     1.88   5.03   0.00   0.00   6.91    -0.91
  O       25     1.88   5.03   0.00   0.00   6.91    -0.91
  O       26     1.88   5.03   0.00   0.00   6.91    -0.91
  O       27     1.87   4.99   0.00   0.00   6.86    -0.86
  O       28     1.87   4.99   0.00   0.00   6.86    -0.86
  O       29     1.87   4.99   0.00   0.00   6.86    -0.86
  O       30     1.88   5.03   0.00   0.00   6.91    -0.91
  O       31     1.87   4.99   0.00   0.00   6.86    -0.86
  O       32     1.88   5.03   0.00   0.00   6.91    -0.91
  O       33     1.87   4.99   0.00   0.00   6.86    -0.86
  O       34     1.88   5.03   0.00   0.00   6.91    -0.91
  O       35     1.86   4.95   0.00   0.00   6.80    -0.80
  O       36     1.87   4.99   0.00   0.00   6.86    -0.86
  O       37     1.88   5.03   0.00   0.00   6.91    -0.91
  O       38     1.87   4.99   0.00   0.00   6.86    -0.86
  O       39     1.88   5.03   0.00   0.00   6.91    -0.91
  O       40     1.87   4.99   0.00   0.00   6.86    -0.86
  O       41     1.88   5.03   0.00   0.00   6.91    -0.91
  O       42     1.87   4.99   0.00   0.00   6.86    -0.86
  O       43     1.87   4.99   0.00   0.00   6.86    -0.86
  O       44     1.87   4.99   0.00   0.00   6.86    -0.86
  O       45     1.86   4.95   0.00   0.00   6.80    -0.80
  O       46     1.86   4.95   0.00   0.00   6.80    -0.80
  O       47     1.88   5.03   0.00   0.00   6.91    -0.91
  O       48     1.87   4.99   0.00   0.00   6.86    -0.86
  O       49     1.87   4.99   0.00   0.00   6.86    -0.86
  O       50     1.87   4.99   0.00   0.00   6.86    -0.86
  O       51     1.87   4.99   0.00   0.00   6.86    -0.86
  O       52     1.87   4.99   0.00   0.00   6.86    -0.86
  O       53     1.87   4.99   0.00   0.00   6.86    -0.86
  O       54     1.87   4.99   0.00   0.00   6.86    -0.86
  O       55     1.87   4.99   0.00   0.00   6.86    -0.86
  O       56     1.87   4.99   0.00   0.00   6.86    -0.86
  Zr       1     2.37   6.49   1.92   0.00  10.78     1.22
  Zr       2     2.37   6.49   1.92   0.00  10.77     1.23
  Zr       3     2.37   6.49   1.92   0.00  10.78     1.22
  Zr       4     2.37   6.49   1.92   0.00  10.77     1.23
[...]
  La       2     2.08   6.18   1.19   0.00   9.45     1.55
  La       3     2.05   6.17   1.19   0.00   9.42     1.58
  La       4     2.03   6.17   1.20   0.00   9.39     1.61
  La       5     2.08   6.18   1.19   0.00   9.46     1.54
  La       6     2.06   6.18   1.19   0.00   9.44     1.56
  La       7     2.06   6.18   1.19   0.00   9.43     1.57
  La       8     2.11   6.21   1.19   0.00   9.51     1.49
  La       9     2.06   6.18   1.20   0.00   9.44     1.56
  La      10     2.08   6.20   1.19   0.00   9.47     1.53
  La      11     2.12   6.20   1.19   0.00   9.51     1.49
  La      12     2.06   6.18   1.19   0.00   9.43     1.57
  La      13     2.06   6.18   1.19   0.00   9.43     1.57
  La      14     2.09   6.20   1.19   0.00   9.48     1.52
  La      15     2.07   6.19   1.19   0.00   9.45     1.55
  La      16     2.04   6.17   1.20   0.00   9.40     1.60

            Bond              Population      Length (A)
         O 43 -- Sn 9              0.35        2.10048
         O 29 -- Sn 9              0.35        2.10049
         O 52 -- Sn 10             0.34        2.10117
         O 33 -- Sn 7              0.34        2.10203
         O 50 -- Sn 8              0.34        2.10217
         O 53 -- Sn 3              0.34        2.10247
         O 36 -- Sn 11             0.35        2.10269
         O 27 -- Sn 4              0.34        2.10277
         O 28 -- Sn 6              0.34        2.10309
         O 55 -- Sn 3              0.34        2.10332
         O 38 -- Sn 4              0.35        2.10338
         O 20 -- Sn 4              0.35        2.10346
         O 54 -- Sn 5              0.35        2.10365
         O 15 -- Sn 7              0.34        2.10406
         O 19 -- Sn 6              0.34        2.10412
         O 31 -- Sn 2              0.35        2.10423
         O 49 -- Sn 1              0.35        2.10451
         O 16 -- Sn 11             0.35        2.10462
         O 42 -- Sn 8              0.34        2.10469
         O 56 -- Sn 6              0.34        2.10646
         O 40 -- Sn 4              0.34        2.10650
         O 44 -- Sn 10             0.34        2.10655
         O 47 -- Sn 2              0.34        2.10657
         O 48 -- Sn 7              0.34        2.10783
         O 10 -- Sn 2              0.34        2.10824
         O 22 -- Sn 6              0.34        2.10887
         O 14 -- Sn 10             0.34        2.10909
         O 17 -- Sn 5              0.34        2.10911
         O 30 -- Sn 10             0.34        2.10924
         O 51 -- Sn 2              0.34        2.10940
         O 47 -- Sn 1              0.33        2.10982
         O 39 -- Sn 1              0.34        2.11031
         O 21 -- Sn 7              0.34        2.11032
         O 10 -- Sn 5              0.33        2.11043
         O 45 -- Zr 1              0.42        2.11074
         O 41 -- Sn 11             0.33        2.11087
         O 35 -- Zr 2              0.42        2.11089
         O 41 -- Sn 1              0.33        2.11125
         O 18 -- Sn 3              0.34        2.11131
         O 21 -- Sn 3              0.34        2.11139
         O 37 -- Sn 6              0.34        2.11140
         O 13 -- Sn 8              0.34        2.11155
         O 30 -- Sn 8              0.33        2.11192
         O 9  -- Sn 10             0.34        2.11210
         O 32 -- Sn 7              0.34        2.11216
         O 16 -- Sn 2              0.33        2.11227
         O 9  -- Sn 4              0.33        2.11298
         O 39 -- Sn 5              0.33        2.11298
         O 22 -- Sn 9              0.33        2.11320
         O 24 -- Sn 5              0.33        2.11327
         O 12 -- Sn 9              0.33        2.11329
         O 24 -- Sn 10             0.34        2.11338
         O 37 -- Sn 1              0.33        2.11417
         O 45 -- Zr 5              0.42        2.11433
         O 12 -- Sn 3              0.33        2.11459
         O 26 -- Sn 11             0.33        2.11479
         O 18 -- Sn 8              0.33        2.11508
         O 46 -- Zr 4              0.42        2.11518
         O 17 -- Sn 11             0.33        2.11522
         O 23 -- Sn 4              0.33        2.11530
[...]
         O 48 -- O 52             -0.03        2.82584
         O 38 -- O 55             -0.03        2.82591
         O 52 -- O 56             -0.03        2.82593
         O 33 -- O 44             -0.03        2.82610
         O 36 -- O 46             -0.03        2.82658
         O 15 -- O 27             -0.03        2.82813
         O 38 -- O 42             -0.03        2.83033
         O 20 -- O 49             -0.03        2.83169
         O 14 -- O 29             -0.03        2.83210
         O 48 -- O 50             -0.03        2.83257
         O 43 -- O 51             -0.03        2.83306
         O 36 -- O 44             -0.03        2.83397
         O 54 -- O 56             -0.03        2.83411
         O 51 -- O 55             -0.03        2.83503
         O 15 -- O 31             -0.03        2.83599

Writing analysis data to Zr5_10.castep_bin

Writing model to Zr5_10.check

 A BibTeX formatted list of references used in this run has been written to
 Zr5_10.bib

Initialisation time =     44.54 s
Calculation time    =   9862.82 s
Finalisation time   =     43.34 s
Total time          =   9950.70 s

Overall parallel efficiency rating: Good (78%)

Data was distributed by:-
G-vector (13-way); efficiency rating: Very good (81%)
k-point (14-way); efficiency rating: Excellent (95%)