 Run started: Wed, 30 Mar 2022 06:35:18 -0100
 |           N   N    M   M    RRRR                |
 |           NN  N    MM MM    R   R               |
 |           N N N    M M M    RRRR                |
 |           N  NN    M   M    R  R                |
 |           N   N    M   M    R   R               |
 | Welcome to Materials Studio CASTEP-NMR          |
 | Authors:                                        |
 | J.R. Yates, C.J. Pickard, F. Mauri              |
 | Contributors:                                   |
 | T.F.G. Green, S.A. Joyce                        |
 | Copyright (c) 2004 - 2015                       |
 | Please cite the appropriate publications in all |
 | work arising from your use of CASTEP NMR.       |
 | For NMR Shielding Tensors cite:                 |
 |    "All-electron magnetic response with         |
 |    pseudopotentials: NMR chemical shifts",      |
 |    C. J. Pickard, F. Mauri;                     |
 |    Physical Review B63 245101 (2001), and       |
 |    "Calculation of NMR Chemical Shifts          |
 |    for extended systems using                   |
 |    Ultrasoft Pseudopotentials",                 |
 |    J. R. Yates, C. J. Pickard and F. Mauri      |
 |    Physical Review B76 024401 (2007)            |
 | For Electric Field Gradients cite:              |
 |   "Accurate First Principles Prediction of 17O  |
 |    NMR Parameters in SiO2: Assignment of the    |
 |    Zeolite Ferrierite Spectrum"                 |
 |    M. Profeta, F. Mauri and C. J. Pickard       |
 |    J. Amer. Chem. Soc. 125 541 (2003)           |
 | For Spin-Spin (J) Couplings cite:               |
 |   "A first principles theory of NMR J-coupling  |
 |   in solid-state systems"                       |
 |   S.A. Joyce, J.R. Yates, C.J. Pickard, F. Mauri|
 |   J. Chem. Phys. 127 204107 (2007)              |
 |   "Relativistic NMR J-coupling with ultrasoft   |
 |   pseudopotentials and the zeroth-order regular |
 |   approximation"                                |
 |   T.F.G. Green and J.R. Yates                   |
 |   J. Chem. Phys. 140 234106 (2014)              |

 Atomic calculation performed for O: 1s2 2s2 2p4

 Converged in 44 iterations to an ae energy of -2040.855 eV

 Atomic calculation performed for O: 1s2 2s2 2p4

 Exceeded max iterations: converged to 0.000000062 eV

   | Pseudopotential Report - Date of generation 30-03-2022   |
   | Element: O Ionic charge:  6.00 Level of theory: PBE      |
   | Atomic Solver: ZORA (scalar)                             |
   |               Reference Electronic Structure             |
   |         Orbital         Occupation         Energy        |
   |            2s              2.000           -0.881        |
   |            2p              4.000           -0.332        |
   |                 Pseudopotential Definition               |
   |        Beta     l      e      Rc     scheme   norm       |
   |          1      0   -0.881   1.100     qc      0         |
   |          2      0    0.250   1.100     qc      0         |
   |          3      1   -0.332   1.100     qc      0         |
   |          4      1    0.250   1.100     qc      0         |
   |         loc     2    0.000   1.100     pn      0         |
   | Augmentation charge Rinner = 0.769                       |
   | Partial core correction Rc = 0.769                       |
   | "2|1.1|15|18|20|20:21(qc=7)"                             |
   |      Author: Chris J. Pickard, Cambridge University      |

 Atomic calculation performed for Zr: 1s2 2s2 2p6 3s2 3p6 3d10 4s2 4p6 4d2 5s2

[...]

 Atomic calculation performed for Zr: 1s2 2s2 2p6 3s2 3p6 3d10 4s2 4p6 4d2 5s2

[...]

 Warning: ion_atom_descreen_psp: negative charge density encountered
   | Pseudopotential Report - Date of generation 30-03-2022   |
   | Element: Zr Ionic charge: 12.00 Level of theory: PBE     |
   | Atomic Solver: ZORA (scalar)                             |
   |               Reference Electronic Structure             |
   |         Orbital         Occupation         Energy        |
   |            4s              2.000           -2.003        |
   |            4p              6.000           -1.193        |
   |            5s              2.000           -0.163        |
   |            4d              2.000           -0.132        |
   |                 Pseudopotential Definition               |
   |        Beta     l      e      Rc     scheme   norm       |
   |          1      0   -2.003   2.105     qc      0         |
   |          2      0   -0.163   2.105     qc      0         |
   |          3      0    0.250   2.105     qc      0         |
   |          4      1   -1.193   2.105     qc      0         |
   |          5      1    0.250   2.105     qc      0         |
   |          6      2   -0.132   2.105     qc      0         |
   |          7      2    0.250   2.105     qc      0         |
   |         loc     3    0.000   2.105     pn      0         |
   | Augmentation charge Rinner = 1.471                       |
   | Partial core correction Rc = 1.471                       |
   | "3|2.1|7|8|9|40U:50:41:42"                               |
   |      Author: Chris J. Pickard, Cambridge University      |

 Atomic calculation performed for Sn:

[...]

 Atomic calculation performed for Sn:

[...]

   | Pseudopotential Report - Date of generation 30-03-2022   |
   | Element: Sn Ionic charge: 14.00 Level of theory: PBE     |
   | Atomic Solver: ZORA (scalar)                             |
   |               Reference Electronic Structure             |
   |         Orbital         Occupation         Energy        |
   |            4d             10.000           -0.950        |
   |            5s              2.000           -0.388        |
   |            5p              2.000           -0.136        |
   |                 Pseudopotential Definition               |
   |        Beta     l      e      Rc     scheme   norm       |
   |          1      0   -0.388   2.199     qc      0         |
   |          2      0    0.250   2.199     qc      0         |
   |          3      1   -0.136   2.199     qc      0         |
   |          4      1    0.250   2.199     qc      0         |
   |          5      2   -0.950   2.199     qc      0         |
   |          6      2    0.250   2.199     qc      0         |
   |         loc     3    0.000   2.199     pn      0         |
   | Augmentation charge Rinner = 1.537                       |
   | Partial core correction Rc = 1.537                       |
   | "3|2.2|7|8|9|50:51:42"                                   |
   |      Author: Chris J. Pickard, Cambridge University      |

 Atomic calculation performed for La:

 Converged in 55 iterations to an ae energy of -230121.495 eV

 Atomic calculation performed for La:

 Exceeded max iterations: converged to 0.000001134 eV

 Warning: ion_atom_descreen_psp: negative charge density encountered
   | Pseudopotential Report - Date of generation 30-03-2022   |
   | Element: La Ionic charge: 11.00 Level of theory: PBE     |
   | Atomic Solver: ZORA (scalar)                             |
   |               Reference Electronic Structure             |
   |         Orbital         Occupation         Energy        |
   |            5s              2.000           -1.430        |
   |            5p              6.000           -0.823        |
   |            6s              2.000           -0.135        |
   |            5d              1.000           -0.114        |
   |                 Pseudopotential Definition               |
   |        Beta     l      e      Rc     scheme   norm       |
   |          1      0   -1.430   2.298     qc      0         |
   |          2      0   -0.135   2.298     qc      0         |
   |          3      0    0.250   2.298     qc      0         |
   |          4      1   -0.823   2.298     qc      0         |
   |          5      1    0.250   2.298     qc      0         |
   |          6      2   -0.114   2.298     qc      0         |
   |          7      2    0.250   2.298     qc      0         |
   |         loc     2    0.000   2.298     pn      0         |
   | Augmentation charge Rinner = 1.606                       |
   | Partial core correction Rc = 1.606                       |
   | "2|2.3|5|6|7|50U:60:51:52(qc=4.5)"                       |
   |      Author: Chris J. Pickard, Cambridge University      |

 Pseudo atomic calculation performed for O 2s2 2p4

 Converged in 39 iterations to a total energy of -432.6554 eV

 Pseudo atomic calculation performed for Zr 4s2 4p6 4d2 5s2

[...]

 Calculation parallelised over 896 processes.
 Data is distributed by G-vector(64-way) and k-point(14-way)

 ************************************ Title ************************************
 nmr testing

 ***************************** General Parameters ******************************

 output verbosity                               : normal  (1)
 write checkpoint data to                       : 22.check
 type of calculation                            : Magnetic Resonance
 stress calculation                             : on
 density difference calculation                 : off
 electron localisation func (ELF) calculation   : off
 Hirshfeld analysis                             : off
 unlimited duration calculation
 timing information                             : on
 write final potential to formatted file        : off
 write final density to formatted file          : off
 write BibTeX reference list                    : off
 write OTFG pseudopotential files               : on
 checkpoint writing                             : off

 output         length unit                     : A
 output           mass unit                     : amu
 output           time unit                     : ps
 output         charge unit                     : e
 output           spin unit                     : hbar/2
 output         energy unit                     : eV
 output          force unit                     : eV/A
 output       velocity unit                     : A/ps
 output       pressure unit                     : GPa
 output     inv_length unit                     : 1/A
 output      frequency unit                     : cm-1
 output force constant unit                     : eV/A**2
 output         volume unit                     : A**3
 output   IR intensity unit                     : (D/A)**2/amu
 output         dipole unit                     : D
 output         efield unit                     : eV/A/e
 output        entropy unit                     : J/mol/K

 wavefunctions paging                           : none
 random number generator seed                   : randomised (63518818)
 data distribution                              : optimal for this architecture
 optimization strategy                          : maximize speed(+++)

 *********************** Exchange-Correlation Parameters ***********************

 using functional                               : Perdew Burke Ernzerhof
 relativistic treatment                         : ZORA
 DFT+D: Semi-empirical dispersion correction    : off

 ************************* Pseudopotential Parameters **************************

[...]
  |    O          39      -89.01      88.22      0.13  -3.199E+00   0.06 |
  |    O          40       -8.53      56.06      0.84   3.870E+00   0.91 |
  |    O          41       -9.94      55.77      0.76   3.868E+00   0.91 |
  |    O          42      -89.27      87.42      0.20  -3.161E+00   0.05 |
  |    O          43      -89.83      87.51      0.10  -3.163E+00   0.04 |
  |    O          44      -11.34      59.51      0.41   3.926E+00   0.86 |
  |    O          45      -84.78      85.55      0.11  -3.217E+00   0.08 |
  |    O          46      -88.42      88.17      0.12  -3.162E+00   0.03 |
  |    O          47       -7.87      55.60      0.83   3.884E+00   0.91 |
  |    O          48     -161.30     146.77      0.84   1.077E+00   0.62 |
  |    O          49      -88.42      88.16      0.12  -3.162E+00   0.03 |
  |    O          50      -84.78      85.56      0.11  -3.217E+00   0.08 |
  |    O          51      -88.42      88.18      0.12  -3.162E+00   0.03 |
  |    O          52      -84.78      85.55      0.11  -3.217E+00   0.08 |
  |    O          53       -7.87      55.60      0.83   3.884E+00   0.91 |
  |    O          54     -161.30     146.77      0.84   1.077E+00   0.62 |
  |    O          55      -88.42      88.17      0.12  -3.162E+00   0.03 |
  |    O          56      -84.78      85.55      0.11  -3.217E+00   0.08 |
  |    Zr          1     1626.29    -126.48      0.18  -3.633E+01   0.09 |
  |    Zr          2     1596.90    -106.73      0.03  -3.381E+01   0.02 |
  |    Zr          3     1596.90    -106.73      0.03  -3.381E+01   0.02 |
  |    Zr          4     1611.30    -111.70      0.09  -3.425E+01   0.11 |
[...]
  |    La          2     4538.78     390.75      0.09  -7.324E+01   0.11 |
  |    La          3     4656.94     654.35      0.08  -8.372E+01   0.13 |
  |    La          4     4656.94     654.34      0.08  -8.372E+01   0.13 |
  |    La          5     4538.78     390.75      0.09  -7.324E+01   0.11 |
  |    La          6     4656.94     654.35      0.08  -8.372E+01   0.13 |
  |    La          7     4656.94     654.34      0.08  -8.372E+01   0.13 |
  |    La          8     4603.38     540.39      0.07  -8.003E+01   0.17 |
  |    La          9     4484.40     241.61      0.01  -7.040E+01   0.01 |
  |    La         10     4610.46     537.78      0.04  -8.098E+01   0.16 |
  |    La         11     4484.40     241.61      0.01  -7.040E+01   0.01 |
  |    La         12     4610.46     537.78      0.04  -8.098E+01   0.16 |
  |    La         13     4603.38     540.39      0.07  -8.003E+01   0.17 |
  |    La         14     4610.46     537.77      0.04  -8.098E+01   0.16 |
  |    La         15     4610.46     537.77      0.04  -8.098E+01   0.16 |
  |    La         16     4603.17     543.50      0.06  -7.987E+01   0.15 |

 *********************** Forces ***********************
 *            Cartesian components (eV/A)             *
 *                   x            y            z      *
 * O         1     -0.01056     -0.01056      0.01663 *
 * O         2     -0.00606     -0.01050      0.01691 *
 * O         3     -0.01051     -0.00606      0.01692 *
 * O         4     -0.00838     -0.00838      0.01319 *
 * O         5      0.01051      0.00606     -0.01692 *
 * O         6      0.01056      0.01056     -0.01662 *
 * O         7      0.00838      0.00838     -0.01319 *
 * O         8      0.00606      0.01051     -0.01692 *
 * O         9     -0.01390      0.00246     -0.02588 *
 * O        10     -0.00740      0.00041     -0.01432 *
 * O        11      0.00258      0.00375      0.00382 *
 * O        12     -0.00687      0.01003     -0.02394 *
 * O        13      0.00246     -0.01390     -0.02589 *
 * O        14     -0.01193     -0.00994     -0.00941 *
 * O        15      0.00375      0.00258      0.00382 *
 * O        16      0.00281     -0.00941     -0.02155 *
 * O        17     -0.01199     -0.01199     -0.01046 *
 * O        18      0.00500      0.00651     -0.00735 *
 * O        19      0.01776      0.01776      0.01053 *
 * O        20     -0.00572     -0.01004     -0.00339 *
 * O        21     -0.00041      0.00740      0.01431 *
 * O        22     -0.00246      0.01390      0.02589 *
 * O        23     -0.01002      0.00687      0.02395 *
 * O        24     -0.00375     -0.00257     -0.00382 *
 * O        25     -0.00258     -0.00375     -0.00382 *
 * O        26      0.00940     -0.00281      0.02155 *
 * O        27      0.01390     -0.00246      0.02588 *
 * O        28      0.00995      0.01193      0.00942 *
 * O        29      0.01004      0.00572      0.00340 *
 * O        30     -0.01776     -0.01775     -0.01053 *
 * O        31     -0.00651     -0.00500      0.00735 *
 * O        32      0.01199      0.01199      0.01046 *
 * O        33      0.00740     -0.00041      0.01432 *
 * O        34      0.00687     -0.01003      0.02394 *
 * O        35      0.01193      0.00995      0.00942 *
 * O        36     -0.00281      0.00941      0.02155 *
 * O        37     -0.00500     -0.00651      0.00735 *
 * O        38      0.00572      0.01005      0.00340 *
 * O        39      0.00041     -0.00740     -0.01432 *
 * O        40      0.01003     -0.00687     -0.02394 *
 * O        41     -0.00941      0.00281     -0.02156 *
 * O        42     -0.00994     -0.01193     -0.00942 *
 * O        43     -0.01004     -0.00572     -0.00340 *
 * O        44      0.00651      0.00500     -0.00735 *
 * O        45      0.02464      0.03711      0.00714 *
 * O        46      0.00327     -0.00411      0.00404 *
 * O        47      0.01360      0.01360      0.00721 *
 * O        48      0.02310      0.02310     -0.02672 *
 * O        49      0.00412     -0.00327     -0.00405 *
 * O        50     -0.03710     -0.02464     -0.00714 *
 * O        51     -0.00327      0.00411     -0.00405 *
 * O        52     -0.02464     -0.03711     -0.00714 *
 * O        53     -0.01361     -0.01360     -0.00721 *
 * O        54     -0.02310     -0.02310      0.02673 *
 * O        55     -0.00412      0.00327      0.00405 *
 * O        56      0.03710      0.02464      0.00714 *
 * Zr        1     -0.00001     -0.00000     -0.00000 *
 * Zr        2      0.00421     -0.00421      0.00000 *
 * Zr        3     -0.00421      0.00422     -0.00000 *
 * Zr        4     -0.00080     -0.00079      0.02524 *
[...]
 * La        2      0.00374     -0.00375      0.00000 *
 * La        3     -0.00215     -0.00526      0.00371 *
 * La        4      0.00526      0.00215     -0.00372 *
 * La        5     -0.00375      0.00374     -0.00000 *
 * La        6      0.00215      0.00526     -0.00372 *
 * La        7     -0.00526     -0.00215      0.00371 *
 * La        8      0.00000      0.00000     -0.00000 *
 * La        9     -0.01174     -0.01175      0.01723 *
 * La       10      0.00642     -0.01806      0.01205 *
 * La       11      0.01174      0.01174     -0.01722 *
 * La       12     -0.00642      0.01807     -0.01206 *
 * La       13      0.00000      0.00000      0.00000 *
 * La       14      0.01807     -0.00642     -0.01205 *
 * La       15     -0.01806      0.00643      0.01205 *
 * La       16      0.00000      0.00000      0.00001 *

 ***************** Stress Tensor *****************
 *          Cartesian components (GPa)           *
 *             x             y             z     *
 *  x      0.001759     -0.018596     -0.011570  *
 *  y     -0.018596      0.001759     -0.011571  *
 *  z     -0.011570     -0.011571     -0.003886  *
 *  Pressure:    0.0001                          *

[...]

 Pseudo atomic calculation performed for Sn 4d10 5s2 5p2

[...]

 Pseudo atomic calculation performed for La 5s2 5p6 5d1 6s2

 Converged in 34 iterations to a total energy of -968.0373 eV

Charge spilling parameter for spin component 1 = 0.25%

     Atomic Populations (Mulliken)
Species   Ion     s      p      d      f     Total  Charge (e)
  O        1     1.87   5.00   0.00   0.00   6.87    -0.87
  O        2     1.87   5.00   0.00   0.00   6.87    -0.87
  O        3     1.87   5.00   0.00   0.00   6.87    -0.87
  O        4     1.87   5.00   0.00   0.00   6.87    -0.87
  O        5     1.87   5.00   0.00   0.00   6.87    -0.87
  O        6     1.87   5.00   0.00   0.00   6.87    -0.87
  O        7     1.87   5.00   0.00   0.00   6.87    -0.87
  O        8     1.87   5.00   0.00   0.00   6.87    -0.87
  O        9     1.88   5.03   0.00   0.00   6.91    -0.91
  O       10     1.87   4.99   0.00   0.00   6.86    -0.86
  O       11     1.87   4.99   0.00   0.00   6.86    -0.86
  O       12     1.88   5.03   0.00   0.00   6.91    -0.91
  O       13     1.88   5.03   0.00   0.00   6.91    -0.91
  O       14     1.87   4.99   0.00   0.00   6.86    -0.86
  O       15     1.87   4.99   0.00   0.00   6.86    -0.86
  O       16     1.88   5.03   0.00   0.00   6.91    -0.91
  O       17     1.87   4.99   0.00   0.00   6.86    -0.86
  O       18     1.88   5.03   0.00   0.00   6.91    -0.91
  O       19     1.88   5.03   0.00   0.00   6.91    -0.91
  O       20     1.87   4.99   0.00   0.00   6.86    -0.86
  O       21     1.87   4.99   0.00   0.00   6.86    -0.86
  O       22     1.88   5.03   0.00   0.00   6.91    -0.91
  O       23     1.88   5.03   0.00   0.00   6.91    -0.91
  O       24     1.87   4.99   0.00   0.00   6.86    -0.86
  O       25     1.87   4.99   0.00   0.00   6.86    -0.86
  O       26     1.88   5.03   0.00   0.00   6.91    -0.91
  O       27     1.88   5.03   0.00   0.00   6.91    -0.91
  O       28     1.87   4.99   0.00   0.00   6.86    -0.86
  O       29     1.87   4.99   0.00   0.00   6.86    -0.86
  O       30     1.88   5.03   0.00   0.00   6.91    -0.91
  O       31     1.88   5.03   0.00   0.00   6.91    -0.91
  O       32     1.87   4.99   0.00   0.00   6.86    -0.86
  O       33     1.87   4.99   0.00   0.00   6.86    -0.86
  O       34     1.88   5.03   0.00   0.00   6.91    -0.91
  O       35     1.87   4.99   0.00   0.00   6.86    -0.86
  O       36     1.88   5.03   0.00   0.00   6.91    -0.91
  O       37     1.88   5.03   0.00   0.00   6.91    -0.91
  O       38     1.87   4.99   0.00   0.00   6.86    -0.86
  O       39     1.87   4.99   0.00   0.00   6.86    -0.86
  O       40     1.88   5.03   0.00   0.00   6.91    -0.91
  O       41     1.88   5.03   0.00   0.00   6.91    -0.91
  O       42     1.87   4.99   0.00   0.00   6.86    -0.86
  O       43     1.87   4.99   0.00   0.00   6.86    -0.86
  O       44     1.88   5.03   0.00   0.00   6.91    -0.91
  O       45     1.87   4.99   0.00   0.00   6.86    -0.86
  O       46     1.87   4.99   0.00   0.00   6.86    -0.86
  O       47     1.88   5.03   0.00   0.00   6.91    -0.91
  O       48     1.86   4.95   0.00   0.00   6.80    -0.80
  O       49     1.87   4.99   0.00   0.00   6.86    -0.86
  O       50     1.87   4.99   0.00   0.00   6.86    -0.86
  O       51     1.87   4.99   0.00   0.00   6.86    -0.86
  O       52     1.87   4.99   0.00   0.00   6.86    -0.86
  O       53     1.88   5.03   0.00   0.00   6.91    -0.91
  O       54     1.86   4.95   0.00   0.00   6.80    -0.80
  O       55     1.87   4.99   0.00   0.00   6.86    -0.86
  O       56     1.87   4.99   0.00   0.00   6.86    -0.86
  Zr       1     2.37   6.48   1.92   0.00  10.77     1.23
  Zr       2     2.36   6.50   1.92   0.00  10.78     1.22
  Zr       3     2.36   6.50   1.92   0.00  10.78     1.22
  Zr       4     2.36   6.49   1.92   0.00  10.77     1.23
[...]
  La       2     2.13   6.18   1.19   0.00   9.50     1.50
  La       3     2.03   6.17   1.20   0.00   9.40     1.60
  La       4     2.03   6.17   1.20   0.00   9.40     1.60
  La       5     2.13   6.18   1.19   0.00   9.50     1.50
  La       6     2.03   6.17   1.20   0.00   9.40     1.60
  La       7     2.03   6.17   1.20   0.00   9.40     1.60
  La       8     2.05   6.18   1.20   0.00   9.43     1.57
  La       9     2.15   6.19   1.19   0.00   9.53     1.47
  La      10     2.05   6.19   1.19   0.00   9.43     1.57
  La      11     2.15   6.19   1.19   0.00   9.53     1.47
  La      12     2.05   6.19   1.19   0.00   9.43     1.57
  La      13     2.05   6.18   1.20   0.00   9.43     1.57
  La      14     2.05   6.19   1.19   0.00   9.43     1.57
  La      15     2.05   6.19   1.19   0.00   9.43     1.57
  La      16     2.06   6.18   1.20   0.00   9.44     1.56

            Bond              Population      Length (A)
         O 56 -- Sn 6              0.34        2.10497
         O 52 -- Sn 9              0.34        2.10497
         O 45 -- Sn 10             0.34        2.10497
         O 50 -- Sn 7              0.34        2.10497
         O 39 -- Sn 2              0.35        2.10619
         O 21 -- Sn 4              0.35        2.10619
         O 33 -- Sn 1              0.35        2.10619
         O 10 -- Sn 3              0.35        2.10619
         O 14 -- Sn 9              0.34        2.10665
         O 28 -- Sn 6              0.34        2.10665
         O 35 -- Sn 10             0.34        2.10665
         O 42 -- Sn 7              0.34        2.10665
         O 32 -- Sn 11             0.35        2.10674
         O 17 -- Sn 11             0.35        2.10674
         O 13 -- Sn 7              0.34        2.10740
         O 22 -- Sn 6              0.34        2.10740
         O 27 -- Sn 10             0.34        2.10740
         O 9  -- Sn 9              0.34        2.10740
         O 49 -- Sn 2              0.35        2.10743
         O 46 -- Sn 1              0.35        2.10743
         O 51 -- Sn 3              0.35        2.10743
         O 55 -- Sn 4              0.35        2.10743
         O 29 -- Sn 8              0.35        2.10799
         O 20 -- Sn 5              0.35        2.10799
         O 43 -- Sn 8              0.35        2.10799
         O 38 -- Sn 5              0.35        2.10799
         O 18 -- Sn 4              0.33        2.10856
         O 37 -- Sn 2              0.33        2.10856
         O 31 -- Sn 3              0.33        2.10856
         O 44 -- Sn 1              0.33        2.10856
         O 11 -- Sn 6              0.34        2.10884
         O 15 -- Sn 10             0.34        2.10884
         O 24 -- Sn 9              0.34        2.10884
         O 25 -- Sn 7              0.34        2.10884
         O 44 -- Sn 9              0.33        2.11045
         O 18 -- Sn 7              0.33        2.11045
         O 37 -- Sn 6              0.33        2.11045
         O 31 -- Sn 10             0.33        2.11045
         O 22 -- Sn 8              0.33        2.11090
         O 13 -- Sn 8              0.33        2.11090
         O 27 -- Sn 5              0.33        2.11090
         O 9  -- Sn 5              0.33        2.11090
         O 47 -- Sn 3              0.33        2.11139
         O 53 -- Sn 4              0.33        2.11139
         O 53 -- Sn 1              0.33        2.11139
         O 47 -- Sn 2              0.33        2.11139
         O 40 -- Sn 5              0.33        2.11207
         O 34 -- Sn 8              0.33        2.11207
         O 12 -- Sn 8              0.33        2.11207
         O 23 -- Sn 5              0.33        2.11207
         O 16 -- Sn 3              0.33        2.11227
         O 41 -- Sn 2              0.33        2.11227
         O 36 -- Sn 1              0.33        2.11227
         O 26 -- Sn 4              0.33        2.11227
         O 41 -- Sn 11             0.33        2.11230
         O 36 -- Sn 11             0.33        2.11230
         O 26 -- Sn 11             0.33        2.11230
         O 16 -- Sn 11             0.33        2.11230
         O 12 -- Sn 4              0.33        2.11296
         O 23 -- Sn 3              0.33        2.11296
[...]
         O 35 -- O 43             -0.03        2.82899
         O 43 -- O 51             -0.03        2.83070
         O 29 -- O 46             -0.03        2.83070
         O 38 -- O 55             -0.03        2.83070
         O 20 -- O 49             -0.03        2.83070
         O 25 -- O 39             -0.03        2.83123
         O 11 -- O 21             -0.03        2.83123
         O 15 -- O 33             -0.03        2.83123
         O 10 -- O 24             -0.03        2.83123
         O 51 -- O 55             -0.03        2.83146
         O 46 -- O 49             -0.03        2.83146
         O 17 -- O 25             -0.03        2.83342
         O 15 -- O 32             -0.03        2.83342
         O 11 -- O 32             -0.03        2.83342
         O 17 -- O 24             -0.03        2.83342

Initialisation time =     24.93 s
Calculation time    =   2692.48 s
Finalisation time   =      0.12 s
Total time          =   2717.53 s

Overall parallel efficiency rating: Good (73%)

Data was distributed by:-
G-vector (64-way); efficiency rating: Good (74%)
k-point (14-way); efficiency rating: Excellent (96%)