 Run started: Wed, 30 Mar 2022 00:33:23 -0100
 |           N   N    M   M    RRRR                |
 |           NN  N    MM MM    R   R               |
 |           N N N    M M M    RRRR                |
 |           N  NN    M   M    R  R                |
 |           N   N    M   M    R   R               |
 | Welcome to Materials Studio CASTEP-NMR          |
 | Authors:                                        |
 | J.R. Yates, C.J. Pickard, F. Mauri              |
 | Contributors:                                   |
 | T.F.G. Green, S.A. Joyce                        |
 | Copyright (c) 2004 - 2015                       |
 | Please cite the appropriate publications in all |
 | work arising from your use of CASTEP NMR.       |
 | For NMR Shielding Tensors cite:                 |
 |    "All-electron magnetic response with         |
 |    pseudopotentials: NMR chemical shifts",      |
 |    C. J. Pickard, F. Mauri;                     |
 |    Physical Review B63 245101 (2001), and       |
 |    "Calculation of NMR Chemical Shifts          |
 |    for extended systems using                   |
 |    Ultrasoft Pseudopotentials",                 |
 |    J. R. Yates, C. J. Pickard and F. Mauri      |
 |    Physical Review B76 024401 (2007)            |
 | For Electric Field Gradients cite:              |
 |   "Accurate First Principles Prediction of 17O  |
 |    NMR Parameters in SiO2: Assignment of the    |
 |    Zeolite Ferrierite Spectrum"                 |
 |    M. Profeta, F. Mauri and C. J. Pickard       |
 |    J. Amer. Chem. Soc. 125 541 (2003)           |
 | For Spin-Spin (J) Couplings cite:               |
 |   "A first principles theory of NMR J-coupling  |
 |   in solid-state systems"                       |
 |   S.A. Joyce, J.R. Yates, C.J. Pickard, F. Mauri|
 |   J. Chem. Phys. 127 204107 (2007)              |
 |   "Relativistic NMR J-coupling with ultrasoft   |
 |   pseudopotentials and the zeroth-order regular |
 |   approximation"                                |
 |   T.F.G. Green and J.R. Yates                   |
 |   J. Chem. Phys. 140 234106 (2014)              |

 Atomic calculation performed for O: 1s2 2s2 2p4

 Converged in 44 iterations to an ae energy of -2040.855 eV

 Atomic calculation performed for O: 1s2 2s2 2p4

 Exceeded max iterations: converged to 0.000000062 eV

   | Pseudopotential Report - Date of generation 30-03-2022   |
   | Element: O Ionic charge:  6.00 Level of theory: PBE      |
   | Atomic Solver: ZORA (scalar)                             |
   |               Reference Electronic Structure             |
   |         Orbital         Occupation         Energy        |
   |            2s              2.000           -0.881        |
   |            2p              4.000           -0.332        |
   |                 Pseudopotential Definition               |
   |        Beta     l      e      Rc     scheme   norm       |
   |          1      0   -0.881   1.100     qc      0         |
   |          2      0    0.250   1.100     qc      0         |
   |          3      1   -0.332   1.100     qc      0         |
   |          4      1    0.250   1.100     qc      0         |
   |         loc     2    0.000   1.100     pn      0         |
   | Augmentation charge Rinner = 0.769                       |
   | Partial core correction Rc = 0.769                       |
   | "2|1.1|15|18|20|20:21(qc=7)"                             |
   |      Author: Chris J. Pickard, Cambridge University      |

 Atomic calculation performed for Zr: 1s2 2s2 2p6 3s2 3p6 3d10 4s2 4p6 4d2 5s2

[...]

 Atomic calculation performed for Zr: 1s2 2s2 2p6 3s2 3p6 3d10 4s2 4p6 4d2 5s2

[...]

 Warning: ion_atom_descreen_psp: negative charge density encountered
   | Pseudopotential Report - Date of generation 30-03-2022   |
   | Element: Zr Ionic charge: 12.00 Level of theory: PBE     |
   | Atomic Solver: ZORA (scalar)                             |
   |               Reference Electronic Structure             |
   |         Orbital         Occupation         Energy        |
   |            4s              2.000           -2.003        |
   |            4p              6.000           -1.193        |
   |            5s              2.000           -0.163        |
   |            4d              2.000           -0.132        |
   |                 Pseudopotential Definition               |
   |        Beta     l      e      Rc     scheme   norm       |
   |          1      0   -2.003   2.105     qc      0         |
   |          2      0   -0.163   2.105     qc      0         |
   |          3      0    0.250   2.105     qc      0         |
   |          4      1   -1.193   2.105     qc      0         |
   |          5      1    0.250   2.105     qc      0         |
   |          6      2   -0.132   2.105     qc      0         |
   |          7      2    0.250   2.105     qc      0         |
   |         loc     3    0.000   2.105     pn      0         |
   | Augmentation charge Rinner = 1.471                       |
   | Partial core correction Rc = 1.471                       |
   | "3|2.1|7|8|9|40U:50:41:42"                               |
   |      Author: Chris J. Pickard, Cambridge University      |

 Atomic calculation performed for Sn:

[...]

 Atomic calculation performed for Sn:

[...]

   | Pseudopotential Report - Date of generation 30-03-2022   |
   | Element: Sn Ionic charge: 14.00 Level of theory: PBE     |
   | Atomic Solver: ZORA (scalar)                             |
   |               Reference Electronic Structure             |
   |         Orbital         Occupation         Energy        |
   |            4d             10.000           -0.950        |
   |            5s              2.000           -0.388        |
   |            5p              2.000           -0.136        |
   |                 Pseudopotential Definition               |
   |        Beta     l      e      Rc     scheme   norm       |
   |          1      0   -0.388   2.199     qc      0         |
   |          2      0    0.250   2.199     qc      0         |
   |          3      1   -0.136   2.199     qc      0         |
   |          4      1    0.250   2.199     qc      0         |
   |          5      2   -0.950   2.199     qc      0         |
   |          6      2    0.250   2.199     qc      0         |
   |         loc     3    0.000   2.199     pn      0         |
   | Augmentation charge Rinner = 1.537                       |
   | Partial core correction Rc = 1.537                       |
   | "3|2.2|7|8|9|50:51:42"                                   |
   |      Author: Chris J. Pickard, Cambridge University      |

 Atomic calculation performed for La:

 Converged in 55 iterations to an ae energy of -230121.495 eV

 Atomic calculation performed for La:

 Exceeded max iterations: converged to 0.000001134 eV

 Warning: ion_atom_descreen_psp: negative charge density encountered
   | Pseudopotential Report - Date of generation 30-03-2022   |
   | Element: La Ionic charge: 11.00 Level of theory: PBE     |
   | Atomic Solver: ZORA (scalar)                             |
   |               Reference Electronic Structure             |
   |         Orbital         Occupation         Energy        |
   |            5s              2.000           -1.430        |
   |            5p              6.000           -0.823        |
   |            6s              2.000           -0.135        |
   |            5d              1.000           -0.114        |
   |                 Pseudopotential Definition               |
   |        Beta     l      e      Rc     scheme   norm       |
   |          1      0   -1.430   2.298     qc      0         |
   |          2      0   -0.135   2.298     qc      0         |
   |          3      0    0.250   2.298     qc      0         |
   |          4      1   -0.823   2.298     qc      0         |
   |          5      1    0.250   2.298     qc      0         |
   |          6      2   -0.114   2.298     qc      0         |
   |          7      2    0.250   2.298     qc      0         |
   |         loc     2    0.000   2.298     pn      0         |
   | Augmentation charge Rinner = 1.606                       |
   | Partial core correction Rc = 1.606                       |
   | "2|2.3|5|6|7|50U:60:51:52(qc=4.5)"                       |
   |      Author: Chris J. Pickard, Cambridge University      |

 Pseudo atomic calculation performed for O 2s2 2p4

 Converged in 39 iterations to a total energy of -432.6554 eV

 Pseudo atomic calculation performed for Zr 4s2 4p6 4d2 5s2

[...]

 Calculation parallelised over 896 processes.
 Data is distributed by G-vector(64-way) and k-point(14-way)

 ************************************ Title ************************************
 nmr testing

 ***************************** General Parameters ******************************

 output verbosity                               : normal  (1)
 write checkpoint data to                       : 32.check
 type of calculation                            : Magnetic Resonance
 stress calculation                             : on
 density difference calculation                 : off
 electron localisation func (ELF) calculation   : off
 Hirshfeld analysis                             : off
 unlimited duration calculation
 timing information                             : on
 write final potential to formatted file        : off
 write final density to formatted file          : off
 write BibTeX reference list                    : off
 write OTFG pseudopotential files               : on
 checkpoint writing                             : off

 output         length unit                     : A
 output           mass unit                     : amu
 output           time unit                     : ps
 output         charge unit                     : e
 output           spin unit                     : hbar/2
 output         energy unit                     : eV
 output          force unit                     : eV/A
 output       velocity unit                     : A/ps
 output       pressure unit                     : GPa
 output     inv_length unit                     : 1/A
 output      frequency unit                     : cm-1
 output force constant unit                     : eV/A**2
 output         volume unit                     : A**3
 output   IR intensity unit                     : (D/A)**2/amu
 output         dipole unit                     : D
 output         efield unit                     : eV/A/e
 output        entropy unit                     : J/mol/K

 wavefunctions paging                           : none
 random number generator seed                   : randomised (3323198)
 data distribution                              : optimal for this architecture
 optimization strategy                          : maximize speed(+++)

 *********************** Exchange-Correlation Parameters ***********************

 using functional                               : Perdew Burke Ernzerhof
 relativistic treatment                         : ZORA
 DFT+D: Semi-empirical dispersion correction    : off

 ************************* Pseudopotential Parameters **************************

[...]
  |    O          39      -86.76      84.46      0.06  -3.183E+00   0.07 |
  |    O          40      -18.21      36.90      0.88   3.878E+00   0.88 |
  |    O          41        0.32     -68.14      0.87   3.736E+00   1.00 |
  |    O          42      -86.56      87.79      0.24  -3.226E+00   0.08 |
  |    O          43      -91.29      81.27      0.09  -3.221E+00   0.09 |
  |    O          44      -20.79      38.05      0.87   3.861E+00   0.88 |
  |    O          45     -163.51     163.27      0.80   1.026E+00   0.85 |
  |    O          46      -17.59     -44.96      0.39   3.772E+00   0.97 |
  |    O          47      -83.42      88.09      0.19  -3.195E+00   0.07 |
  |    O          48      -83.94      86.04      0.18  -3.146E+00   0.05 |
  |    O          49      -16.30     -42.69      0.65   3.829E+00   0.93 |
  |    O          50      -87.05      85.40      0.17  -3.191E+00   0.09 |
  |    O          51     -158.78     148.11      0.78   1.074E+00   0.59 |
  |    O          52      -82.04      87.14      0.20  -3.160E+00   0.04 |
  |    O          53      -17.65     -41.83      0.62   3.829E+00   0.93 |
  |    O          54     -162.37     159.37      0.82   1.031E+00   0.77 |
  |    O          55      -87.87      88.40      0.13  -3.181E+00   0.06 |
  |    O          56      -84.95      85.35      0.04  -3.203E+00   0.07 |
  |    Zr          1     1626.62    -122.91      0.11  -3.567E+01   0.10 |
  |    Zr          2     1616.21    -116.17      0.15  -3.579E+01   0.12 |
  |    Zr          3     1631.00    -122.42      0.13  -3.664E+01   0.16 |
  |    Zr          4     1626.32    -121.25      0.10  -3.547E+01   0.13 |
[...]
  |    La          2     4553.72     386.61      0.06  -7.643E+01   0.12 |
  |    La          3     4696.75     761.83      0.04  -8.513E+01   0.09 |
  |    La          4     4603.97     525.17      0.08  -7.987E+01   0.12 |
  |    La          5     4644.91     637.62      0.01  -8.077E+01   0.02 |
  |    La          6     4563.63     383.88      0.04  -7.795E+01   0.12 |
  |    La          7     4649.93     637.19      0.00  -8.247E+01   0.03 |
  |    La          8     4554.01     386.07      0.06  -7.651E+01   0.11 |
  |    La          9     4555.47     392.26      0.06  -7.659E+01   0.12 |
  |    La         10     4604.09     545.20      0.07  -7.990E+01   0.21 |
  |    La         11     4545.50     393.45      0.07  -7.518E+01   0.13 |
  |    La         12     4554.89     391.10      0.06  -7.671E+01   0.13 |
  |    La         13     4650.91     634.68      0.00  -8.221E+01   0.02 |
  |    La         14     4602.42     514.47      0.08  -7.943E+01   0.10 |
  |    La         15     4563.92     385.28      0.04  -7.797E+01   0.10 |
  |    La         16     4602.74     513.28      0.08  -7.923E+01   0.09 |

 *********************** Forces ***********************
 *            Cartesian components (eV/A)             *
 *                   x            y            z      *
 * O         1      0.01808     -0.00464     -0.00228 *
 * O         2     -0.01514     -0.00378      0.00897 *
 * O         3      0.01552      0.00119      0.00825 *
 * O         4     -0.02112      0.00359     -0.00266 *
 * O         5      0.00861      0.00578      0.01196 *
 * O         6      0.00159     -0.00146     -0.01331 *
 * O         7     -0.00476      0.00150     -0.01041 *
 * O         8     -0.00438     -0.00305      0.00381 *
 * O         9      0.00158      0.00178     -0.01144 *
 * O        10      0.00627     -0.00024      0.00309 *
 * O        11      0.04460      0.00034      0.00076 *
 * O        12     -0.02476     -0.00188      0.00156 *
 * O        13      0.00657     -0.01722     -0.00411 *
 * O        14     -0.00395      0.01278     -0.00974 *
 * O        15      0.00041     -0.00621      0.01886 *
 * O        16      0.00771      0.01401      0.01186 *
 * O        17      0.00568      0.00914      0.00451 *
 * O        18      0.00278     -0.00666      0.00918 *
 * O        19     -0.00123      0.01808     -0.01330 *
 * O        20     -0.00094     -0.00028     -0.00381 *
 * O        21      0.00961     -0.01269      0.00732 *
 * O        22      0.00560      0.00439      0.00134 *
 * O        23     -0.01667     -0.00578     -0.00393 *
 * O        24     -0.01837      0.00381      0.00142 *
 * O        25      0.00372     -0.00479      0.00441 *
 * O        26     -0.00560     -0.00269      0.01018 *
 * O        27     -0.00731     -0.00891     -0.01106 *
 * O        28     -0.00224      0.00404     -0.00227 *
 * O        29      0.00304      0.00219      0.02151 *
 * O        30     -0.01071     -0.00168     -0.03341 *
 * O        31     -0.00101     -0.00057     -0.00251 *
 * O        32      0.00412      0.00279      0.01151 *
 * O        33     -0.00161     -0.00305      0.00465 *
 * O        34     -0.00464     -0.00827      0.00152 *
 * O        35      0.00870     -0.01217      0.00124 *
 * O        36     -0.00074      0.00949      0.01134 *
 * O        37      0.00666     -0.00149     -0.00254 *
 * O        38     -0.00748     -0.00772      0.00259 *
 * O        39     -0.00091     -0.00363     -0.01395 *
 * O        40     -0.00408     -0.00096     -0.00250 *
 * O        41     -0.03670      0.00047      0.00282 *
 * O        42     -0.01067      0.00649     -0.00906 *
 * O        43      0.00963      0.00823      0.01149 *
 * O        44     -0.00123      0.00142     -0.00136 *
 * O        45      0.00065      0.00951     -0.00351 *
 * O        46      0.02152      0.00259     -0.00012 *
 * O        47      0.01402     -0.00188     -0.01406 *
 * O        48     -0.00615     -0.00746      0.00488 *
 * O        49     -0.00214     -0.01240     -0.00919 *
 * O        50      0.00539     -0.00955      0.00452 *
 * O        51     -0.01284      0.00147     -0.00705 *
 * O        52     -0.00911      0.01269      0.00786 *
 * O        53     -0.00217     -0.00761     -0.00945 *
 * O        54     -0.00132      0.00197      0.00976 *
 * O        55      0.01623     -0.00900     -0.00367 *
 * O        56      0.00063      0.00956     -0.01292 *
 * Zr        1      0.00819     -0.00548     -0.00659 *
 * Zr        2     -0.01276     -0.00561      0.00821 *
 * Zr        3     -0.00366      0.00656     -0.00999 *
 * Zr        4      0.00284     -0.00453     -0.00399 *
[...]
 * La        2      0.01077      0.00525     -0.01514 *
 * La        3     -0.00969     -0.00854      0.00731 *
 * La        4      0.01959     -0.00593     -0.00819 *
 * La        5     -0.00682      0.00354     -0.01682 *
 * La        6      0.00579     -0.00471      0.00089 *
 * La        7      0.02092     -0.00441     -0.00047 *
 * La        8     -0.02379     -0.00930     -0.01797 *
 * La        9      0.00477     -0.00142      0.00953 *
 * La       10     -0.01472      0.00707     -0.00667 *
 * La       11     -0.01473     -0.00453      0.02035 *
 * La       12      0.00961      0.00324      0.00640 *
 * La       13      0.01738      0.00763     -0.01037 *
 * La       14     -0.02435      0.00572      0.01102 *
 * La       15     -0.01142      0.00194      0.00017 *
 * La       16      0.01832      0.00141      0.02132 *

 ***************** Stress Tensor *****************
 *          Cartesian components (GPa)           *
 *             x             y             z     *
 *  x      0.007823     -0.008138      0.001686  *
 *  y     -0.008138      0.025875      0.001790  *
 *  z      0.001686      0.001790      0.016110  *
 *  Pressure:   -0.0166                          *

[...]

 Pseudo atomic calculation performed for Sn 4d10 5s2 5p2

[...]

 Pseudo atomic calculation performed for La 5s2 5p6 5d1 6s2

 Converged in 34 iterations to a total energy of -968.0373 eV

Charge spilling parameter for spin component 1 = 0.26%

     Atomic Populations (Mulliken)
Species   Ion     s      p      d      f     Total  Charge (e)
  O        1     1.87   5.00   0.00   0.00   6.87    -0.87
  O        2     1.87   5.00   0.00   0.00   6.87    -0.87
  O        3     1.87   5.00   0.00   0.00   6.87    -0.87
  O        4     1.87   5.00   0.00   0.00   6.87    -0.87
  O        5     1.87   5.00   0.00   0.00   6.87    -0.87
  O        6     1.87   5.00   0.00   0.00   6.87    -0.87
  O        7     1.87   5.00   0.00   0.00   6.87    -0.87
  O        8     1.87   5.00   0.00   0.00   6.87    -0.87
  O        9     1.88   5.03   0.00   0.00   6.91    -0.91
  O       10     1.86   4.95   0.00   0.00   6.80    -0.80
  O       11     1.88   5.03   0.00   0.00   6.91    -0.91
  O       12     1.88   5.03   0.00   0.00   6.91    -0.91
  O       13     1.88   5.03   0.00   0.00   6.91    -0.91
  O       14     1.88   5.03   0.00   0.00   6.91    -0.91
  O       15     1.87   4.99   0.00   0.00   6.86    -0.86
  O       16     1.87   4.99   0.00   0.00   6.86    -0.86
  O       17     1.87   4.99   0.00   0.00   6.86    -0.86
  O       18     1.88   5.03   0.00   0.00   6.91    -0.91
  O       19     1.87   4.99   0.00   0.00   6.86    -0.86
  O       20     1.88   5.03   0.00   0.00   6.91    -0.91
  O       21     1.88   5.03   0.00   0.00   6.91    -0.91
  O       22     1.88   5.03   0.00   0.00   6.91    -0.91
  O       23     1.87   4.99   0.00   0.00   6.86    -0.86
  O       24     1.87   4.99   0.00   0.00   6.86    -0.86
  O       25     1.87   4.99   0.00   0.00   6.86    -0.86
  O       26     1.88   5.03   0.00   0.00   6.91    -0.91
  O       27     1.87   4.99   0.00   0.00   6.86    -0.86
  O       28     1.88   5.03   0.00   0.00   6.91    -0.91
  O       29     1.88   5.03   0.00   0.00   6.91    -0.91
  O       30     1.88   5.03   0.00   0.00   6.91    -0.91
  O       31     1.86   4.95   0.00   0.00   6.80    -0.80
  O       32     1.88   5.03   0.00   0.00   6.91    -0.91
  O       33     1.88   5.03   0.00   0.00   6.91    -0.91
  O       34     1.88   5.03   0.00   0.00   6.91    -0.91
  O       35     1.86   4.95   0.00   0.00   6.80    -0.80
  O       36     1.88   5.03   0.00   0.00   6.91    -0.91
  O       37     1.88   5.03   0.00   0.00   6.91    -0.91
  O       38     1.87   4.99   0.00   0.00   6.86    -0.86
  O       39     1.87   4.99   0.00   0.00   6.86    -0.86
  O       40     1.88   5.03   0.00   0.00   6.91    -0.91
  O       41     1.88   5.03   0.00   0.00   6.91    -0.91
  O       42     1.87   4.99   0.00   0.00   6.86    -0.86
  O       43     1.87   4.99   0.00   0.00   6.86    -0.86
  O       44     1.88   5.03   0.00   0.00   6.91    -0.91
  O       45     1.86   4.95   0.00   0.00   6.80    -0.80
  O       46     1.89   5.03   0.00   0.00   6.91    -0.91
  O       47     1.87   4.99   0.00   0.00   6.86    -0.86
  O       48     1.87   4.99   0.00   0.00   6.86    -0.86
  O       49     1.88   5.03   0.00   0.00   6.91    -0.91
  O       50     1.87   4.99   0.00   0.00   6.86    -0.86
  O       51     1.86   4.95   0.00   0.00   6.80    -0.80
  O       52     1.87   4.99   0.00   0.00   6.86    -0.86
  O       53     1.89   5.03   0.00   0.00   6.91    -0.91
  O       54     1.86   4.95   0.00   0.00   6.80    -0.80
  O       55     1.87   4.99   0.00   0.00   6.86    -0.86
  O       56     1.87   4.99   0.00   0.00   6.86    -0.86
  Zr       1     2.37   6.48   1.92   0.00  10.77     1.23
  Zr       2     2.36   6.48   1.92   0.00  10.76     1.24
  Zr       3     2.36   6.47   1.92   0.00  10.76     1.24
  Zr       4     2.36   6.48   1.92   0.00  10.76     1.24
[...]
  La       2     2.11   6.19   1.19   0.00   9.49     1.51
  La       3     2.02   6.16   1.20   0.00   9.38     1.62
  La       4     2.06   6.18   1.19   0.00   9.44     1.56
  La       5     2.05   6.17   1.20   0.00   9.41     1.59
  La       6     2.10   6.19   1.19   0.00   9.48     1.52
  La       7     2.05   6.17   1.20   0.00   9.41     1.59
  La       8     2.09   6.20   1.19   0.00   9.48     1.52
  La       9     2.11   6.19   1.19   0.00   9.49     1.51
  La      10     2.07   6.18   1.20   0.00   9.44     1.56
  La      11     2.10   6.19   1.19   0.00   9.48     1.52
  La      12     2.09   6.19   1.19   0.00   9.48     1.52
  La      13     2.04   6.17   1.20   0.00   9.41     1.59
  La      14     2.07   6.18   1.19   0.00   9.44     1.56
  La      15     2.09   6.20   1.19   0.00   9.48     1.52
  La      16     2.07   6.18   1.19   0.00   9.44     1.56

            Bond              Population      Length (A)
         O 42 -- Sn 8              0.35        2.09758
         O 9  -- Sn 10             0.34        2.10086
         O 25 -- Sn 8              0.35        2.10256
         O 19 -- Sn 6              0.34        2.10318
         O 47 -- Sn 2              0.34        2.10322
         O 55 -- Sn 4              0.34        2.10325
         O 43 -- Sn 9              0.34        2.10363
         O 16 -- Sn 11             0.35        2.10371
         O 9  -- Sn 5              0.34        2.10399
         O 15 -- Sn 7              0.34        2.10454
         O 52 -- Sn 10             0.34        2.10496
         O 37 -- Sn 6              0.34        2.10512
         O 32 -- Sn 7              0.34        2.10543
         O 37 -- Sn 2              0.34        2.10562
         O 50 -- Sn 8              0.34        2.10564
         O 56 -- Sn 6              0.34        2.10564
         O 48 -- Sn 7              0.34        2.10611
         O 22 -- Sn 6              0.34        2.10685
         O 40 -- Sn 1              0.34        2.10717
         O 32 -- Sn 11             0.34        2.10717
         O 17 -- Sn 11             0.34        2.10719
         O 34 -- Sn 9              0.34        2.10776
         O 27 -- Sn 5              0.34        2.10792
         O 20 -- Sn 3              0.34        2.10795
         O 40 -- Sn 5              0.34        2.10810
         O 26 -- Sn 4              0.34        2.10814
         O 39 -- Sn 2              0.34        2.10816
         O 24 -- Sn 10             0.34        2.10830
         O 21 -- Sn 7              0.34        2.10849
         O 45 -- Zr 1              0.42        2.10858
         O 23 -- Sn 5              0.34        2.10901
         O 21 -- Sn 4              0.34        2.10904
         O 10 -- Zr 4              0.41        2.10908
         O 44 -- Sn 1              0.34        2.10932
         O 45 -- Zr 5              0.42        2.10945
         O 36 -- Sn 11             0.34        2.10976
         O 20 -- Sn 5              0.34        2.10978
         O 28 -- Sn 3              0.34        2.10978
         O 22 -- Sn 9              0.33        2.10989
         O 26 -- Sn 11             0.33        2.11037
         O 10 -- Zr 3              0.41        2.11046
         O 34 -- Sn 2              0.33        2.11073
         O 36 -- Sn 1              0.33        2.11108
         O 14 -- Sn 10             0.34        2.11108
         O 33 -- Sn 1              0.34        2.11139
         O 49 -- Sn 2              0.34        2.11144
         O 54 -- Zr 4              0.42        2.11148
         O 49 -- Sn 3              0.34        2.11153
         O 14 -- Sn 3              0.34        2.11166
         O 18 -- Sn 4              0.34        2.11209
         O 13 -- Sn 8              0.34        2.11217
         O 38 -- Sn 5              0.34        2.11256
         O 53 -- Sn 1              0.34        2.11261
         O 29 -- Sn 9              0.34        2.11291
         O 54 -- Zr 1              0.41        2.11294
         O 44 -- Sn 10             0.33        2.11316
         O 33 -- Sn 7              0.33        2.11338
         O 13 -- Sn 9              0.33        2.11366
         O 31 -- Zr 3              0.42        2.11381
         O 53 -- Sn 4              0.33        2.11412
[...]
         O 19 -- O 35             -0.03        2.82750
         O 51 -- O 55             -0.03        2.82765
         O 10 -- O 23             -0.03        2.82781
         O 47 -- O 51             -0.03        2.83098
         O 38 -- O 42             -0.03        2.83354
         O 38 -- O 55             -0.03        2.83470
         O 23 -- O 47             -0.03        2.83481
         O 48 -- O 50             -0.03        2.83500
         O 17 -- O 24             -0.03        2.83514
         O 25 -- O 39             -0.03        2.83518
         O 52 -- O 56             -0.03        2.83649
         O 19 -- O 27             -0.03        2.83864
         O 15 -- O 27             -0.03        2.83884
         O 17 -- O 25             -0.03        2.83898
         O 48 -- O 52             -0.03        2.84024

Initialisation time =     25.48 s
Calculation time    =   2648.36 s
Finalisation time   =      0.13 s
Total time          =   2673.97 s

Overall parallel efficiency rating: Good (73%)

Data was distributed by:-
G-vector (64-way); efficiency rating: Good (74%)
k-point (14-way); efficiency rating: Excellent (98%)